# For a description of the Tecplot format see the Tecplot User's guide.
#
Variables=x,y,z,stress_xx,stress_yy,stress_zz,stress_xy,stress_yz,stress_zx,disp_x,disp_y,disp_z
Zone f=fepoint, n=3751, e=3000, et=brick, t="T 1", c=black
6000.00 9000.00 -1333.33 -13004835.645672452 9945984.0271281004 -32695236.961168051 -4.0740288681191398e-06 -0.0013461910182792939 0.00012539595863201742 0.80000000002881688 -0.50000000001414191 -6.5412712769338039 
6000.0000000000000 10000.000000000000 -1333.3333333329999 -13004835.645787232 9945984.0269486569 -32695236.961512636 -3.2588585926122718e-06 -0.00074056840410888604 0.00011915163868775172 0.80000000002872351 0.0000000000000000 -6.5412712769122949 
7000.0000000000000 10000.000000000000 -1333.3333333329999 -13004835.645822894 9945984.0270190779 -32695236.961194400 -4.8936634238316180e-06 -0.00074315477061307595 0.00064700322157381209 0.60000000002168108 0.0000000000000000 -6.5412712770854364 
7000.0000000000000 9000.0000000000000 -1333.3333333329999 -13004835.645704946 9945984.0271946080 -32695236.960853916 -9.5219503838545128e-06 -0.0013501736005678516 0.00064403045530202804 0.60000000002182885 -0.50000000001425737 -6.5412712771072359 
6000.0000000000000 9000.0000000000000 -1500.0000000000000 -14157091.201682061 8793728.4699776210 -36780506.660576217 3.3424787960280981e-06 -0.0013931722977875527 9.5256624016024560e-05 0.79999999998898474 -0.49999999999136147 -6.4003899922431993 
6000.0000000000000 10000.000000000000 -1500.0000000000000 -14157091.201784737 8793728.4698504340 -36780506.660917804 3.2025135443873338e-07 -0.00076827793445807075 8.8915742315771892e-05 0.79999999998900306 0.0000000000000000 -6.4003899922204006 
7000.0000000000000 10000.000000000000 -1500.0000000000000 -14157091.201840626 8793728.4698957652 -36780506.660654962 -1.7347130616372919e-06 -0.00077078640170268531 0.00065543804509150057 0.59999999999306008 0.0000000000000000 -6.4003899923950449 
7000.0000000000000 9000.0000000000000 -1500.0000000000000 -14157091.201734271 8793728.4700185135 -36780506.660319984 -3.2447766698641691e-06 -0.0013973144138717003 0.00065254897539495542 0.59999999999310905 -0.49999999999124445 -6.4003899924181260 
6000.0000000000000 9000.0000000000000 -1166.6666666670001 -11852476.920642311 11098342.753296686 -28609601.480546247 -1.1526860012772915e-05 -0.0012809539431461558 0.00015351064844571012 0.80000000006866501 -0.50000000003584855 -6.6672424056203772 
6000.0000000000000 10000.000000000000 -1166.6666666670001 -11852476.920768673 11098342.753057696 -28609601.480883833 -6.8470602580602407e-06 -0.00070265307097873647 0.00014729494710643279 0.80000000006846084 0.0000000000000000 -6.6672424056000521 
7000.0000000000000 10000.000000000000 -1166.6666666670001 -11852476.920771055 11098342.753151277 -28609601.480532728 -8.1783148639770833e-06 -0.00070525665585759179 0.00063013542134797602 0.60000000004980136 0.0000000000000000 -6.6672424057716038 
7000.0000000000000 9000.0000000000000 -1166.6666666670001 -11852476.920641949 11098342.753386920 -28609601.480196863 -1.6062770045570765e-05 -0.0012848870642649080 0.00062720312519954887 0.60000000005005161 -0.50000000003619782 -6.6672424057922228 
6000.0000000000000 9000.0000000000000 -1000.0000000000000 -10700015.017349239 12250804.657722292 -24523600.185929697 -1.8872517189473490e-05 -0.0011948636389124898 0.00017710990976098530 0.80000000010845340 -0.50000000005630396 -6.7783020432993926 
6000.0000000000000 10000.000000000000 -1000.0000000000000 -10700015.017486854 12250804.657415619 -24523600.186250150 -1.0384370517742849e-05 -0.00065324819415002087 0.00017090864269627640 0.80000000010814110 0.0000000000000000 -6.7783020432801058 
7000.0000000000000 10000.000000000000 -1000.0000000000000 -10700015.017440921 12250804.657530926 -24523600.185888011 -1.1596446893691712e-05 -0.00065578332210379487 0.00060261463354527583 0.60000000007731702 0.0000000000000000 -6.7783020434500756 
7000.0000000000000 9000.0000000000000 -1000.0000000000000 -10700015.017300840 12250804.657834824 -24523600.185567200 -2.2884080849179131e-05 -0.0011988027448050168 0.00059984662013125788 0.60000000007767351 -0.50000000005688505 -6.7783020434696670 
6000.0000000000000 9000.0000000000000 -833.33333333329995 -9547449.9265545253 13403369.749639822 -20437233.044549674 -2.5949776008182610e-05 -0.0010850303068779849 0.00019337524044585425 0.80000000014809758 -0.50000000007531920 -6.8744488548452534 
6000.0000000000000 10000.000000000000 -833.33333333329995 -9547449.9267032724 13403369.749256458 -20437233.044842809 -1.3805446334093836e-05 -0.00059094953185405191 0.00018723563321396963 0.80000000014768280 0.0000000000000000 -6.8744488548267997 
7000.0000000000000 10000.000000000000 -833.33333333329995 -9547449.9265919626 13403369.749392534 -20437233.044490919 -1.5157182474391007e-05 -0.00059329809038685362 0.00056188315192386791 0.60000000010411458 0.0000000000000000 -6.8744488549953040 
7000.0000000000000 9000.0000000000000 -833.33333333329995 -9547449.9264407661 13403369.749773696 -20437233.044195686 -3.0002511023439217e-05 -0.0010889536385175927 0.00055939691582267224 0.60000000010458165 -0.50000000007612566 -6.8744488550140730 
6000.0000000000000 9000.0000000000000 -666.66666666670005 -8394781.6390201636 14556038.038283102 -16350500.023639038 -3.2582486594613189e-05 -0.00094825793898900394 0.00019915717065852821 0.80000000018750306 -0.50000000009269130 -6.9556815050138585 
6000.0000000000000 10000.000000000000 -666.66666666670005 -8394781.6391801741 14556038.037813149 -16350500.023894701 -1.7039303568976086e-05 -0.00051422353788271879 0.00019320865961385857 0.80000000018699347 0.0000000000000000 -6.9556815049959964 
7000.0000000000000 10000.000000000000 -666.66666666670005 -8394781.6389841530 14556038.037969628 -16350500.023573473 -1.8868245574548912e-05 -0.00051625330654006042 0.00050503747945553187 0.60000000013006727 0.0000000000000000 -6.9556815051632537 
7000.0000000000000 9000.0000000000000 -666.66666666670005 -8394781.6388213541 14556038.038437922 -16350500.023314422 -3.7434544732080699e-05 -0.00095205675678536534 0.00050293203326437811 0.60000000013064891 -0.50000000009371182 -6.9556815051814471 
6000.0000000000000 9000.0000000000000 -500.00000000000000 -7242010.1455062721 15708809.532887431 -12263401.090422789 -3.8579519782808447e-05 -0.00078103945781347818 0.00019095666977993680 0.80000000022655882 -0.50000000010820100 -7.0219986584414400 
6000.0000000000000 10000.000000000000 -500.00000000000000 -7242010.1456778934 15708809.532320151 -12263401.090630768 -2.0011924040006989e-05 -0.00042139964109145958 0.00018543852090140245 0.80000000022596485 0.0000000000000000 -7.0219986584238709 
7000.0000000000000 10000.000000000000 -500.00000000000000 -7242010.1453752276 15708809.532497363 -12263401.090359528 -2.2734447619021543e-05 -0.00042296556895257041 0.00042876359973413527 0.60000000015503052 0.0000000000000000 -7.0219986585902019 
7000.0000000000000 9000.0000000000000 -500.00000000000000 -7242010.1452000588 15708809.533063436 -12263401.090147551 -4.5192986405537766e-05 -0.00078449221405063499 0.00042712660789161769 0.60000000015573163 -0.50000000010941947 -7.0219986586081200 
6000.0000000000000 9000.0000000000000 -333.33333333330000 -6089135.4367742352 16861684.242686383 -8175936.2121288972 -4.3735565547838101e-05 -0.00057957753133415003 0.00016489061246389476 0.80000000026513196 -0.50000000012160928 -7.0733989796444394 
6000.0000000000000 10000.000000000000 -333.33333333330000 -6089135.4369580718 16861684.242010150 -8175936.2122790692 -2.2647776014127701e-05 -0.00031070715381850428 0.00016016511285166520 0.80000000026446760 0.0000000000000000 -7.0733989796268224 
7000.0000000000000 10000.000000000000 -333.33333333330000 -6089135.4365239302 16861684.242209140 -8175936.2120763194 -2.6756972371067168e-05 -0.00031165608066357749 0.00032930337337346385 0.60000000017883892 0.0000000000000000 -7.0733989797926551 
7000.0000000000000 9000.0000000000000 -333.33333333330000 -6089135.4363352526 16861684.242884461 -8175936.2119223727 -5.3285671098572556e-05 -0.00058233956691728598 0.00032819741217428409 0.60000000017966393 -0.50000000012300461 -7.0733989798106425 
6000.0000000000000 9000.0000000000000 -166.66666666670000 -4936157.5035857884 18014662.176912691 -4088105.3559846710 -4.7837032729133866e-05 -0.00033978768336464322 0.00011659492527960871 0.80000000030306295 -0.50000000013265511 -7.1098811330197247 
6000.0000000000000 10000.000000000000 -166.66666666670000 -4936157.5037827091 18014662.176115010 -4088105.3560670684 -2.4867606367625864e-05 -0.00018027860447351955 0.00011316335180902618 0.80000000030234375 0.0000000000000000 -7.1098811330016689 
7000.0000000000000 10000.000000000000 -166.66666666670000 -4936157.5031887870 18014662.176337663 -4088105.3559504403 -3.0928439535415848e-05 -0.00018046286885401241 0.00020242591245934062 0.60000000020130206 0.0000000000000000 -7.1098811331675371 
7000.0000000000000 9000.0000000000000 -166.66666666670000 -4936157.5029850667 18014662.177134532 -4088105.3558654506 -6.1714968073424794e-05 -0.00034137198212065930 0.00020187598326122880 0.60000000020225464 -0.50000000013420154 -7.1098811331859810 
6000.0000000000000 9000.0000000000000 0.0000000000000000 -4359642.7297226312 18591176.951286793 -2044098.4293530933 -4.9597035278561105e-05 -0.00020978274769378776 8.6307269640237234e-05 0.80000000034015095 -0.50000000014105284 -7.1314437828445776 
6000.0000000000000 10000.000000000000 0.0000000000000000 -4359642.7299263328 18591176.950425170 -2044098.4293990857 -2.5863269296997760e-05 -0.00010988952781053024 8.3668137149169191e-05 0.80000000033939755 0.0000000000000000 -7.1314437828256567 
7000.0000000000000 10000.000000000000 0.0000000000000000 -4359642.7292449707 18591176.950660236 -2044098.4293298256 -3.3049635679363445e-05 -0.00010965580226023213 0.00013157016924266531 0.60000000022220168 0.0000000000000000 -7.1314437829922106 
7000.0000000000000 9000.0000000000000 0.0000000000000000 -4359642.7290333100 18591176.951521046 -2044098.4292820948 -6.6013533572942929e-05 -0.00021063455735143314 0.00013130101410933572 0.60000000022328392 -0.50000000014272017 -7.1314437830115347 
9000.0000000000000 4000.0000000000000 -1333.3333333329999 -13004835.646560900 9945984.0252481345 -32695236.961684763 -4.5657346183021140e-05 0.0074013928055486362 -0.00044436632501022850 0.20000000001732740 -3.0000000000829052 -6.5412712801161561 
9000.0000000000000 5000.0000000000000 -1333.3333333329999 -13004835.645315357 9945984.0272452068 -32695236.958316516 -8.4529948044195831e-05 0.0031169486921824728 -0.00013448022383333403 0.20000000001463444 -2.5000000000947313 -6.5412712788871392 
10000.000000000000 5000.0000000000000 -1333.3333333329999 -13004835.645348042 9945984.0272834674 -32695236.958055507 -4.5231017837724842e-05 0.0032524434427854878 -7.7778119978111132e-05 0.0000000000000000 -2.5000000000961835 -6.5412712789195169 
10000.000000000000 4000.0000000000000 -1333.3333333329999 -13004835.646614606 9945984.0252634212 -32695236.961378172 -2.1896239088783312e-05 0.0075688058127005246 -0.00021467460943688319 0.0000000000000000 -3.0000000000835616 -6.5412712801589139 
9000.0000000000000 4000.0000000000000 -1500.0000000000000 -14157091.202835970 8793728.4683027901 -36780506.662391871 -2.5468788001939600e-05 0.0077639856151831459 -0.00047272293993086444 0.20000000000738979 -2.9999999999234497 -6.4003899954295331 
9000.0000000000000 5000.0000000000000 -1500.0000000000000 -14157091.201585284 8793728.4698358309 -36780506.658460550 -7.1570116571458955e-05 0.0033598566628318272 -0.00015008105717108201 0.20000000000519599 -2.4999999999554134 -6.4003899942110696 
10000.000000000000 5000.0000000000000 -1500.0000000000000 -14157091.201621145 8793728.4698770382 -36780506.658163950 -3.8290976620747666e-05 0.0035033578187964381 -7.5825538933811220e-05 0.0000000000000000 -2.4999999999566560 -6.4003899942440876 
10000.000000000000 4000.0000000000000 -1500.0000000000000 -14157091.202886958 8793728.4683228433 -36780506.662045412 -1.1080180312340216e-05 0.0079373210211590908 -0.00021417614790465660 0.0000000000000000 -2.9999999999237796 -6.4003899954728576 
9000.0000000000000 4000.0000000000000 -1166.6666666670001 -11852476.921261529 11098342.751330303 -28609601.480034631 -6.8637914152087416e-05 0.0069249006141312956 -0.00041689392570036342 0.20000000002711313 -3.0000000002495777 -6.6672424087945519 
9000.0000000000000 5000.0000000000000 -1166.6666666670001 -11852476.920012800 11098342.753792137 -28609601.477200046 -9.9259894390029438e-05 0.0028263311880912263 -0.00012161735159720899 0.20000000002384624 -2.5000000002374203 -6.6672424075576737 
10000.000000000000 5000.0000000000000 -1166.6666666670001 -11852476.920043550 11098342.753826402 -28609601.476980470 -5.3457302885233211e-05 0.0029530885022418067 -7.9842450356858020e-05 0.0000000000000000 -2.5000000002391261 -6.6672424075895496 
10000.000000000000 4000.0000000000000 -1166.6666666670001 -11852476.921321481 11098342.751339085 -28609601.479776017 -3.4553881143247708e-05 0.0070849800933405725 -0.00021467922993218154 0.0000000000000000 -3.0000000002506222 -6.6672424088369651 
9000.0000000000000 4000.0000000000000 -1000.0000000000000 -10700015.017687880 12250804.655817389 -24523600.184659623 -9.5333502670327444e-05 0.0063302450770746444 -0.00038918390761294474 0.20000000003683985 -3.0000000004240621 -6.7783020464625849 
9000.0000000000000 5000.0000000000000 -1000.0000000000000 -10700015.016428022 12250804.658739457 -24523600.182328910 -0.00011680192763471024 0.0024918195202113837 -0.00011112576545415490 0.20000000003288235 -2.5000000003835918 -6.7783020452203493 
10000.000000000000 5000.0000000000000 -1000.0000000000000 -10700015.016459292 12250804.658768926 -24523600.182154387 -6.3697450422196743e-05 0.0026087702757006622 -8.1385803401345946e-05 0.0000000000000000 -2.5000000003856209 -6.7783020452518654 
10000.000000000000 4000.0000000000000 -1000.0000000000000 -10700015.017759772 12250804.655817799 -24523600.184454773 -4.9754086989900179e-05 0.0064811340821767788 -0.00021286578793525420 0.0000000000000000 -3.0000000004255805 -6.7783020465048631 
9000.0000000000000 4000.0000000000000 -833.33333333329995 -9547449.9265936539 13403369.747976398 -20437233.042790968 -0.00012710792330470654 0.0056136250159986977 -0.00035933315434492425 0.20000000004662735 -3.0000000006069913 -6.8744488579960636 
9000.0000000000000 5000.0000000000000 -833.33333333329995 -9547449.9253149480 13403369.751347747 -20437233.040933456 -0.00013849531968985866 0.0021184205141799527 -0.00010224472393841893 0.20000000004180543 -2.5000000005333494 -6.8744488567507833 
10000.000000000000 5000.0000000000000 -833.33333333329995 -9547449.9253505580 13403369.751372013 -20437233.040804993 -7.6857520136519887e-05 0.0022240064758722740 -8.1531104266265112e-05 0.0000000000000000 -2.5000000005358003 -6.8744488567820703 
10000.000000000000 4000.0000000000000 -833.33333333329995 -9547449.9266857002 13403369.747966601 -20437233.042642578 -6.8472796534793654e-05 0.0057527978891459839 -0.00020733855775266236 0.0000000000000000 -3.0000000006091052 -6.8744488580383933 
9000.0000000000000 4000.0000000000000 -666.66666666670005 -8394781.6387329902 14556038.037077036 -16350500.021661416 -0.00016591119864345030 0.0047717751605491476 -0.00032452005334824468 0.20000000005662424 -3.0000000007990293 -6.9556815081523471 
9000.0000000000000 5000.0000000000000 -666.66666666670005 -8394781.6374278497 14556038.040878560 -16350500.020245466 -0.00016602881819393749 0.0017124992199077534 -9.3768296870089655e-05 0.20000000005068960 -2.5000000006867698 -6.9556815069061315 
10000.000000000000 5000.0000000000000 -666.66666666670005 -8394781.6374731921 14556038.040897788 -16350500.020161144 -9.4039408163524869e-05 0.0018045242118861055 -7.9138607635047760e-05 0.0000000000000000 -2.5000000006897753 -6.9556815069372959 
10000.000000000000 4000.0000000000000 -666.66666666670005 -8394781.6388562266 14556038.037055474 -16350500.021568228 -9.2018120249995209e-05 0.0048957807284840341 -0.00019557389150422455 0.0000000000000000 -3.0000000008019048 -6.9556815081948580 
9000.0000000000000 4000.0000000000000 -500.00000000000000 -7242010.1448577289 15708809.532395093 -12263401.088495534 -0.00021443703231668765 0.0038021686031575463 -0.00028092456587405876 0.20000000006701080 -3.0000000010008665 -7.0219986615691488 
9000.0000000000000 5000.0000000000000 -500.00000000000000 -7242010.1435187887 15708809.536597021 -12263401.087489134 -0.00020148419233721214 0.0012819723683502621 -8.4031231360651105e-05 0.20000000005962118 -2.5000000008438925 -7.0219986603238862 
10000.000000000000 5000.0000000000000 -500.00000000000000 -7242010.1435810458 15708809.536612118 -12263401.087443862 -0.00011654324932693319 0.0013574337282455586 -7.2844094045764241e-05 0.0000000000000000 -2.5000000008476246 -7.0219986603549946 
10000.000000000000 4000.0000000000000 -500.00000000000000 -7242010.1450262973 15708809.532360859 -12263401.088451480 -0.00012204375110715866 0.0039062930580996309 -0.00017446676774920378 0.0000000000000000 -3.0000000010047221 -7.0219986616118835 
9000.0000000000000 4000.0000000000000 -333.33333333330000 -6089135.4357206188 16861684.243209988 -8175936.2105209129 -0.00027625971243227393 0.0027035429592451908 -0.00022371447657312235 0.20000000007799909 -3.0000000012132051 -7.0733989827644317 
9000.0000000000000 5000.0000000000000 -333.33333333330000 -6089135.4343408076 16861684.247768559 -8175936.2098922934 -0.00024736743075149254 0.00083675865977668202 -7.0914346440851896e-05 0.20000000006869875 -2.5000000010047003 -7.0733989815217919 
10000.000000000000 5000.0000000000000 -333.33333333330000 -6089135.4344291855 16861684.247781355 -8175936.2098775040 -0.00014585954042674548 0.00089170041046638076 -6.1115680113179614e-05 0.0000000000000000 -2.5000000010093730 -7.0733989815528728 
10000.000000000000 4000.0000000000000 -333.33333333330000 -6089135.4359517768 16861684.243163422 -8175936.2105140630 -0.00016050664764462690 0.0027814579097587490 -0.00014046916334400258 0.0000000000000000 -3.0000000012183188 -7.0733989828073360 
9000.0000000000000 4000.0000000000000 -166.66666666670000 -4936157.5020744670 18014662.178806417 -4088105.3549650563 -0.00035591374308717243 0.0014764076705296048 -0.00014705902933766671 0.20000000008983249 -3.0000000014367325 -7.1098811361366288 
9000.0000000000000 5000.0000000000000 -166.66666666670000 -4936157.5006469935 18014662.183659542 -4088105.3546830732 -0.00030661495887082375 0.00038906831018004670 -5.1801771782654930e-05 0.20000000007803426 -2.5000000011691021 -7.1098811348980444 
10000.000000000000 5000.0000000000000 -166.66666666670000 -4936157.5007730322 18014662.183672935 -4088105.3546864362 -0.00018363255466452387 0.00041849120766630863 -4.2234000040655815e-05 0.0000000000000000 -2.5000000011749752 -7.1098811349290694 
10000.000000000000 4000.0000000000000 -166.66666666670000 -4936157.5023882911 18014662.178749882 -4088105.3549766159 -0.00020950894776503433 0.0015199243075678733 -8.9821046964061511e-05 0.0000000000000000 -3.0000000014434409 -7.1098811361795127 
9000.0000000000000 4000.0000000000000 0.0000000000000000 -4359642.7279681638 18591176.953961026 -2044098.4286949872 -0.00040082673823911493 0.00083090577319744298 -0.00010308111169496522 0.20000000010278313 -3.0000000016720847 -7.1314437859646507 
9000.0000000000000 5000.0000000000000 0.0000000000000000 -4359642.7265151935 18591176.958943315 -2044098.4285786438 -0.00033997320788021752 0.00016628112119020786 -4.0386673254391767e-05 0.20000000008775556 -2.5000000013369177 -7.1314437847312888 
10000.000000000000 5000.0000000000000 0.0000000000000000 -4359642.7266632598 18591176.958957866 -2044098.4285875009 -0.00020484636812071041 0.00018156376174129464 -3.0777934972185489e-05 0.0000000000000000 -2.5000000013442967 -7.1314437847621788 
10000.000000000000 4000.0000000000000 0.0000000000000000 -4359642.7283286611 18591176.953900404 -2044098.4287101442 -0.00023690920694507611 0.00085493473710401748 -5.9861977622187605e-05 0.0000000000000000 -3.0000000016807697 -7.1314437860071882 
3000.0000000000000 2000.0000000000000 -1333.3333333329999 -13004835.649191720 9945984.0214895420 -32695236.975353956 8.4333252413768063e-05 0.011787778944868037 -0.0052376186620403994 1.4000000000217763 -4.0000000000049445 -6.5412712815197107 
3000.0000000000000 3000.0000000000000 -1333.3333333329999 -13004835.646538077 9945984.0238932576 -32695236.965760760 8.0379087386301687e-06 0.010736265773370262 -0.0049458990014553412 1.4000000000244448 -3.5000000000431521 -6.5412712798845751 
4000.0000000000000 3000.0000000000000 -1333.3333333329999 -13004835.647708163 9945984.0230769366 -32695236.967823099 -9.2267403087806097e-06 0.011068105121730443 -0.0029363372037606826 1.2000000000353703 -3.5000000000426792 -6.5412712805289548 
4000.0000000000000 2000.0000000000000 -1333.3333333329999 -13004835.650334189 9945984.0206633881 -32695236.977734022 3.8791606071316752e-05 0.011889642377272393 -0.0030937758425272108 1.2000000000342348 -4.0000000000009202 -6.5412712821974406 
3000.0000000000000 2000.0000000000000 -1500.0000000000000 -14157091.205800675 8793728.4663987197 -36780506.676673748 0.00011204509821777174 0.012019708396515954 -0.0054086157294220543 1.3999999999593749 -3.9999999998766986 -6.4003899967733551 
3000.0000000000000 3000.0000000000000 -1500.0000000000000 -14157091.203226736 8793728.4678005669 -36780506.666469790 4.2719363805218544e-05 0.011084781062050835 -0.0051358880610651138 1.3999999999633244 -3.4999999998875855 -6.4003899951786867 
4000.0000000000000 3000.0000000000000 -1500.0000000000000 -14157091.204091683 8793728.4670026824 -36780506.668758623 1.8110796775806270e-05 0.011414081311122445 -0.0031009921188926643 1.1999999999746673 -3.4999999998858082 -6.4003899958172221 
4000.0000000000000 2000.0000000000000 -1500.0000000000000 -14157091.206622198 8793728.4655959439 -36780506.679332830 6.0577328189162410e-05 0.012097548363785000 -0.0032486080637145346 1.1999999999725921 -3.9999999998716236 -6.4003899974427165 
3000.0000000000000 2000.0000000000000 -1166.6666666670001 -11852476.923593037 11098342.745548911 -28609601.492887065 5.1953060892795447e-05 0.011377822635579264 -0.0049950491713110813 1.4000000000884185 -4.0000000001440315 -6.6672424102526051 
3000.0000000000000 3000.0000000000000 -1166.6666666670001 -11852476.920852626 11098342.749076802 -28609601.483993001 -3.0740033719242344e-05 0.010221227723051146 -0.0046904324343274842 1.4000000000896069 -3.5000000002089524 -6.6672424085811173 
4000.0000000000000 3000.0000000000000 -1166.6666666670001 -11852476.922353594 11098342.748238081 -28609601.485828854 -3.8866700402115947e-05 0.010550569685023962 -0.0027326704921770092 1.2000000000986777 -3.5000000002099290 -6.6672424092301110 
4000.0000000000000 2000.0000000000000 -1166.6666666670001 -11852476.925085900 11098342.744693927 -28609601.494980633 1.4326305639171630e-05 0.011499367059028291 -0.0028967378441593175 1.2000000000985878 -4.0000000001412408 -6.6672424109369981 
3000.0000000000000 2000.0000000000000 -1000.0000000000000 -10700015.019761877 12250804.647825031 -24523600.196473770 1.4601671190298898e-05 0.010763806674734009 -0.0046724335674013431 1.4000000001598245 -4.0000000002954215 -6.7783020479686931 
3000.0000000000000 3000.0000000000000 -1000.0000000000000 -10700015.016927853 12250804.652615089 -24523600.188383870 -7.3937141463944841e-05 0.0095233305615560239 -0.0043622226638036412 1.4000000001593251 -3.5000000003861227 -6.7783020462655674 
4000.0000000000000 3000.0000000000000 -1000.0000000000000 -10700015.018789841 12250804.651749054 -24523600.189992536 -7.0950187390294217e-05 0.0098443045322992688 -0.0024887775332962866 1.2000000001648079 -3.5000000003887033 -6.7783020469179514 
4000.0000000000000 2000.0000000000000 -1000.0000000000000 -10700015.021640183 12250804.646934133 -24523600.198275473 -1.2961916076363218e-05 0.010899640766175795 -0.0026556795435226186 1.2000000001658753 -4.0000000002940590 -6.7783020486579977 
3000.0000000000000 2000.0000000000000 -833.33333333329995 -9547449.9284601193 13403369.737563271 -20437233.053329002 -2.8136341225545262e-05 0.0099155527503149224 -0.0042596949631676330 1.4000000002366022 -4.0000000004607692 -6.8744488595424889 
3000.0000000000000 3000.0000000000000 -833.33333333329995 -9547449.9255256690 13403369.743771253 -20437233.046165261 -0.00012224548554218864 0.0086248000662049931 -0.0039526130270486608 1.4000000002341897 -3.5000000005759051 -6.8744488578131335 
4000.0000000000000 3000.0000000000000 -833.33333333329995 -9547449.9277844951 13403369.742871618 -20437233.047545083 -0.00010585341581686350 0.0089304723450987309 -0.0022033339563910176 1.2000000002340057 -3.5000000005802709 -6.8744488584676944 
4000.0000000000000 2000.0000000000000 -833.33333333329995 -9547449.9307668414 13403369.736626677 -20437233.054836683 -4.3300174991440110e-05 0.010059136748878931 -0.0023685024373189694 1.2000000002363540 -4.0000000004610454 -6.8744488602349270 
3000.0000000000000 2000.0000000000000 -666.66666666670005 -8394781.6404509544 14556038.024009963 -16350500.030670751 -7.6909695977492155e-05 0.0087981056732841408 -0.0037445613508691258 1.4000000003194766 -4.0000000006419461 -6.9556815097299927 
3000.0000000000000 3000.0000000000000 -666.66666666670005 -8394781.6374091618 14556038.031811688 -16350500.024572337 -0.00017703498205961835 0.0075065517515492536 -0.0034511901982094998 1.4000000003148814 -3.5000000007796430 -6.9556815079805778 
4000.0000000000000 3000.0000000000000 -666.66666666670005 -8394781.6401079539 14556038.030870477 -16350500.025719548 -0.00014438094548108771 0.0077883141232657563 -0.0018747428960688363 1.2000000003065443 -3.5000000007860312 -6.9556815086361024 
4000.0000000000000 2000.0000000000000 -666.66666666670005 -8394781.6432402469 14556038.023013746 -16350500.031885894 -7.7090964499651081e-05 0.0089414753863982805 -0.0020324887717368548 1.2000000003103279 -4.0000000006440919 -6.9556815104237666 
3000.0000000000000 2000.0000000000000 -500.00000000000000 -7242010.1464959020 15708809.516415987 -12263401.095710699 -0.00013283340779720693 0.0073708980364678763 -0.0031117487152619206 1.4000000004093325 -4.0000000008410757 -7.0219986631674942 
3000.0000000000000 3000.0000000000000 -500.00000000000000 -7242010.1433398155 15708809.526009776 -12263401.090834154 -0.00024084248775036756 0.0061483143695519691 -0.0028454024265001628 1.4000000004021933 -3.5000000009987882 -7.0219986614050445 
4000.0000000000000 3000.0000000000000 -500.00000000000000 -7242010.1465310706 15708809.525017165 -12263401.091740746 -0.00018803685001024908 0.0063948890764010582 -0.0015009833733749529 1.2000000003827325 -3.5000000010075500 -7.0219986620602706 
4000.0000000000000 2000.0000000000000 -500.00000000000000 -7242010.1498377202 15708809.515339995 -12263401.096637949 -0.00011506342375348934 0.0075042980051634005 -0.0016438600855422192 1.2000000003881661 -4.0000000008453620 -7.0219986638608081 
3000.0000000000000 2000.0000000000000 -333.33333333330000 -6089135.4373574667 16861684.224035043 -8175936.2156653423 -0.00019791790938499763 0.0055866434340958535 -0.0023417149648189079 1.4000000005072799 -4.0000000010605783 -7.0733989843715159 
3000.0000000000000 3000.0000000000000 -333.33333333330000 -6089135.4340804107 16861684.235644057 -8175936.2121849228 -0.00031812507609710235 0.0045288265600898969 -0.0021200451372585718 1.4000000004970443 -3.5000000012348940 -7.0733989826039894 
4000.0000000000000 3000.0000000000000 -333.33333333330000 -6089135.4378285566 16861684.234588679 -8175936.2128351815 -0.00023939446062691078 0.0047244573451308948 -0.0010793282615922872 1.2000000004629194 -3.5000000012465802 -7.0733989832575563 
4000.0000000000000 2000.0000000000000 -333.33333333330000 -6089135.4413440432 16861684.222849853 -8175936.2163106930 -0.00015850665705540630 0.0056977917639522918 -0.0011970559545809885 1.2000000004703253 -4.0000000010673604 -7.0733989850625525 
3000.0000000000000 2000.0000000000000 -166.66666666670000 -4936157.5037973095 18014662.156126842 -4088105.3577521294 -0.00027581317679687117 0.0033901579751417499 -0.0014088335898376342 1.4000000006147528 -4.0000000013032277 -7.1098811377390296 
3000.0000000000000 3000.0000000000000 -166.66666666670000 -4936157.5003935136 18014662.170001023 -4088105.3558602724 -0.00041640172665763202 0.0026264129999869477 -0.0012567489213586264 1.4000000006005036 -3.5000000014896098 -7.1098811359753702 
4000.0000000000000 3000.0000000000000 -166.66666666670000 -4936157.5047781216 18014662.168871056 -4088105.3562259269 -0.00030261966240944117 0.0027478811626991521 -0.00060600856959284945 1.2000000005474982 -3.5000000015051040 -7.1098811366257300 
4000.0000000000000 2000.0000000000000 -166.66666666670000 -4936157.5085519478 18014662.154789403 -4088105.3581184922 -0.00020964941984786485 0.0034628558692179501 -0.00068374768439802888 1.2000000005573757 -4.0000000013130181 -7.1098811384258847 
3000.0000000000000 2000.0000000000000 0.0000000000000000 -4359642.7297568554 18591176.929448921 -2044098.4302305388 -0.00031855215774629031 0.0021814337667961110 -0.00089803160683088403 1.4000000007336681 -4.0000000015722188 -7.1314437875474948 
3000.0000000000000 3000.0000000000000 0.0000000000000000 -4359642.7262884146 18591176.944521613 -2044098.4291833923 -0.00047196290490447544 0.0016017652419061687 -0.00078811377978844389 1.4000000007138040 -3.5000000017646644 -7.1314437857977104 
4000.0000000000000 3000.0000000000000 0.0000000000000000 -4359642.7310132673 18591176.943351433 -2044098.4293977702 -0.00033783799403528205 0.0016791837755694913 -0.00035589130712840973 1.2000000006369047 -3.5000000017853705 -7.1314437864429756 
4000.0000000000000 2000.0000000000000 0.0000000000000000 -4359642.7349308655 18591176.928022567 -2044098.4304573780 -0.00023749776292845059 0.0022302550795815263 -0.00040922175120828230 1.2000000006500100 -4.0000000015858372 -7.1314437882280446 
5000.0000000000000 8000.0000000000000 -1333.3333333329999 -13004835.645047542 9945984.0276781172 -32695236.960126843 -1.3553773405364154e-05 -0.0021455014488817722 -0.00090272839063762326 1.0000000000310889 -1.0000000000321798 -6.5412712767333767 
5000.0000000000000 9000.0000000000000 -1333.3333333329999 -13004835.645326596 9945984.0272275303 -32695236.961047910 -1.0591390230076907e-05 -0.0013379618710241423 -0.00091315308894941629 1.0000000000306291 -0.50000000001399325 -6.5412712766449834 
6000.0000000000000 8000.0000000000000 -1333.3333333329999 -13004835.645376571 9945984.0275633242 -32695236.960263643 1.0283188266457511e-06 -0.0021729689083232607 0.00014953584219732413 0.80000000002894134 -1.0000000000320473 -6.5412712770227577 
5000.0000000000000 8000.0000000000000 -1500.0000000000000 -14157091.201137861 8793728.4704215918 -36780506.659425840 -5.6752596044640183e-07 -0.0022078768162597188 -0.00098795900503007711 0.99999999998042000 -0.99999999998464795 -6.4003899920461134 
5000.0000000000000 9000.0000000000000 -1500.0000000000000 -14157091.201380650 8793728.4701037277 -36780506.660330079 -4.1211346614706442e-06 -0.0013850663868833334 -0.00099858899774529124 0.99999999998027167 -0.49999999999143585 -6.4003899919541718 
6000.0000000000000 8000.0000000000000 -1500.0000000000000 -14157091.201421455 8793728.4702785164 -36780506.659699157 1.5921292978977012e-05 -0.0022372716922297912 0.00012108941401270722 0.79999999998873728 -0.99999999998404843 -6.4003899923356968 
5000.0000000000000 8000.0000000000000 -1166.6666666670001 -11852476.919951510 11098342.753976345 -28609601.479619686 -2.6716498776263733e-05 -0.0020540177109567154 -0.00080389642666545223 1.0000000000827856 -1.0000000000780440 -6.6672424054172357 
5000.0000000000000 9000.0000000000000 -1166.6666666670001 -11852476.920264777 11098342.753371811 -28609601.480528217 -1.7133775514166980e-05 -0.0012726161673869653 -0.00081428547322163743 1.0000000000820135 -0.50000000003547906 -6.6672424053321615 
6000.0000000000000 8000.0000000000000 -1166.6666666670001 -11852476.920312721 11098342.753887698 -28609601.479644053 -1.4045418752377939e-05 -0.0020798361499935461 0.00017637526142288840 0.80000000006916039 -1.0000000000783780 -6.6672424057059647 
5000.0000000000000 8000.0000000000000 -1000.0000000000000 -10700015.016609548 12250804.658557821 -24523600.185122594 -3.9884247330256258e-05 -0.0019284923992850236 -0.00069373286981069923 1.0000000001355025 -1.0000000001219407 -6.7783020430941852 
5000.0000000000000 9000.0000000000000 -1000.0000000000000 -10700015.016955296 12250804.657775210 -24523600.185989354 -2.3683315449504151e-05 -0.0011865098250704454 -0.00070415627674439232 1.0000000001344223 -0.50000000005572087 -6.7783020430120606 
6000.0000000000000 8000.0000000000000 -1000.0000000000000 -10700015.016986877 12250804.658493351 -24523600.185059763 -2.8985484812274691e-05 -0.0019527864706183023 0.00019896740750677120 0.80000000010930716 -1.0000000001227274 -6.7783020433819496 
5000.0000000000000 8000.0000000000000 -833.33333333329995 -9547449.9257851616 13403369.750660131 -20437233.043866321 -5.2853817946163312e-05 -0.0017634140093367725 -0.00057501249586517408 1.0000000001892262 -1.0000000001635476 -6.8744488546386346 
5000.0000000000000 9000.0000000000000 -833.33333333329995 -9547449.9261619132 13403369.749672394 -20437233.044662077 -3.0162726958267719e-05 -0.0010768591744368269 -0.00058541415071506589 1.0000000001878471 -0.50000000007453593 -6.8744488545589491 
6000.0000000000000 8000.0000000000000 -833.33333333329995 -9547449.9261596818 13403369.750618029 -20437233.043742582 -4.3435144831559987e-05 -0.0017860755149218281 0.00021428416543411053 0.80000000014928774 -1.0000000001647600 -6.8744488549252534 
5000.0000000000000 8000.0000000000000 -666.66666666670005 -8394781.6382425353 14556038.039519813 -16350500.023083350 -6.5391398287524175e-05 -0.0015526486617668119 -0.00045102559042670018 1.0000000002439331 -1.0000000002025164 -6.9556815048065186 
5000.0000000000000 9000.0000000000000 -666.66666666670005 -8394781.6386490799 14556038.038296910 -16350500.023779061 -3.6485912959960446e-05 -0.00094059059675045812 -0.00046120216362809173 1.0000000002422722 -0.50000000009172751 -6.9556815047286173 
6000.0000000000000 8000.0000000000000 -666.66666666670005 -8394781.6385924891 14556038.039498426 -16350500.022925947 -5.6992714263677513e-05 -0.0015732715117914725 0.00021889718323668056 0.80000000018899520 -1.0000000002041107 -6.9556815050919436 
5000.0000000000000 8000.0000000000000 -500.00000000000000 -7242010.1447438905 15708809.534374891 -12263401.089998599 -7.7232537031023731e-05 -0.0012894445042089307 -0.00032556200801676260 1.0000000002995935 -1.0000000002384655 -7.0219986582340841 
5000.0000000000000 9000.0000000000000 -500.00000000000000 -7242010.1451793052 15708809.532883704 -12263401.090565564 -4.2557275025000528e-05 -0.00077434748095658846 -0.00033510207761565066 1.0000000002976732 -0.50000000010708234 -7.0219986581571723 
6000.0000000000000 8000.0000000000000 -500.00000000000000 -7242010.1450447524 15708809.534372693 -12263401.089835471 -6.9212438548688182e-05 -0.0013072305853500928 0.00020894159537691317 0.80000000022830431 -1.0000000002403817 -7.0219986585184007 
5000.0000000000000 8000.0000000000000 -333.33333333330000 -6089135.4360525906 16861684.244461674 -8175936.2118402282 -8.8084698851120289e-05 -0.00096640388416067491 -0.00020274192517759660 1.0000000003561647 -1.0000000002709752 -7.0733989794378269 
5000.0000000000000 9000.0000000000000 -333.33333333330000 -6089135.4365162356 16861684.242665954 -8175936.2122502010 -4.8272891930810054e-05 -0.00057448501651161088 -0.00021099742071172244 1.0000000003540155 -0.50000000012036772 -7.0733989793609577 
6000.0000000000000 8000.0000000000000 -333.33333333330000 -6089135.4362771288 16861684.244477339 -8175936.2116995296 -7.9609662097116299e-05 -0.00098010871061781735 0.00018009325005882408 0.80000000026706786 -1.0000000002731342 -7.0733989797212473 
5000.0000000000000 8000.0000000000000 -166.66666666670000 -4936157.5029323781 18014662.179015528 -4088105.3558363509 -9.7637085142208605e-05 -0.00057548873666832116 -8.6868095708928734e-05 1.0000000004135954 -1.0000000002995810 -7.1098811328146434 
5000.0000000000000 9000.0000000000000 -166.66666666670000 -4936157.5034238966 18014662.176875845 -4088105.3560616635 -5.3528108243875309e-05 -0.00033708592597862238 -9.2943751953295645e-05 1.0000000004112553 -0.50000000013132861 -7.1098811327367324 
6000.0000000000000 8000.0000000000000 -166.66666666670000 -4936157.5030506821 18014662.179047968 -4088105.3557460806 -8.7675594087659224e-05 -0.00058334888304576262 0.00012747073112185178 0.80000000030510776 -1.0000000003018841 -7.1098811330975034 
5000.0000000000000 8000.0000000000000 0.0000000000000000 -4359642.7291104831 18591176.953563638 -2044098.4292763451 -0.00010204868267565739 -0.00036202329800666204 -3.1215108116363862e-05 1.0000000004718252 -1.0000000003237703 -7.1314437826418837 
5000.0000000000000 9000.0000000000000 0.0000000000000000 -4359642.7296158802 18591176.951241717 -2044098.4294024745 -5.6027730242794785e-05 -0.00020849822917216963 -3.5944218032958794e-05 1.0000000004693386 -0.50000000013968460 -7.1314437825617034 
6000.0000000000000 8000.0000000000000 0.0000000000000000 -4359642.7291678553 18591176.953604229 -2044098.4292182371 -9.1061304542739078e-05 -0.00036644769823482179 9.4564466183150620e-05 0.80000000034220620 -1.0000000003260963 -7.1314437829246371 
8000.0000000000000 1000.0000000000000 -1333.3333333329999 -13004835.653633054 9945984.0185972657 -32695236.988272011 9.0578664995821280e-05 0.0079737705707169110 -0.0011236943824190423 0.40000000002067315 -4.4999999999893907 -6.5412712845122067 
8000.0000000000000 0.0000000000000000 -1333.3333333329999 -13004835.654618075 9945984.0180904455 -32695236.992097113 5.8876961619246976e-05 0.0046500644686983082 -0.0010204354701769769 0.40000000001816538 -5.0000000000000000 -6.5412712850292447 
7000.0000000000000 7.4168059059999997e-30 -1333.3333333329999 -13004835.654571602 9945984.0180254728 -32695236.992110539 -1.3746199156590593e-06 0.0047899560423584455 0.00044033563194455623 0.60000000002685983 -5.0000000000000000 -6.5412712848297430 
7000.0000000000000 1000.0000000000000 -1333.3333333329999 -13004835.653569385 9945984.0185410138 -32695236.988420948 -3.4296450820489306e-06 0.0080836842320235452 0.00043881225013181247 0.60000000002679688 -4.4999999999923750 -6.5412712842973733 
8000.0000000000000 1000.0000000000000 -1500.0000000000000 -14157091.209704492 8793728.4643275701 -36780506.690759934 0.00010309907903421417 0.0080665198452940963 -0.0011322305825890201 0.39999999999721375 -4.4999999999153815 -6.4003899997114582 
8000.0000000000000 0.0000000000000000 -1500.0000000000000 -14157091.210644983 8793728.4641594104 -36780506.694714904 6.3843094960319913e-05 0.0046811374141373938 -0.0010132876611509438 0.39999999999460145 -5.0000000000000000 -6.4003900002101766 
7000.0000000000000 2.1239035100000000e-29 -1500.0000000000000 -14157091.210611884 8793728.4640959371 -36780506.694654301 2.0659237726927580e-06 0.0048298889524258110 0.00043794577708412938 0.59999999999376008 -5.0000000000000000 -6.4003900000114688 
7000.0000000000000 1000.0000000000000 -1500.0000000000000 -14157091.209652113 8793728.4642715491 -36780506.690834858 3.3089428870651877e-06 0.0081905249411122569 0.00043717311640680120 0.59999999999380371 -4.4999999999186917 -6.4003899994961539 
8000.0000000000000 1000.0000000000000 -1166.6666666670001 -11852476.928548699 11098342.741690855 -28609601.504597116 7.5177294031365664e-05 0.0077641944851764687 -0.0011042156881837341 0.40000000004430053 -4.5000000000705960 -6.6672424132930681 
8000.0000000000000 0.0000000000000000 -1166.6666666670001 -11852476.929580923 11098342.740784882 -28609601.508247778 5.2526205389410427e-05 0.0045523204213463835 -0.0010162739174638467 0.40000000004194036 -5.0000000000000000 -6.6672424138274122 
7000.0000000000000 2.3261800339999999e-29 -1166.6666666670001 -11852476.929519918 11098342.740723591 -28609601.508322962 -4.9872779217357484e-06 0.0046827067856734378 0.00043902167555657460 0.60000000005971221 -5.0000000000000000 -6.6672424136275286 
7000.0000000000000 1000.0000000000000 -1166.6666666670001 -11852476.928473160 11098342.741639705 -28609601.504805967 -1.0551175258038111e-05 0.0078603904062449596 0.00043674412893348192 0.60000000005953824 -4.5000000000731779 -6.6672424130792445 
8000.0000000000000 1000.0000000000000 -1000.0000000000000 -10700015.025195677 12250804.642836066 -24523600.206913289 5.6711490646572822e-05 0.0074170061777511613 -0.0010707593482461679 0.40000000006819209 -4.5000000001600782 -6.7783020510502974 
8000.0000000000000 0.0000000000000000 -1000.0000000000000 -10700015.026277978 12250804.641458673 -24523600.210334346 4.4670014725261596e-05 0.0043747232176965783 -0.00099750208437308506 0.40000000006603081 -5.0000000000000000 -6.7783020516005976 
7000.0000000000000 -2.4273182999999999e-29 -1000.0000000000000 -10700015.026199238 12250804.641407009 -24523600.210457988 -8.7257480920517373e-06 0.0044949531848693294 0.00043156639704213477 0.60000000009222410 -5.0000000000000000 -6.7783020514007193 
7000.0000000000000 1000.0000000000000 -1000.0000000000000 -10700015.025105596 12250804.642796265 -24523600.207166117 -1.7990502475786889e-05 0.0075001058585922216 0.00042857926592471232 0.60000000009193666 -4.5000000001621734 -6.7783020508379987 
8000.0000000000000 1000.0000000000000 -833.33333333329995 -9547449.9343212992 13403369.731253341 -20437233.062411349 3.5066905393563405e-05 0.0069073656990876735 -0.0010190968022970482 0.40000000009249925 -4.5000000002590843 -6.8744488626578857 
8000.0000000000000 0.0000000000000000 -833.33333333329995 -9547449.9354569949 13403369.729317861 -20437233.065535367 3.5274898846642151e-05 0.0041012463278691132 -0.00095961558507760716 0.40000000009059389 -5.0000000000000000 -6.8744488632223772 
7000.0000000000000 -4.5191771299999999e-29 -833.33333333329995 -9547449.9353536908 13403369.729282994 -20437233.065692224 -1.2530713820173691e-05 0.0042106953707754993 0.00041505061537770591 0.60000000012429067 -5.0000000000000000 -6.8744488630228560 
7000.0000000000000 1000.0000000000000 -833.33333333329995 -9547449.9342102669 13403369.731232677 -20437233.062689304 -2.5663369521445741e-05 0.0069782841574569108 0.00041145745995809510 0.60000000012388888 -4.5000000002605995 -6.8744488624475792 
8000.0000000000000 1000.0000000000000 -666.66666666670005 -8394781.6466727499 14556038.016158275 -16350500.038284473 1.0299968371001741e-05 0.0062055393878086007 -0.00094327080860374490 0.40000000011745523 -4.5000000003690621 -6.9556815128711724 
8000.0000000000000 0.0000000000000000 -666.66666666670005 -8394781.6478660777 14556038.013560174 -16350500.041030159 2.4532276785292055e-05 0.0037123346215838064 -0.00089645031087609497 0.40000000011586090 -5.0000000000000000 -6.9556815134475611 
7000.0000000000000 0.0000000000000000 -666.66666666670005 -8394781.6477252208 14556038.013551045 -16350500.041201835 -1.6329819746594968e-05 0.0038102705704985361 0.00038602465697062775 0.60000000015579114 -5.0000000000000000 -6.9556815132487069 
7000.0000000000000 1000.0000000000000 -666.66666666670005 -8394781.6465278566 14556038.016167041 -16350500.038564378 -3.3460174150231130e-05 0.0062653416634937936 0.00038200883211033699 0.60000000015527732 -4.5000000003699077 -6.9556815126632339 
8000.0000000000000 1000.0000000000000 -500.00000000000000 -7242010.1529942341 15708809.506763598 -12263401.101718817 -1.7199900495058521e-05 0.0052755261497014457 -0.00083474293485617693 0.40000000014342085 -4.5000000004917018 -7.0219986663256275 
8000.0000000000000 0.0000000000000000 -500.00000000000000 -7242010.1542511610 15708809.503375785 -12263401.103989491 1.3114644101080135e-05 0.0031838445494278417 -0.00079948487078936156 0.40000000014216913 -5.0000000000000000 -7.0219986669109788 
7000.0000000000000 -1.8204887200000001e-29 -500.00000000000000 -7242010.1540496238 15708809.503403682 -12263401.104153322 -2.0043698189868541e-05 0.0032693069523034436 0.00034049835789317555 0.60000000018658328 -5.0000000000000000 -7.0219986667130430 
7000.0000000000000 1000.0000000000000 -500.00000000000000 -7242010.1527917068 15708809.506815959 -12263401.101971928 -4.1236374008285255e-05 0.0053253372968575519 0.00033635612377984673 0.60000000018596344 -4.5000000004918084 -7.0219986661203038 
8000.0000000000000 1000.0000000000000 -333.33333333330000 -6089135.4440300446 16861684.212275121 -8175936.2199046537 -4.6430290651101115e-05 0.0040735257166626838 -0.00068103531653576524 0.40000000017095916 -4.5000000006290071 -7.0733989875367858 
8000.0000000000000 0.0000000000000000 -333.33333333330000 -6089135.4453595085 16861684.207941607 -8175936.2215868514 2.6649027741989822e-06 0.0024857768704803877 -0.00065676201313120313 0.40000000017001108 -5.0000000000000000 -7.0733989881273711 
7000.0000000000000 0.0000000000000000 -333.33333333330000 -6089135.4450574294 16861684.208020970 -8175936.2217140347 -2.3567643380506355e-05 0.0025569662405348853 0.00027397377879442484 0.60000000021649502 -5.0000000000000000 -7.0733989879305339 
7000.0000000000000 1000.0000000000000 -333.33333333330000 -6089135.4437279170 16861684.212391440 -8175936.2200950217 -4.8794600004558347e-05 0.0041140417464281967 0.00027015170924937212 0.60000000021577893 -4.5000000006283640 -7.0733989873341176 
8000.0000000000000 1000.0000000000000 -166.66666666670000 -4936157.5105240196 18014662.141891390 -4088105.3600335959 -7.5325135127264956e-05 0.0025457732416825753 -0.00046348050174098763 0.40000000020096455 -4.5000000007833627 -7.1098811409004323 
8000.0000000000000 0.0000000000000000 -166.66666666670000 -4936157.5119399931 18014662.136418182 -4088105.3609963944 -3.3277581271230489e-06 0.0015803609692732006 -0.00045120424494964073 0.40000000020011289 -5.0000000000000000 -7.1098811414915506 
7000.0000000000000 -1.9553397400000001e-29 -166.66666666670000 -4936157.5114701809 18014662.136567250 -4088105.3610503557 -2.6750539780693141e-05 0.0016333093598365034 0.00018143137465737453 0.60000000024530598 -5.0000000000000000 -7.1098811412958947 
7000.0000000000000 1000.0000000000000 -166.66666666670000 -4936157.5100501115 18014662.142101835 -4088105.3601171183 -5.5841948840179180e-05 0.0025763399669064949 0.00017859616792480315 0.60000000024450850 -4.5000000007821130 -7.1098811407001890 
8000.0000000000000 1000.0000000000000 0.0000000000000000 -4359642.7364784703 18591176.913875077 -2044098.4314827211 -8.9346258961276666e-05 0.0016930373465664857 -0.00033593327382394855 0.40000000023489779 -4.5000000009576704 -7.1314437906926127 
8000.0000000000000 0.0000000000000000 0.0000000000000000 -4359642.7379419785 18591176.907778103 -2044098.4320509001 -4.6227795101424883e-06 0.0010705335601583037 -0.00033019615304276292 0.40000000023356380 -5.0000000000000000 -7.1314437912784037 
7000.0000000000000 0.0000000000000000 0.0000000000000000 -4359642.7373672631 18591176.907967087 -2044098.4320580272 -2.8234308917366840e-05 0.0011129938499108438 0.00012799512088802534 0.60000000027270894 -5.0000000000000000 -7.1314437910838908 
7000.0000000000000 1000.0000000000000 0.0000000000000000 -4359642.7358959038 18591176.914141636 -2044098.4315007150 -5.9193425625548614e-05 0.0017182299393415832 0.00012585301622177727 0.60000000027184441 -4.5000000009562688 -7.1314437904942425 
2000.0000000000000 1000.0000000000000 -1333.3333333329999 -13004835.650540445 9945984.0210187435 -32695236.980331641 1.5388450240563473e-05 0.0080323932766512302 -0.0048680711703632754 1.6000000000000134 -4.4999999999916840 -6.5412712821254129 
2000.0000000000000 -7.4168059100000006e-30 -1333.3333333329999 -13004835.651518021 9945984.0205016322 -32695236.983992282 1.0833232022304028e-05 0.0047612898924387333 -0.0048803499543676786 1.5999999999996599 -5.0000000000000000 -6.5412712826527253 
1000.0000000000000 1.8542014770000000e-30 -1333.3333333329999 -13004835.650893390 9945984.0215055458 -32695236.980200578 -2.8107524748106089e-05 0.0046140977279204246 -0.0027822420400953297 1.7999999999943888 -5.0000000000000000 -6.5412712821384540 
1000.0000000000000 1000.0000000000000 -1333.3333333329999 -13004835.649951026 9945984.0220204554 -32695236.976453863 -4.3902661889639791e-05 0.0079024303732546583 -0.0026691812348160655 1.7999999999929313 -4.4999999999896252 -6.5412712816290375 
2000.0000000000000 1000.0000000000000 -1500.0000000000000 -14157091.207473779 8793728.4667346925 -36780506.681771271 2.2873937282491111e-05 0.0081354919052652602 -0.0049596468460775750 1.5999999999480869 -4.4999999999191074 -6.4003899973553313 
2000.0000000000000 -2.1239035100000000e-29 -1500.0000000000000 -14157091.208408829 8793728.4665557444 -36780506.685559206 1.4649198764400777e-05 0.0047994651397116157 -0.0049720851777633537 1.5999999999476142 -5.0000000000000000 -6.4003899978656671 
1000.0000000000000 5.3097587739999998e-30 -1500.0000000000000 -14157091.208125997 8793728.4675120991 -36780506.681616880 -2.6476764152065228e-05 0.0046443050890021317 -0.0028230163732523971 1.7999999999650491 -5.0000000000000000 -6.4003899973676290 
1000.0000000000000 1000.0000000000000 -1500.0000000000000 -14157091.207227424 8793728.4676907361 -36780506.677743606 -4.2923741746762186e-05 0.0079919771967734924 -0.0026954532947106157 1.7999999999636924 -4.4999999999171614 -6.4003899968762132 
2000.0000000000000 1000.0000000000000 -1166.6666666670001 -11852476.924567288 11098342.744141664 -28609601.497685846 6.6264220610865118e-06 0.0078134306774766040 -0.0047013616865601198 1.6000000000564856 -4.5000000000713092 -6.6672424108810802 
2000.0000000000000 -2.3261800299999999e-29 -1166.6666666670001 -11852476.925589969 11098342.743226076 -28609601.501176633 6.3168384617580774e-06 0.0046561181159718327 -0.0047132791485264818 1.6000000000562737 -5.0000000000000000 -6.6672424114242492 
1000.0000000000000 5.8154500860000000e-30 -1166.6666666670001 -11852476.924571849 11098342.744280193 -28609601.497577030 -2.9648263793375644e-05 0.0045177312616280271 -0.0026967334530954238 1.8000000000266045 -5.0000000000000000 -6.6672424108948674 
1000.0000000000000 1000.0000000000000 -1166.6666666670001 -11852476.923582550 11098342.745191354 -28609601.494000718 -4.4481907453487553e-05 0.0076971195290630057 -0.0025980491158573301 1.8000000000250476 -4.5000000000691465 -6.6672424103684467 
2000.0000000000000 1000.0000000000000 -1000.0000000000000 -10700015.020302504 12250804.645329127 -24523600.201017700 -3.5246707229573943e-06 0.0074580470346851070 -0.0044484148480493412 1.6000000001181183 -4.5000000001590488 -6.7783020486185626 
2000.0000000000000 2.4273182970000001e-29 -1000.0000000000000 -10700015.021373164 12250804.643942859 -24523600.204286348 1.0376014746004999e-06 0.0044707657563726882 -0.0044597379706024509 1.6000000001180721 -5.0000000000000000 -6.7783020491761299 
1000.0000000000000 -6.0682957399999997e-30 -1000.0000000000000 -10700015.019902794 12250804.645049043 -24523600.200930916 -3.1024345188013359e-05 0.0043420929535837142 -0.0025594321339595617 1.8000000000621021 -5.0000000000000000 -6.7783020486330345 
1000.0000000000000 1000.0000000000000 -1000.0000000000000 -10700015.018863136 12250804.646428280 -24523600.197579287 -4.4613391961316249e-05 0.0073553432900539300 -0.0024747914919006561 1.8000000000604537 -4.5000000001568026 -6.7783020480909437 
2000.0000000000000 1000.0000000000000 -833.33333333329995 -9547449.9284972679 13403369.733799899 -20437233.057522152 -1.5186946656726085e-05 0.0069416309034181700 -0.0040965087059656883 1.6000000001856007 -4.5000000002561498 -6.8744488602118192 
2000.0000000000000 4.5191771310000001e-29 -833.33333333329995 -9547449.9296194408 13403369.731856033 -20437233.060505200 -5.0794066405356683e-06 0.0041892019513962804 -0.0041069636891767920 1.6000000001857475 -5.0000000000000000 -6.8744488607819285 
1000.0000000000000 -1.1297942800000000e-29 -833.33333333329995 -9547449.9276307728 13403369.733015187 -20437233.057458121 -3.2230936678484106e-05 0.0040712238143709115 -0.0023623533669239125 1.8000000001013277 -5.0000000000000000 -6.8744488602268436 
1000.0000000000000 1000.0000000000000 -833.33333333329995 -9547449.9265368264 13403369.734948816 -20437233.054397453 -4.4312743865292048e-05 0.0068523333575299774 -0.0022911948510859516 1.8000000000995997 -4.5000000002538352 -6.8744488596708351 
2000.0000000000000 1000.0000000000000 -666.66666666670005 -8394781.6399018876 14556038.018768650 -16350500.034393836 -2.8481045449166197e-05 0.0062345450729680901 -0.0036311080916195627 1.6000000002597063 -4.5000000003640572 -6.9556815104161274 
2000.0000000000000 0.0000000000000000 -666.66666666670005 -8394781.6410804521 14556038.016161712 -16350500.037015164 -1.2123013256823960e-05 0.0037917862009499725 -0.0036403745070904504 1.6000000002600776 -5.0000000000000000 -6.9556815109964418 
1000.0000000000000 0.0000000000000000 -666.66666666670005 -8394781.6385004446 14556038.017373554 -16350500.034354530 -3.3452316531066743e-05 0.0036855227795292789 -0.0020966203577875379 1.8000000001447656 -5.0000000000000000 -6.9556815104314937 
1000.0000000000000 1000.0000000000000 -666.66666666670005 -8394781.6373473387 14556038.019965844 -16350500.031664569 -4.3732033351019118e-05 0.0061582516212312973 -0.0020382199077442660 1.8000000001429659 -4.5000000003616876 -6.9556815098638385 
2000.0000000000000 1000.0000000000000 -500.00000000000000 -7242010.1452622861 15708809.509448068 -12263401.098818121 -4.3519816883266862e-05 0.0053007876992899224 -0.0030357302437456941 1.6000000003412995 -4.5000000004844916 -7.0219986638668610 
2000.0000000000000 1.8204887220000000e-29 -500.00000000000000 -7242010.1465047076 15708809.506048573 -12263401.100987557 -2.0204332434000912e-05 0.0032541446737455832 -0.0030434380075073453 1.6000000003419323 -5.0000000000000000 -7.0219986644544745 
1000.0000000000000 -4.5512218100000003e-30 -500.00000000000000 -7242010.1432543593 15708809.507311514 -12263401.098807190 -3.5302958548743203e-05 0.0031608987879171591 -0.0017527044302389817 1.8000000001929357 -5.0000000000000000 -7.0219986638822691 
1000.0000000000000 1000.0000000000000 -500.00000000000000 -7242010.1420354126 15708809.510689475 -12263401.096582031 -4.3289465578971757e-05 0.0052370844619664013 -0.0017063854610665460 1.8000000001910430 -4.5000000004820473 -7.0219986633058786 
2000.0000000000000 1000.0000000000000 -333.33333333330000 -6089135.4353213990 16861684.215045463 -8175936.2179819467 -6.0391935588555378e-05 0.0040961053099960046 -0.0022917239273049068 1.6000000004313439 -4.5000000006195231 -7.0733989850793861 
2000.0000000000000 0.0000000000000000 -333.33333333330000 -6089135.4366397941 16861684.210692029 -8175936.2195936404 -2.9453168499786739e-05 0.0025454902493634757 -0.0022974389002573896 1.6000000004322832 -5.0000000000000000 -7.0733989856707220 
1000.0000000000000 0.0000000000000000 -333.33333333330000 -6089135.4326364938 16861684.212003127 -8175936.2180053387 -3.9266197937374038e-05 0.0024675713830582605 -0.0013207284302808127 1.8000000002463865 -5.0000000000000000 -7.0733989850944390 
1000.0000000000000 1000.0000000000000 -333.33333333330000 -6089135.4313419554 16861684.216322951 -8175936.2163541839 -4.3882409470728799e-05 0.0040450428313468711 -0.0012863849240029462 1.8000000002442991 -4.5000000006169083 -7.0733989845129921 
2000.0000000000000 1000.0000000000000 -166.66666666670000 -4936157.5008157827 18014662.144763410 -4088105.3590711206 -7.9156756357376631e-05 0.0025653391195611368 -0.0013780690199344935 1.6000000005309081 -4.5000000007716929 -7.1098811384492242 
2000.0000000000000 1.9553397389999999e-29 -166.66666666670000 -4936157.5022303797 18014662.139250912 -4088105.3600016502 -4.0042732749001944e-05 0.0016259908285427942 -0.0013812020559485268 1.6000000005322030 -5.0000000000000000 -7.1098811390398975 
1000.0000000000000 -4.8883493500000002e-30 -166.66666666670000 -4936157.4973908011 18014662.140607763 -4088105.3591324603 -4.8613414797115557e-05 0.0015681739147712500 -0.00079097036368859400 1.8000000003056957 -5.0000000000000000 -7.1098811384634271 
1000.0000000000000 1000.0000000000000 -166.66666666670000 -4936157.4960069787 18014662.146062739 -4088105.3581836661 -4.7356771990933695e-05 0.0025284225632478739 -0.00077027972325658084 1.8000000003031236 -4.5000000007686571 -7.1098811378815308 
2000.0000000000000 1000.0000000000000 0.0000000000000000 -4359642.7262633191 18591176.916802596 -2044098.4309950492 -8.9018552675468142e-05 0.0017107604417822583 -0.00087604754708841377 1.6000000006411523 -4.5000000009442287 -7.1314437882520831 
2000.0000000000000 0.0000000000000000 0.0000000000000000 -4359642.7277323641 18591176.910652913 -2044098.4315518178 -4.5698455052535036e-05 0.0011078796593763265 -0.00087771264723328346 1.6000000006428521 -5.0000000000000000 -7.1314437888367275 
1000.0000000000000 0.0000000000000000 0.0000000000000000 -4359642.7224538885 18591176.912032343 -2044098.4310753637 -5.5193111188242883e-05 0.0010617425245718296 -0.00050046144644402758 1.8000000003715038 -5.0000000000000000 -7.1314437882647690 
1000.0000000000000 1000.0000000000000 0.0000000000000000 -4359642.7210214902 18591176.918108381 -2044098.4305126960 -5.0125340836392440e-05 0.0016815615775676524 -0.00048734534954258507 1.8000000003677448 -4.5000000009401813 -7.1314437876881582 
2000.0000000000000 2000.0000000000000 -1333.3333333329999 -13004835.648148572 9945984.0225879177 -32695236.971576963 1.3275096094270984e-05 0.011704666155844971 -0.0048359081907215764 1.6000000000006411 -4.0000000000081704 -6.5412712808036968 
1000.0000000000000 2000.0000000000000 -1333.3333333329999 -13004835.647633217 9945984.0235841759 -32695236.967521615 -4.9145816661822942e-05 0.011704787350985360 -0.0025827393285945731 1.7999999999898153 -4.0000000000058735 -6.5412712803198598 
2000.0000000000000 2000.0000000000000 -1500.0000000000000 -14157091.205170909 8793728.4674511515 -36780506.672638111 2.7420518541845759e-05 0.011951460341427900 -0.0049263170993797114 1.5999999999490635 -3.9999999998808198 -6.4003899960721640 
1000.0000000000000 2000.0000000000000 -1500.0000000000000 -14157091.205003712 8793728.4684046097 -36780506.668420106 -4.9968035709458495e-05 0.011935509128051497 -0.0025781583105858874 1.7999999999605323 -3.9999999998785154 -6.4003899956080783 
2000.0000000000000 2000.0000000000000 -1166.6666666670001 -11852476.922081163 11098342.746698426 -28609601.489403930 -2.9941087248977280e-06 0.011283013599046933 -0.0046709664785651262 1.6000000000567065 -4.0000000001461933 -6.6672424095236469 
1000.0000000000000 2000.0000000000000 -1166.6666666670001 -11852476.921163753 11098342.747739490 -28609601.485558085 -4.7681914613498171e-05 0.011297582426881845 -0.0025402324798015066 1.8000000000220244 -4.0000000001439346 -6.6672424090211431 
2000.0000000000000 2000.0000000000000 -1000.0000000000000 -10700015.017716672 12250804.649031945 -24523600.193324145 -2.1587377550327948e-05 0.010661185106184504 -0.0044204700785991820 1.6000000001178694 -4.0000000002963434 -6.7783020472289142 
1000.0000000000000 2000.0000000000000 -1000.0000000000000 -10700015.016336113 12250804.650119044 -24523600.189746264 -4.5674717301332877e-05 0.010688130112926967 -0.0024426782928018403 1.8000000000575800 -4.0000000002941514 -6.7783020467091584 
2000.0000000000000 2000.0000000000000 -833.33333333329995 -9547449.9258055873 13403369.738835676 -20437233.050556410 -4.2696854946079209e-05 0.0098098106290730128 -0.0040717684426702103 1.6000000001848134 -4.0000000004602692 -6.8744488587942687 
1000.0000000000000 2000.0000000000000 -833.33333333329995 -9547449.9238933306 13403369.739968905 -20437233.047317598 -4.3154627653819090e-05 0.0098465682486794850 -0.0022811109238488887 1.8000000000969345 -4.0000000004581677 -6.8744488582590941 
2000.0000000000000 2000.0000000000000 -666.66666666670005 -8394781.6370968968 14556038.025358828 -16350500.028322224 -6.6471188251501635e-05 0.0086948158651681783 -0.0036103563953864175 1.6000000002583081 -4.0000000006398322 -6.9556815089759647 
1000.0000000000000 2000.0000000000000 -666.66666666670005 -8394781.6345772278 14556038.026536521 -16350500.025507079 -3.9947858116016452e-05 0.0087381348796998007 -0.0020456997224426042 1.8000000001405640 -4.0000000006378444 -6.9556815084277241 
2000.0000000000000 2000.0000000000000 -500.00000000000000 -7242010.1423342861 15708809.517856620 -12263401.093837071 -9.2981063060332898e-05 0.0072766872829120276 -0.0030197141559770006 1.6000000003392147 -4.0000000008371339 -7.0219986624105513 
1000.0000000000000 2000.0000000000000 -500.00000000000000 -7242010.1391252624 15708809.519074421 -12263401.091543578 -3.5412309113655129e-05 0.0073223542727734398 -0.0017261573762380805 1.8000000001889487 -4.0000000008353043 -7.0219986618522237 
2000.0000000000000 2000.0000000000000 -333.33333333330000 -6089135.4322573105 16861684.225589368 -8175936.2143217614 -0.00012217388001512712 0.0055095939568533866 -0.0022810504929081273 1.6000000004284980 -4.0000000010545458 -7.0733989836148154 
1000.0000000000000 2000.0000000000000 -333.33333333330000 -6089135.4282730315 16861684.226838645 -8175936.2126602298 -2.7966590962890388e-05 0.0055518228816392517 -0.0013123538849602395 1.8000000002425376 -4.0000000010529710 -7.0733989830501098 
2000.0000000000000 2000.0000000000000 -166.66666666670000 -4936157.4975978248 18014662.157826506 -4088105.3570009191 -0.00015381983630013694 0.0033406763099163407 -0.0013731985666019951 1.6000000005272290 -4.0000000012947217 -7.1098811369860195 
1000.0000000000000 2000.0000000000000 -166.66666666670000 -4936157.4927542508 18014662.159090240 -4088105.3560962174 -1.4293236639763657e-05 0.0033709216902801731 -0.00079564051455774550 1.8000000003016956 -4.0000000012936416 -7.1098811364194372 
2000.0000000000000 2000.0000000000000 0.0000000000000000 -4359642.7229632977 18591176.931230590 -2044098.4297923029 -0.00017021533928605567 0.0021487022475315861 -0.00087418365803087366 1.6000000006365795 -4.0000000015605757 -7.1314437868019880 
1000.0000000000000 2000.0000000000000 0.0000000000000000 -4359642.7176698409 18591176.932495862 -2044098.4292994549 -5.3458748742702586e-06 0.0021703811254688964 -0.00051062511975020618 1.8000000003666072 -4.0000000015605455 -7.1314437862389157 
4000.0000000000000 8000.0000000000000 -1333.3333333329999 -13004835.644362384 9945984.0280702114 -32695236.958974123 -4.5586976490915451e-05 -0.0021602779386466235 -0.0022511944005553820 1.2000000000234381 -1.0000000000312463 -6.5412712763067162 
4000.0000000000000 9000.0000000000000 -1333.3333333329999 -13004835.644644167 9945984.0276139639 -32695236.959888320 -2.2778861305608315e-05 -0.0013478404691433185 -0.0022168356476844650 1.2000000000223310 -0.50000000001346045 -6.5412712762207326 
4000.0000000000000 8000.0000000000000 -1500.0000000000000 -14157091.200608257 8793728.4708324596 -36780506.658061974 -3.6233327040799908e-05 -0.0022242697364894372 -0.0023683712582984327 1.1999999999656696 -0.99999999998405520 -6.4003899916226592 
4000.0000000000000 9000.0000000000000 -1500.0000000000000 -14157091.200853668 8793728.4705095664 -36780506.658957958 -1.8163533255389107e-05 -0.0013959500520804640 -0.0023311447018122614 1.1999999999647606 -0.49999999999107519 -6.4003899915331468 
4000.0000000000000 8000.0000000000000 -1166.6666666670001 -11852476.919114938 11098342.754351035 -28609601.478667013 -5.5408417243384708e-05 -0.0020670839440005582 -0.0020969231373517165 1.2000000000836832 -1.0000000000767608 -6.6672424049883929 
4000.0000000000000 9000.0000000000000 -1166.6666666670001 -11852476.919430975 11098342.753740160 -28609601.479570191 -2.7688436104496248e-05 -0.0012814836719970543 -0.0020653945298443662 1.2000000000823638 -0.50000000003476852 -6.6672424049057080 
4000.0000000000000 8000.0000000000000 -1000.0000000000000 -10700015.015628858 12250804.658916030 -24523600.184357874 -6.5962485952084836e-05 -0.0019397842649338008 -0.0019050460135309416 1.2000000001465627 -1.0000000001202964 -6.7783020426640954 
4000.0000000000000 9000.0000000000000 -1000.0000000000000 -10700015.015977280 12250804.658126345 -24523600.185220730 -3.3050182432188005e-05 -0.0011943604319128906 -0.0018763738094085235 1.2000000001450088 -0.50000000005482603 -6.7783020425843423 
4000.0000000000000 8000.0000000000000 -833.33333333329995 -9547449.9246712252 13403369.751002312 -20437233.043276139 -7.7532279079510087e-05 -0.0017728932800215695 -0.0016756096853340868 1.2000000002122295 -1.0000000001615306 -6.8744488542081310 
4000.0000000000000 9000.0000000000000 -833.33333333329995 -9547449.9250503816 13403369.750006687 -20437233.044069286 -3.9030373897663574e-05 -0.0010836747625608716 -0.0016499366582484634 1.2000000002104096 -0.50000000007344869 -6.8744488541307920 
4000.0000000000000 8000.0000000000000 -666.66666666670005 -8394781.6370100491 14556038.039846055 -16350500.022652328 -9.0417948304834396e-05 -0.0015602924814838387 -0.0014094288595985496 1.2000000002808273 -1.0000000002001139 -6.9556815043763018 
4000.0000000000000 9000.0000000000000 -666.66666666670005 -8394781.6374185346 14556038.038614307 -16350500.023346573 -4.5803943633209991e-05 -0.00094633638226212049 -0.0013870541649237487 1.2000000002787001 -0.50000000009043821 -6.9556815043007276 
4000.0000000000000 8000.0000000000000 -500.00000000000000 -7242010.1434115097 15708809.534684980 -12263401.089709057 -0.00010493624923586583 -0.0012952639121580742 -0.0011082986907410691 1.2000000003524824 -1.0000000002356642 -7.0219986578047155 
4000.0000000000000 9000.0000000000000 -500.00000000000000 -7242010.1438481621 15708809.533183791 -12263401.090275463 -5.3549395153844838e-05 -0.00077897484971901085 -0.0010897020546125288 1.2000000003499967 -0.50000000010558077 -7.0219986577301023 
4000.0000000000000 8000.0000000000000 -333.33333333330000 -6089135.4346427433 16861684.244755097 -8175936.2116723517 -0.00012141353255855266 -0.00097042499950543936 -0.00077514660794207190 1.2000000004272993 -1.0000000002677611 -7.0733989790096938 
4000.0000000000000 9000.0000000000000 -333.33333333330000 -6089135.4351066453 16861684.242947973 -8175936.2120823041 -6.2440899609347267e-05 -0.00057791191741519748 -0.00076102926255383076 1.2000000004243938 -0.50000000011864210 -7.0733989789350975 
4000.0000000000000 8000.0000000000000 -166.66666666670000 -4936157.5014701961 18014662.179291748 -4088105.3557680799 -0.00014018083194017859 -0.00057775250859168153 -0.00041419898623527873 1.2000000005053577 -1.0000000002959386 -7.1098811323879740 
4000.0000000000000 9000.0000000000000 -166.66666666670000 -4936157.5019607581 18014662.177138917 -4088105.3559935228 -7.2643434023427592e-05 -0.00033918803958113127 -0.00040551950905369396 1.2000000005019613 -0.50000000012936596 -7.1098811323123110 
4000.0000000000000 8000.0000000000000 0.0000000000000000 -4359642.7276286632 18591176.953831136 -2044098.4292520923 -0.00015017872631850412 -0.00036342151334421658 -0.00022738927173591777 1.2000000005867182 -1.0000000003196796 -7.1314437822167385 
4000.0000000000000 9000.0000000000000 0.0000000000000000 -4359642.7281324454 18591176.951495104 -2044098.4293783186 -7.8092386558774990e-05 -0.00020990051304502813 -0.00022170390327923081 1.2000000005827485 -0.50000000013746937 -7.1314437821387875 
3000.0000000000000 6000.0000000000000 -1333.3333333329999 -13004835.643003328 9945984.0292197689 -32695236.954648361 -0.00011197536727182296 -0.00045203342077607253 -0.0038748376425703952 1.4000000000142236 -2.0000000000728240 -6.5412712764268139 
3000.0000000000000 7000.0000000000000 -1333.3333333329999 -13004835.643149236 9945984.0292457715 -32695236.955207460 -8.5863618776880281e-05 -0.0020440016157843633 -0.0037013215964041080 1.4000000000106367 -1.5000000000508871 -6.5412712759844487 
4000.0000000000000 7000.0000000000000 -1333.3333333329999 -13004835.644063624 9945984.0284999497 -32695236.957843896 -6.6869814453686919e-05 -0.0019379904713240923 -0.0023108467652946962 1.2000000000253246 -1.5000000000541827 -6.5412712765277607 
4000.0000000000000 6000.0000000000000 -1333.3333333329999 -13004835.643986890 9945984.0284782648 -32695236.957134947 -8.3087610621560991e-05 -0.00029217479499345325 -0.0024005667723367790 1.2000000000279449 -2.0000000000772826 -6.5412712769836583 
3000.0000000000000 6000.0000000000000 -1500.0000000000000 -14157091.199645801 8793728.4717442375 -36780506.653785728 -9.5326330661847812e-05 -0.00038388357985254511 -0.0040087327922811999 1.3999999999556754 -1.9999999999666680 -6.4003899917606493 
3000.0000000000000 7000.0000000000000 -1500.0000000000000 -14157091.199732041 8793728.4718474876 -36780506.654143989 -7.3642806193390228e-05 -0.0020769291329185689 -0.0038181084024178418 1.3999999999524788 -1.4999999999756055 -6.4003899913155626 
4000.0000000000000 7000.0000000000000 -1500.0000000000000 -14157091.200363526 8793728.4711096883 -36780506.657004453 -5.3186174234565471e-05 -0.0019607478443758337 -0.0024339581996961454 1.1999999999672222 -1.4999999999785614 -6.4003899918484155 
4000.0000000000000 6000.0000000000000 -1500.0000000000000 -14157091.200346643 8793728.4710150026 -36780506.656473808 -6.5717665658756300e-05 -0.00020780681422884764 -0.0025335995591925621 1.1999999999693982 -1.9999999999706617 -6.4003899923080914 
3000.0000000000000 6000.0000000000000 -1166.6666666670001 -11852476.917347407 11098342.755811257 -28609601.474409018 -0.00012951558321425832 -0.00051731234766827668 -0.0036825079670974245 1.4000000000766486 -2.0000000001792082 -6.6672424050915273 
3000.0000000000000 7000.0000000000000 -1166.6666666670001 -11852476.917548938 11098342.755720938 -28609601.475113593 -9.8889735784909571e-05 -0.0019849410354736735 -0.0035258991151319134 1.4000000000726465 -1.5000000001247995 -6.6672424046523719 
4000.0000000000000 7000.0000000000000 -1166.6666666670001 -11852476.918765510 11098342.754966276 -28609601.477510590 -8.1099634708694677e-05 -0.0018891805309974277 -0.0021507832686251294 1.2000000000859192 -1.5000000001284537 -6.6672424052048305 
4000.0000000000000 6000.0000000000000 -1166.6666666670001 -11852476.918633459 11098342.755056085 -28609601.476681147 -0.00010105842478849397 -0.00037366378019927155 -0.0022308721083691366 1.2000000000890017 -2.0000000001841478 -6.6672424056566024 
3000.0000000000000 6000.0000000000000 -1000.0000000000000 -10700015.013439566 12250804.660770368 -24523600.180290785 -0.00014870018170882072 -0.00057265327304870843 -0.0034255282797526938 1.4000000001433965 -2.0000000002855782 -6.7783020427518101 
3000.0000000000000 7000.0000000000000 -1000.0000000000000 -10700015.013693947 12250804.660517896 -24523600.181084171 -0.00011334236389095674 -0.0018929447454150258 -0.0032857620253113904 1.4000000001389279 -1.5000000001969886 -6.7783020423160769 
4000.0000000000000 7000.0000000000000 -1000.0000000000000 -10700015.015231706 12250804.659754721 -24523600.183222096 -9.6206658252532905e-05 -0.0018076392935788140 -0.0019531634835945467 1.2000000001491762 -1.5000000002010427 -6.7783020428762635 
4000.0000000000000 6000.0000000000000 -1000.0000000000000 -10700015.015048260 12250804.660001285 -24523600.182330217 -0.00012001059952519769 -0.00044536373060574588 -0.0020238578670347704 1.2000000001527502 -2.0000000002910423 -6.7783020433238566 
3000.0000000000000 6000.0000000000000 -833.33333333329995 -9547449.9220463056 13403369.753345255 -20437233.039528623 -0.00017042919774800489 -0.00060966737700876550 -0.0030971251218869424 1.4000000002149435 -2.0000000003916600 -6.8744488542826172 
3000.0000000000000 7000.0000000000000 -833.33333333329995 -9547449.9223521315 13403369.752877617 -20437233.040352792 -0.00012992114883800739 -0.0017601985472969210 -0.0029744196939829478 1.4000000002099275 -1.5000000002670679 -6.8744488538502120 
4000.0000000000000 7000.0000000000000 -833.33333333329995 -9547449.9242288992 13403369.752107576 -20437233.042208005 -0.00011255320342838966 -0.0016857652215696570 -0.0017179179396154874 1.2000000002152611 -1.5000000002715888 -6.8744488544166042 
4000.0000000000000 6000.0000000000000 -833.33333333329995 -9547449.9239974134 13403369.752563419 -20437233.041311949 -0.00014038382477456671 -0.00049917487282607846 -0.0017793099850563878 1.2000000002193725 -2.0000000003977245 -6.8744488548602627 
3000.0000000000000 6000.0000000000000 -666.66666666670005 -8394781.6339364871 14556038.042783374 -16350500.019358721 -0.00019577755432778816 -0.00061859139676795848 -0.0026901213333939381 1.4000000002917905 -2.0000000004971308 -6.9556815044404221 
3000.0000000000000 7000.0000000000000 -666.66666666670005 -8394781.6342937462 14556038.042040000 -16350500.020153834 -0.00014940929582214901 -0.0015778438372981093 -0.0025851493039589441 1.4000000002861095 -1.5000000003346108 -6.9556815040109470 
4000.0000000000000 7000.0000000000000 -666.66666666670005 -8394781.6365247518 14556038.041266363 -16350500.021699002 -0.00013053356060176526 -0.0015150051845553728 -0.0014456839664947229 1.2000000002843307 -1.5000000003396925 -6.9556815045818956 
4000.0000000000000 6000.0000000000000 -666.66666666670005 -8394781.6362481639 14556038.041991729 -16350500.020857403 -0.00016268582041665684 -0.00052577765048628024 -0.0014976447444130991 1.2000000002890425 -2.0000000005039102 -6.9556815050221763 
3000.0000000000000 6000.0000000000000 -500.00000000000000 -7242010.1398790963 15708809.538333923 -12263401.087009013 -0.00022601637365772534 -0.00058810132108287204 -0.0021971539068073483 1.4000000003744508 -2.0000000006016099 -7.0219986578620297 
3000.0000000000000 7000.0000000000000 -500.00000000000000 -7242010.1402892321 15708809.537246304 -12263401.087713130 -0.00017268159026972128 -0.0013359209520806257 -0.0021112658768186439 1.4000000003679447 -1.5000000003991421 -7.0219986574347422 
4000.0000000000000 7000.0000000000000 -500.00000000000000 -7242010.1428851513 15708809.536474332 -12263401.088917827 -0.00015057756080747974 -0.0012858042482031381 -0.0011379775588068340 1.2000000003565263 -1.5000000004049097 -7.0219986580084868 
4000.0000000000000 6000.0000000000000 -500.00000000000000 -7242010.1425661333 15708809.537537636 -12263401.088189686 -0.00018749818565604639 -0.00051443907305332977 -0.0011800404095918934 1.2000000003619204 -2.0000000006092651 -7.0219986584462566 
3000.0000000000000 6000.0000000000000 -333.33333333330000 -6089135.4306468433 16861684.249244392 -8175936.2097105188 -0.00026263722521478711 -0.00050528372998482046 -0.0016112705206681821 1.4000000004634303 -2.0000000007046488 -7.0733989790644571 
3000.0000000000000 7000.0000000000000 -333.33333333330000 -6089135.4311128315 16861684.247735728 -8175936.2102592038 -0.00020070223165469670 -0.0010233323992284095 -0.0015467232636129733 1.4000000004558919 -1.5000000004601284 -7.0733989786382683 
4000.0000000000000 7000.0000000000000 -333.33333333330000 -6089135.4340769732 16861684.246973258 -8175936.2110904241 -0.00017315207541456295 -0.00098760263327475227 -0.00079740144051194310 1.2000000004319686 -1.5000000004667411 -7.0733989792129535 
4000.0000000000000 6000.0000000000000 -333.33333333330000 -6089135.4337181840 16861684.248451475 -8175936.2105353391 -0.00021548219286605309 -0.00045304718035607571 -0.00082865612311846561 1.2000000004381508 -2.0000000007133880 -7.0733989796493972 
3000.0000000000000 6000.0000000000000 -166.66666666670000 -4936157.4970152695 18014662.184761453 -4088105.3546932810 -0.00030739037761240022 -0.00035550653199777998 -0.00092674516282407169 1.4000000005591990 -2.0000000008057106 -7.1098811324451319 
3000.0000000000000 7000.0000000000000 -166.66666666670000 -4936157.4975417480 18014662.182746295 -4088105.3550192975 -0.00023451758164693152 -0.00062780583774177130 -0.00088700483472302545 1.4000000005503623 -1.5000000005169696 -7.1098811320185842 
4000.0000000000000 7000.0000000000000 -166.66666666670000 -4936157.5008665193 18014662.182004355 -4088105.3554427559 -0.00019876179720171826 -0.00060880337563099407 -0.00042777516088494060 1.2000000005107563 -1.5000000005246223 -7.1098811325922719 
4000.0000000000000 6000.0000000000000 -166.66666666670000 -4936157.5004708543 18014662.183983445 -4088105.3551207883 -0.00024739293720468905 -0.00032805619373045504 -0.00044673674324167316 1.2000000005178573 -2.0000000008158092 -7.1098811330289129 
3000.0000000000000 6000.0000000000000 0.0000000000000000 -4359642.7229466988 18591176.959827490 -2044098.4286584011 -0.00033203647792142608 -0.00026192997006106223 -0.00055920634729532610 1.4000000006621414 -2.0000000009041616 -7.1314437822819059 
3000.0000000000000 7000.0000000000000 0.0000000000000000 -4359642.7235048097 18591176.957536608 -2044098.4288559379 -0.00025300987650786667 -0.00040769895259855127 -0.00053291169522692047 1.4000000006516733 -1.5000000005689880 -7.1314437818531342 
4000.0000000000000 7000.0000000000000 0.0000000000000000 -4359642.7270063879 18591176.956808127 -2044098.4290668804 -0.00021239098431096010 -0.00039773856719971376 -0.00023625231900869430 1.2000000005929699 -1.5000000005779166 -7.1314437824238857 
4000.0000000000000 6000.0000000000000 0.0000000000000000 -4359642.7265930464 18591176.959060304 -2044098.4288765038 -0.00026443081400915155 -0.00024786633489314849 -0.00024861083519642707 1.2000000006011520 -2.0000000009159682 -7.1314437828625623 
5000.0000000000000 0.0000000000000000 -1333.3333333329999 -13004835.654310722 9945984.0182015486 -32695236.992457882 -3.5186505404281771e-05 0.0044421735343777484 -0.00020409907330299525 1.0000000000376030 -5.0000000000000000 -6.5412712844557861 
5000.0000000000000 1000.0000000000000 -1333.3333333329999 -13004835.653374290 9945984.0186957922 -32695236.988435820 -5.6560246665236848e-05 0.0078064689553404808 -0.00014491678407783527 1.0000000000361384 -4.4999999999849249 -6.5412712839569096 
6000.0000000000000 1000.0000000000000 -1333.3333333329999 -13004835.653594920 9945984.0185437705 -32695236.988589622 -8.9622487166860472e-05 0.0079770391458882910 0.0014110600506539569 0.80000000003193150 -4.4999999999891545 -6.5412712841701204 
6000.0000000000000 0.0000000000000000 -1333.3333333329999 -13004835.654569039 9945984.0180364270 -32695236.992411196 -5.6820886340289319e-05 0.0046534364929755418 0.0013083377129552982 0.80000000003440253 -5.0000000000000000 -6.5412712846859673 
5000.0000000000000 0.0000000000000000 -1500.0000000000000 -14157091.210293304 8793728.4643167425 -36780506.694821052 -3.2627410583836222e-05 0.0044569648402762833 -0.00029933130693587484 0.99999999998396683 -5.0000000000000000 -6.4003899996328784 
5000.0000000000000 1000.0000000000000 -1500.0000000000000 -14157091.209406199 8793728.4644746091 -36780506.690671787 -5.3060851544283394e-05 0.0078725469675608086 -0.00023131665108215056 0.99999999998259537 -4.4999999999113172 -6.4003899991538393 
6000.0000000000000 1000.0000000000000 -1500.0000000000000 -14157091.209634274 8793728.4642955288 -36780506.690938853 -8.8596046392773998e-05 0.0080673026703667900 0.0013910002345379653 0.79999999998922011 -4.4999999999155689 -6.4003899993678548 
6000.0000000000000 0.0000000000000000 -1500.0000000000000 -14157091.210563272 8793728.4641266987 -36780506.694888689 -5.4919554260744791e-05 0.0046831985646711427 0.0012714666881343969 0.79999999999159033 -5.0000000000000000 -6.4003899998653688 
5000.0000000000000 0.0000000000000000 -1166.6666666670001 -11852476.929375159 11098342.740851048 -28609601.508794755 -3.7289875670425462e-05 0.0043614435740073855 -0.00010173089257679076 1.0000000000921290 -5.0000000000000000 -6.6672424132584931 
5000.0000000000000 1000.0000000000000 -1166.6666666670001 -11852476.928385185 11098342.741742242 -28609601.504947670 -5.9075622088396651e-05 0.0076228076900776362 -5.1066512469973116e-05 1.0000000000905895 -4.5000000000657963 -6.6672424127406993 
6000.0000000000000 1000.0000000000000 -1166.6666666670001 -11852476.928566972 11098342.741620297 -28609601.505014330 -8.8800122318471693e-05 0.0077698907123178234 0.0014193361596374304 0.80000000007443461 -4.5000000000699165 -6.6672424129529011 
6000.0000000000000 0.0000000000000000 -1166.6666666670001 -11852476.929589204 11098342.740713768 -28609601.508662976 -5.7837631364286917e-05 0.0045569361677059066 0.0013329637656607570 0.80000000007697691 -5.0000000000000000 -6.6672424134860897 
5000.0000000000000 0.0000000000000000 -1000.0000000000000 -10700015.026246455 12250804.641476905 -24523600.211000994 -3.8854880126765946e-05 0.0042014593790617822 2.6900100110474005e-06 1.0000000001474425 -5.0000000000000000 -6.7783020510365306 
5000.0000000000000 1000.0000000000000 -1000.0000000000000 -10700015.025198607 12250804.642837361 -24523600.207388747 -6.0483647733774681e-05 0.0073001688135905275 4.5333064479189994e-05 1.0000000001458496 -4.5000000001550253 -6.7783020505010958 
6000.0000000000000 1000.0000000000000 -1000.0000000000000 -10700015.025299734 12250804.642751522 -24523600.207391683 -8.5870554726997548e-05 0.0074249487918117800 0.0014091057651294233 0.80000000011651895 -4.5000000001589413 -6.7783020507122558 
6000.0000000000000 0.0000000000000000 -1000.0000000000000 -10700015.026373282 12250804.641373275 -24523600.210811898 -5.7783129654156218e-05 0.0043804472719531189 0.0013382854792673513 0.80000000011909200 -5.0000000000000000 -6.7783020512614520 
5000.0000000000000 0.0000000000000000 -833.33333333329995 -9547449.9356916025 13403369.729279928 -20437233.066257950 -3.9852198936120788e-05 0.0039459862995002816 0.00010246915816214603 1.0000000002033929 -5.0000000000000000 -6.8744488626630602 
5000.0000000000000 1000.0000000000000 -833.33333333329995 -9547449.9345813394 13403369.731196079 -20437233.062954217 -6.0698072041504199e-05 0.0068130203089505695 0.00013773909631173241 1.0000000002017695 -4.5000000002538689 -6.8744488621117190 
6000.0000000000000 1000.0000000000000 -833.33333333329995 -9547449.9345461056 13403369.731156467 -20437233.062913030 -8.0609886507195953e-05 0.0069172429641713908 0.0013717034423638033 0.80000000015790096 -4.5000000002574803 -6.8744488623219748 
6000.0000000000000 0.0000000000000000 -833.33333333329995 -9547449.9356746674 13403369.729219418 -20437233.066037007 -5.6530860870570836e-05 0.0041078587391721053 0.0013152893956681305 0.80000000016045658 -5.0000000000000000 -6.8744488628854219 
5000.0000000000000 0.0000000000000000 -666.66666666670005 -8394781.6484826040 14556038.013452016 -16350500.041747086 -4.0386732268982338e-05 0.0035752202051277811 0.00018885774296531973 1.0000000002597635 -5.0000000000000000 -6.9556815128924550 
5000.0000000000000 1000.0000000000000 -666.66666666670005 -8394781.6473050416 14556038.016027303 -16350500.038841195 -5.9726785609491405e-05 0.0061307822316655517 0.00021746968971930183 1.0000000002581271 -4.5000000003637730 -6.9556815123275237 
6000.0000000000000 1000.0000000000000 -666.66666666670005 -8394781.6470591836 14556038.016049406 -16350500.038771100 -7.2919223091028491e-05 0.0062166962280741150 0.0012957907180510154 0.80000000019818807 -4.5000000003669944 -6.9556815125371747 
6000.0000000000000 0.0000000000000000 -666.66666666670005 -8394781.6482474189 14556038.013448441 -16350500.041517062 -5.4152656184615155e-05 0.0037193817690755302 0.0012523578192453443 0.80000000020067730 -5.0000000000000000 -6.9556815131125873 
5000.0000000000000 0.0000000000000000 -500.00000000000000 -7242010.1553957155 15708809.503176736 -12263401.104641685 -4.0858418534314832e-05 0.0030651701790914030 0.00025047970925114865 1.0000000003162504 -5.0000000000000000 -7.0219986663590523 
5000.0000000000000 1000.0000000000000 -500.00000000000000 -7242010.1541453907 15708809.506535089 -12263401.102239940 -5.7784296060181946e-05 0.0052168890580928124 0.00027303007300489548 1.0000000003145981 -4.5000000004864100 -7.0219986657835785 
6000.0000000000000 1000.0000000000000 -500.00000000000000 -7242010.1535895290 15708809.506641585 -12263401.102151398 -6.2974337700836449e-05 0.0052869974197056096 0.0011662954740418304 0.80000000023682571 -4.5000000004891838 -7.0219986659931033 
6000.0000000000000 0.0000000000000000 -500.00000000000000 -7242010.1548439320 15708809.503248846 -12263401.104422227 -5.1182618469784072e-05 0.0031907201241474954 0.0011343437319199690 0.80000000023922169 -5.0000000000000000 -7.0219986665775433 
5000.0000000000000 0.0000000000000000 -333.33333333330000 -6089135.4472167119 16861684.207623966 -8175936.2221180461 -4.2242407884091262e-05 0.0023868365348912192 0.00027269341212282698 1.0000000003724394 -5.0000000000000000 -7.0733989875770522 
5000.0000000000000 1000.0000000000000 -333.33333333330000 -6089135.4458872359 16861684.211913951 -8175936.2203443162 -5.5462394765093124e-05 0.0040275726518376759 0.00028925292707032750 1.0000000003707237 -4.5000000006237109 -7.0733989869949792 
6000.0000000000000 1000.0000000000000 -333.33333333330000 -6089135.4448880451 16861684.212137263 -8175936.2202431103 -5.1484672501642858e-05 0.0040839159226820024 0.00096285134466517425 0.80000000027302243 -4.5000000006260628 -7.0733989872050662 
6000.0000000000000 0.0000000000000000 -333.33333333330000 -6089135.4462183295 16861684.207795694 -8175936.2219252847 -4.9090891435218603e-05 0.0024916091227816001 0.00094132961216825844 0.80000000027536566 -5.0000000000000000 -7.0733989877947856 
5000.0000000000000 0.0000000000000000 -166.66666666670000 -4936157.5147426389 18014662.135948047 -4088105.3613524362 -4.6590477946495951e-05 0.0015054760361271897 0.00023684535315806045 1.0000000004277902 -5.0000000000000000 -7.1098811409406517 
5000.0000000000000 1000.0000000000000 -166.66666666670000 -4936157.5133261262 18014662.141347814 -4088105.3603469674 -5.4025417255862232e-05 0.0025103771511669915 0.00024621323206740057 1.0000000004258724 -4.5000000007779049 -7.1098811403569959 
6000.0000000000000 1000.0000000000000 -166.66666666670000 -4936157.5117052710 18014662.141733300 -4088105.3602364147 -4.0137013764635047e-05 0.0025531279871062263 0.00065742058819058622 0.80000000030563778 -4.5000000007800400 -7.1098811405686098 
6000.0000000000000 0.0000000000000000 -166.66666666670000 -4936157.5131266555 18014662.136247464 -4088105.3611995424 -5.1167621820881854e-05 0.0015840080431999293 0.00064680410634517004 0.80000000030813034 -5.0000000000000000 -7.1098811411588869 
5000.0000000000000 0.0000000000000000 0.0000000000000000 -4359642.7412822079 18591176.907222584 -2044098.4323059809 -4.9849124780871410e-05 0.0010093232379990546 0.00020180073965822979 1.0000000004816321 -5.0000000000000000 -7.1314437907240515 
5000.0000000000000 1000.0000000000000 0.0000000000000000 -4359642.7398199709 18591176.913225815 -2044098.4317215956 -5.3740213625339393e-05 0.0016626699656866774 0.00020705446845646765 1.0000000004792153 -4.5000000009515766 -7.1314437901450631 
6000.0000000000000 1000.0000000000000 0.0000000000000000 -4359642.7378373072 18591176.913705572 -2044098.4316070885 -3.4787837544738408e-05 0.0016983196106549958 0.00047513613332614551 0.80000000033301721 -4.5000000009540351 -7.1314437903595644 
6000.0000000000000 0.0000000000000000 0.0000000000000000 -4359642.7393089198 18591176.907593258 -2044098.4321760153 -5.3808698321992812e-05 0.0010727856124782627 0.00047037022607659599 0.80000000033620522 -5.0000000000000000 -7.1314437909445001 
5000.0000000000000 7000.0000000000000 -1333.3333333329999 -13004835.644752875 9945984.0281010643 -32695236.958992478 -6.2226025749295312e-06 -0.0019266126665456341 -0.00086683984072082076 1.0000000000313711 -1.5000000000553317 -6.5412712769575236 
5000.0000000000000 6000.0000000000000 -1333.3333333329999 -13004835.644681638 9945984.0280731115 -32695236.958286669 4.9484810355942962e-06 -0.00028832643271257046 -0.00078864493193240941 1.0000000000311322 -2.0000000000785083 -6.5412712774164845 
5000.0000000000000 7000.0000000000000 -1500.0000000000000 -14157091.200897772 8793728.4706934635 -36780506.658364043 1.2191456296119310e-05 -0.0019478863294752923 -0.00094929011112127048 0.99999999998018319 -1.4999999999792288 -6.4003899922749792 
5000.0000000000000 6000.0000000000000 -1500.0000000000000 -14157091.200887663 8793728.4705943353 -36780506.657837264 2.6186040921599222e-05 -0.00020253779718020127 -0.00086421846120717991 0.99999999997928068 -1.9999999999713185 -6.4003899927377068 
5000.0000000000000 7000.0000000000000 -1166.6666666670001 -11852476.919605441 11098342.754583385 -28609601.478459328 -2.5008307565925712e-05 -0.0018794189761686187 -0.00077044451282218002 1.0000000000835916 -1.5000000001300984 -6.6672424056367703 
5000.0000000000000 6000.0000000000000 -1166.6666666670001 -11852476.919477263 11098342.754665168 -28609601.477632131 -1.6855920935895523e-05 -0.00037128681134827158 -0.00069866751713197031 1.0000000000840290 -2.0000000001859592 -6.6672424060916180 
5000.0000000000000 7000.0000000000000 -1000.0000000000000 -10700015.016214766 12250804.659386955 -24523600.183983050 -4.3867902295783816e-05 -0.0017995793723978948 -0.00066249696772976952 1.0000000001368268 -1.5000000002031961 -6.7783020433094441 
5000.0000000000000 6000.0000000000000 -1000.0000000000000 -10700015.016033130 12250804.659623815 -24523600.183092419 -3.8816798358604556e-05 -0.00044444243647485374 -0.00059683537634641062 1.0000000001379397 -2.0000000002934573 -6.7783020437601262 
5000.0000000000000 7000.0000000000000 -833.33333333329995 -9547449.9253439065 13403369.751754491 -20437233.042794626 -6.2443907617743981e-05 -0.0016794319145656785 -0.00054598519053685173 1.0000000001910514 -1.5000000002742639 -6.8744488548501925 
5000.0000000000000 6000.0000000000000 -833.33333333329995 -9547449.9251116235 13403369.752199043 -20437233.041898813 -6.0408116000715843e-05 -0.00049960008336560012 -0.00048640913513461361 1.0000000001928198 -2.0000000004007545 -6.8744488552969489 
5000.0000000000000 7000.0000000000000 -666.66666666670005 -8394781.6377566345 14556038.040927861 -16350500.022126768 -8.0308585779228784e-05 -0.0015103369776962639 -0.00042448527103201888 1.0000000002462299 -1.5000000003429010 -6.9556815050151863 
5000.0000000000000 6000.0000000000000 -666.66666666670005 -8394781.6374758780 14556038.041640481 -16350500.021284351 -8.0964463524677523e-05 -0.00052730219870504981 -0.00037138301207382206 1.0000000002486118 -2.0000000005075642 -6.9556815054585703 
5000.0000000000000 7000.0000000000000 -500.00000000000000 -7242010.1442147819 15708809.536150595 -12263401.089204492 -9.6957483531343749e-05 -0.0012826437183327841 -0.00030214101242241934 1.0000000003023155 -1.5000000004086598 -7.0219986584409266 
5000.0000000000000 6000.0000000000000 -500.00000000000000 -7242010.1438872330 15708809.537199831 -12263401.088474620 -9.9660431623515823e-05 -0.00051664913475636253 -0.00025645951191461547 1.0000000003052418 -2.0000000006135426 -7.0219986588817971 
5000.0000000000000 7000.0000000000000 -333.33333333330000 -6089135.4354813630 16861684.246664684 -8175936.2112559890 -0.00011180433604540772 -0.00098569654531349585 -0.00018353268288429423 1.0000000003592484 -1.5000000004710365 -7.0733989796441392 
5000.0000000000000 6000.0000000000000 -333.33333333330000 -6089135.4351083636 16861684.248127639 -8175936.2106986353 -0.00011548074022365830 -0.00045530864723895652 -0.00014697844838566608 1.0000000003626157 -2.0000000007182788 -7.0733989800836818 
5000.0000000000000 7000.0000000000000 -166.66666666670000 -4936157.5023198100 18014662.181711335 -4088105.3555093980 -0.00012417279098448465 -0.00060774627851282071 -7.3504574929278793e-05 1.0000000004169574 -1.5000000005294625 -7.1098811330219860 
5000.0000000000000 6000.0000000000000 -166.66666666670000 -4936157.5019024275 18014662.183674093 -4088105.3551852517 -0.00012717887619982511 -0.00032941102987248122 -4.8762145451181784e-05 1.0000000004206220 -2.0000000008212839 -7.1098811334617187 
5000.0000000000000 7000.0000000000000 0.0000000000000000 -4359642.7284773970 18591176.956522964 -2044098.4290898603 -0.00012964709202221256 -0.00039698245837932212 -2.1252126075540510e-05 1.0000000004753604 -1.5000000005832919 -7.1314437828520614 
5000.0000000000000 6000.0000000000000 0.0000000000000000 -4359642.7280380549 18591176.958758295 -2044098.4288975592 -0.00013182597319273608 -0.00024848280824931737 -3.2205997806791118e-06 1.0000000004791243 -2.0000000009219758 -7.1314437832938404 
2000.0000000000000 10000.000000000000 -1333.3333333329999 -13004835.643106800 9945984.0291895699 -32695236.953618187 -6.5645747701509298e-06 -0.00076465243904281794 -0.0044092107612328357 1.5999999999951908 0.0000000000000000 -6.5412712750863902 
2000.0000000000000 9000.0000000000000 -1333.3333333329999 -13004835.642983332 9945984.0293745548 -32695236.953280818 -1.2952338355455537e-05 -0.0013991211351481938 -0.0044179836480969809 1.5999999999953904 -0.50000000001184841 -6.5412712751045046 
1000.0000000000000 9000.0000000000000 -1333.3333333329999 -13004835.642370880 9945984.0302657969 -32695236.949817225 -4.5776750057011992e-07 -0.0014083576406359933 -0.0033749014954115256 1.7999999999936718 -0.50000000001176226 -6.5412712745854487 
1000.0000000000000 10000.000000000000 -1333.3333333329999 -13004835.642491989 9945984.0300775468 -32695236.950161435 -9.5415484350992812e-07 -0.00077042681538789669 -0.0033727885231243488 1.7999999999936480 0.0000000000000000 -6.5412712745682917 
2000.0000000000000 10000.000000000000 -1500.0000000000000 -14157091.199953906 8793728.4721125960 -36780506.652193025 -4.0163490487129756e-06 -0.00079410385793356598 -0.0044887418783813270 1.5999999999473531 0.0000000000000000 -6.4003899904257961 
2000.0000000000000 9000.0000000000000 -1500.0000000000000 -14157091.199843416 8793728.4722445086 -36780506.651864976 -7.9057507701794656e-06 -0.0014503305115276394 -0.0044976562614050209 1.5999999999474708 -0.49999999998967759 -6.4003899904451611 
1000.0000000000000 9000.0000000000000 -1500.0000000000000 -14157091.199560173 8793728.4731054846 -36780506.648237236 4.1509795549369640e-06 -0.0014590621853788753 -0.0034183678797901854 1.7999999999660992 -0.49999999998979494 -6.4003899899414396 
1000.0000000000000 10000.000000000000 -1500.0000000000000 -14157091.199666774 8793728.4729701579 -36780506.648575872 1.4632285877027731e-06 -0.00079980052942007379 -0.0034169372133707014 1.7999999999661698 0.0000000000000000 -6.4003899899229983 
2000.0000000000000 10000.000000000000 -1166.6666666670001 -11852476.917190839 11098342.755282354 -28609601.473839179 -9.2753648599781137e-06 -0.00072515329315916304 -0.0042636569528355216 1.6000000000471561 0.0000000000000000 -6.6672424037473030 
2000.0000000000000 9000.0000000000000 -1166.6666666670001 -11852476.917054832 11098342.755527874 -28609601.473502554 -1.8325099582908107e-05 -0.0013295394752849421 -0.0042721015797181402 1.6000000000474439 -0.50000000003291289 -6.6672424037642122 
1000.0000000000000 9000.0000000000000 -1166.6666666670001 -11852476.916058671 11098342.756452447 -28609601.470242258 -5.1907064226602341e-06 -0.0013387381142342634 -0.0032851540917136243 1.8000000000240131 -0.50000000003261802 -6.6672424032310342 
1000.0000000000000 10000.000000000000 -1166.6666666670001 -11852476.916193821 11098342.756203867 -28609601.470582053 -3.4111544222392941e-06 -0.00073069050027901069 -0.0032827828854638231 1.8000000000238947 0.0000000000000000 -6.6672424032150799 
2000.0000000000000 10000.000000000000 -1000.0000000000000 -10700015.012964845 12250804.659626627 -24523600.180082414 -1.2191619454105051e-05 -0.00067423642086224039 -0.0040419038938737783 1.6000000001037948 0.0000000000000000 -6.7783020414050972 
2000.0000000000000 9000.0000000000000 -1000.0000000000000 -10700015.012816494 12250804.659941077 -24523600.179757055 -2.4113616865325589e-05 -0.0012388994516042810 -0.0040498265818314566 1.6000000001041761 -0.50000000005267975 -6.7783020414208988 
1000.0000000000000 9000.0000000000000 -1000.0000000000000 -10700015.011371622 12250804.660902927 -24523600.176745702 -9.9794297543647060e-06 -0.0012475508933838901 -0.0031405186475463522 1.8000000000575407 -0.50000000005217349 -6.7783020408750811 
1000.0000000000000 10000.000000000000 -1000.0000000000000 -10700015.011520522 12250804.660585679 -24523600.177070804 -5.8638389929627703e-06 -0.00067925307763574928 -0.0031382847300629362 1.8000000000573311 0.0000000000000000 -6.7783020408601997 
2000.0000000000000 10000.000000000000 -833.33333333329995 -9547449.9211924709 13403369.751453862 -20437233.039586507 -1.5360494681857572e-05 -0.00061036858143123174 -0.0037320327476884278 1.6000000001657291 0.0000000000000000 -6.8744488529342771 
2000.0000000000000 9000.0000000000000 -833.33333333329995 -9547449.9210317340 13403369.751846556 -20437233.039283428 -3.0413276874052983e-05 -0.0011241820859385495 -0.0037392235436365345 1.6000000001662120 -0.50000000007094580 -6.8744488529491203 
1000.0000000000000 9000.0000000000000 -833.33333333329995 -9547449.9190598354 13403369.752851052 -20437233.036573440 -1.4748447419982745e-05 -0.0011318259473129346 -0.0029304791377832585 1.8000000000947554 -0.50000000007022882 -6.8744488523924696 
1000.0000000000000 10000.000000000000 -833.33333333329995 -9547449.9192223661 13403369.752455860 -20437233.036873296 -8.2635423471247910e-06 -0.00061462132557260542 -0.0029287084778930597 1.8000000000944594 0.0000000000000000 -6.8744488523784790 
2000.0000000000000 10000.000000000000 -666.66666666670005 -8394781.6326396894 14556038.039994296 -16350500.019590670 -1.8833669967357712e-05 -0.00053183143661766474 -0.0033200936870137819 1.6000000002336701 0.0000000000000000 -6.9556815030908821 
2000.0000000000000 9000.0000000000000 -666.66666666670005 -8394781.6324662939 14556038.040475445 -16350500.019321535 -3.7325742655716579e-05 -0.00098200506464307343 -0.0033263357782893914 1.6000000002342651 -0.50000000008749312 -6.9556815031049828 
1000.0000000000000 9000.0000000000000 -666.66666666670005 -8394781.6298721209 14556038.041529998 -16350500.016972937 -1.9418158283289859e-05 -0.00098827573286631304 -0.0026420392165415417 1.8000000001362615 -0.50000000008656909 -6.9556815025396768 
1000.0000000000000 10000.000000000000 -666.66666666670005 -8394781.6300483309 14556038.041046672 -16350500.017236691 -1.0561449003970070e-05 -0.00053514069714208530 -0.0026409564168334439 1.8000000001358882 0.0000000000000000 -6.9556815025263354 
2000.0000000000000 10000.000000000000 -500.00000000000000 -7242010.1380733531 15708809.534479128 -12263401.087325877 -2.2660082291988429e-05 -0.00043673971325352743 -0.0027896957356301640 1.6000000003084307 0.0000000000000000 -7.0219986565112720 
2000.0000000000000 9000.0000000000000 -500.00000000000000 -7242010.1378867710 15708809.535059866 -12263401.087102853 -4.4954633417048315e-05 -0.00080863772135928021 -0.0027947671440579514 1.6000000003091481 -0.50000000010208689 -7.0219986565249126 
1000.0000000000000 9000.0000000000000 -500.00000000000000 -7242010.1345532276 15708809.536174770 -12263401.085184377 -2.3905552247593486e-05 -0.00081328500233885596 -0.0022588694355193833 1.8000000001828076 -0.50000000010096357 -7.0219986559535750 
1000.0000000000000 10000.000000000000 -500.00000000000000 -7242010.1347433291 15708809.535592191 -12263401.085400861 -1.2704949191713200e-05 -0.00043901681553146742 -0.0022585723352416876 1.8000000001823686 0.0000000000000000 -7.0219986559405916 
2000.0000000000000 10000.000000000000 -333.33333333330000 -6089135.4282659208 16861684.244136959 -8175936.2100258553 -2.6888682522918707e-05 -0.00032304436921048150 -0.0021215267367411801 1.6000000003909436 0.0000000000000000 -7.0733989777120430 
2000.0000000000000 9000.0000000000000 -333.33333333330000 -6089135.4280654192 16861684.244829267 -8175936.2098618355 -5.3405074972563362e-05 -0.00060002367084591298 -0.0021252105385719329 1.6000000003917962 -0.50000000011447365 -7.0733989777255752 
1000.0000000000000 9000.0000000000000 -333.33333333330000 -6089135.4238466518 16861684.246019024 -8175936.2084516883 -2.8137255951699361e-05 -0.00060292395331466983 -0.0017599991196380936 1.8000000002353376 -0.50000000011316093 -7.0733989771513635 
1000.0000000000000 10000.000000000000 -333.33333333330000 -6089135.4240510054 16861684.245325193 -8175936.2086093808 -1.4643870094015387e-05 -0.00032428870226735613 -0.0017604166235663742 1.8000000002348484 0.0000000000000000 -7.0733989771383854 
2000.0000000000000 10000.000000000000 -166.66666666670000 -4936157.4939967077 18014662.178194314 -4088105.3549232199 -3.1571636086781310e-05 -0.00018853317660287504 -0.0012930334522353775 1.6000000004822739 0.0000000000000000 -7.1098811310901802 
2000.0000000000000 9000.0000000000000 -166.66666666670000 -4936157.4937814428 18014662.179010913 -4088105.3548319540 -6.2784520741658603e-05 -0.00035178303070479417 -0.0012951132791513232 1.6000000004832755 -0.50000000012438062 -7.1098811311040446 
1000.0000000000000 9000.0000000000000 -166.66666666670000 -4936157.4884943785 18014662.180295065 -4088105.3540224605 -3.2076997118936893e-05 -0.00035295408846883826 -0.0011180107705142869 1.8000000002950696 -0.50000000012288937 -7.1098811305307583 
1000.0000000000000 10000.000000000000 -166.66666666670000 -4936157.4887134973 18014662.179477125 -4088105.3541095196 -1.6353338796667296e-05 -0.00018884338506257442 -0.0011189012798575716 1.8000000002945493 0.0000000000000000 -7.1098811305173717 
2000.0000000000000 10000.000000000000 0.0000000000000000 -4359642.7195945317 18591176.952476092 -2044098.4288250552 -3.4033429733134275e-05 -0.00011578851519935758 -0.00083567876219786306 1.6000000005836239 0.0000000000000000 -7.1314437809230604 
2000.0000000000000 9000.0000000000000 0.0000000000000000 -4359642.7193716578 18591176.953358114 -2044098.4287736942 -6.7720002945814405e-05 -0.00021718905104093316 -0.00083690079468238848 1.6000000005847910 -0.50000000013151413 -7.1314437809377740 
1000.0000000000000 9000.0000000000000 0.0000000000000000 -4359642.7134994622 18591176.954694986 -2044098.4282898738 -3.3972679419294302e-05 -0.00021751783868232804 -0.00075734468311906052 1.8000000003636134 -0.50000000012985324 -7.1314437803700512 
1000.0000000000000 10000.000000000000 0.0000000000000000 -4359642.7137261182 18591176.953811668 -2044098.4283386450 -1.7149966340666955e-05 -0.00011567034716032259 -0.00075838931080138749 1.8000000003630809 0.0000000000000000 -7.1314437803557809 
8000.0000000000000 8000.0000000000000 -1333.3333333329999 -13004835.645291876 9945984.0277584977 -32695236.959559236 -4.2751972837964582e-05 -0.0021395878536460511 0.00063944537049376153 0.40000000001467917 -1.0000000000331335 -6.5412712772929273 
8000.0000000000000 9000.0000000000000 -1333.3333333329999 -13004835.645586301 9945984.0273322202 -32695236.960434560 -1.7546635514884970e-05 -0.0013322204317635039 0.00069165612206780337 0.40000000001382496 -0.50000000001469969 -6.5412712771993498 
9000.0000000000000 9000.0000000000000 -1333.3333333329999 -13004835.645459829 9945984.0274570659 -32695236.960107740 -1.4339622975826976e-05 -0.0013023681302303423 0.00042122707027851932 0.20000000000653867 -0.50000000001531320 -6.5412712772411421 
9000.0000000000000 8000.0000000000000 -1333.3333333329999 -13004835.645189924 9945984.0278913788 -32695236.959225763 -3.4969196324506467e-05 -0.0020677364509714504 0.00037139439147546602 0.20000000000726031 -1.0000000000347342 -6.5412712773390913 
8000.0000000000000 8000.0000000000000 -1500.0000000000000 -14157091.201395802 8793728.4704289120 -36780506.659079485 -3.5542867613128591e-05 -0.0022035293710576851 0.00065900898151775530 0.39999999999623925 -0.99999999998436973 -6.4003899926088561 
8000.0000000000000 9000.0000000000000 -1500.0000000000000 -14157091.201657932 8793728.4701361880 -36780506.659921683 -1.3609891941704627e-05 -0.0013790564798357736 0.00071377235019306400 0.39999999999554653 -0.49999999999152717 -6.4003899925119265 
9000.0000000000000 9000.0000000000000 -1500.0000000000000 -14157091.201568017 8793728.4702488855 -36780506.659598686 -1.2413296481445439e-05 -0.0013483818065113300 0.00043740682286414357 0.19999999999772478 -0.49999999999205069 -6.4003899925549570 
9000.0000000000000 8000.0000000000000 -1500.0000000000000 -14157091.201328842 8793728.4705525655 -36780506.658740215 -3.1553992459918922e-05 -0.0021278105964611395 0.00038540486491159997 0.19999999999837087 -0.99999999998582756 -6.4003899926562946 
8000.0000000000000 8000.0000000000000 -1166.6666666670001 -11852476.920145357 11098342.754124809 -28609601.478894778 -5.0837324968118876e-05 -0.0020477487506851562 0.00061139814824289634 0.40000000003256059 -1.0000000000802629 -6.6672424059730426 
8000.0000000000000 9000.0000000000000 -1166.6666666670001 -11852476.920470405 11098342.753543515 -28609601.479773466 -2.1958291195062704e-05 -0.0012675551177555489 0.00066084840382032702 0.40000000003151998 -0.50000000003681411 -6.6672424058826767 
9000.0000000000000 9000.0000000000000 -1166.6666666670001 -11852476.920300789 11098342.753680151 -28609601.479453333 -1.6647007549492917e-05 -0.0012389210440015429 0.00039980356930335956 0.20000000001498480 -0.50000000003753453 -6.6672424059232895 
9000.0000000000000 8000.0000000000000 -1166.6666666670001 -11852476.920002496 11098342.754266299 -28609601.478577498 -3.9086437758721591e-05 -0.0019802305880534904 0.00035249449498740644 0.20000000001580304 -1.0000000000820368 -6.6672424060180422 
8000.0000000000000 8000.0000000000000 -1000.0000000000000 -10700015.016709590 12250804.658770621 -24523600.184304729 -6.0266722248838212e-05 -0.0019229300172351207 0.00057335765210900387 0.40000000004980679 -1.0000000001254470 -6.7783020436460157 
8000.0000000000000 9000.0000000000000 -1000.0000000000000 -10700015.017064309 12250804.658010002 -24523600.185156450 -2.7056896670495056e-05 -0.0011824570779051260 0.00061969518657734902 0.40000000004854142 -0.50000000005769352 -6.7783020435585746 
9000.0000000000000 9000.0000000000000 -1000.0000000000000 -10700015.016844176 12250804.658158574 -24523600.184853364 -1.9530536817415895e-05 -0.0011555289562784625 0.00037228520109887332 0.20000000002301338 -0.50000000005854661 -6.7783020435981181 
9000.0000000000000 8000.0000000000000 -1000.0000000000000 -10700015.016519411 12250804.658920743 -24523600.184013180 -4.4337099533972114e-05 -0.0018603941440565623 0.00032799664280138259 0.20000000002396032 -1.0000000001274441 -6.7783020436900117 
8000.0000000000000 8000.0000000000000 -833.33333333329995 -9547449.9257413093 13403369.750934867 -20437233.043019935 -7.1556879078073238e-05 -0.0017593704962191568 0.00052363283114886512 0.40000000006633407 -1.0000000001683522 -6.8744488551865848 
8000.0000000000000 9000.0000000000000 -833.33333333329995 -9547449.9261254817 13403369.749967728 -20437233.043813728 -3.3072028245044851e-05 -0.0010740150877440952 0.00056630567409946832 0.40000000006479203 -0.50000000007714995 -6.8744488551016252 
9000.0000000000000 9000.0000000000000 -833.33333333329995 -9547449.9258465637 13403369.750129003 -20437233.043537565 -2.3199826266054183e-05 -0.0010493996021217985 0.00033770488489048893 0.20000000003057042 -0.50000000007817025 -6.8744488551402645 
9000.0000000000000 8000.0000000000000 -833.33333333329995 -9547449.9254968408 13403369.751094406 -20437233.042762462 -5.1193239360366538e-05 -0.0017027374151347956 0.00029710255843630484 0.20000000003169036 -1.0000000001706433 -6.8744488552297742 
8000.0000000000000 8000.0000000000000 -666.66666666670005 -8394781.6379975863 14556038.039855549 -16350500.022272719 -8.5273278470002071e-05 -0.0015506009110165737 0.00046034003335998665 0.40000000008205078 -1.0000000002086151 -6.9556815053510030 
8000.0000000000000 9000.0000000000000 -666.66666666670005 -8394781.6384117343 14556038.038651794 -16350500.022976877 -4.0249544174545689e-05 -0.00093900633965180022 0.00049853782767792008 0.40000000008016462 -0.50000000009498102 -6.9556815052679264 
9000.0000000000000 9000.0000000000000 -666.66666666670005 -8394781.6380648557 14556038.038827164 -16350500.022737151 -2.7878662694361683e-05 -0.00091743013321632578 0.00029496890500657359 0.20000000003759674 -0.50000000009621226 -6.9556815053058738 
9000.0000000000000 8000.0000000000000 -666.66666666670005 -8394781.6376913432 14556038.040026054 -16350500.022056613 -6.0168388319410343e-05 -0.0015011207176844825 0.00025892970125434114 0.20000000003894722 -1.0000000002112956 -6.9556815053936294 
8000.0000000000000 8000.0000000000000 -500.00000000000000 -7242010.1442332473 15708809.534772174 -12263401.089287749 -0.00010202372297528541 -0.0012893914466205461 0.00038138836485496398 0.40000000009685316 -1.0000000002458391 -7.0219986587758552 
8000.0000000000000 9000.0000000000000 -500.00000000000000 -7242010.1446786597 15708809.533298785 -12263401.089869855 -4.8846200453272395e-05 -0.00077387114295293929 0.00041398247905964614 0.40000000009453901 -0.50000000011096779 -7.0219986586938887 
9000.0000000000000 9000.0000000000000 -500.00000000000000 -7242010.1442537690 15708809.533490224 -12263401.089675937 -3.3800537329997399e-05 -0.00075620336870867253 0.00024285224872577690 0.20000000004402679 -0.50000000011246304 -7.0219986587314143 
9000.0000000000000 8000.0000000000000 -500.00000000000000 -7242010.1438572183 15708809.534956049 -12263401.089119161 -7.1813435464174023e-05 -0.0012487119533819994 0.00021250173734026006 0.20000000004567894 -1.0000000002490286 -7.0219986588181911 
8000.0000000000000 8000.0000000000000 -333.33333333330000 -6089135.4352038121 16861684.244922671 -8175936.2112926533 -0.00012244622627565651 -0.00096779355973982675 0.00028448380352559110 0.40000000011062425 -1.0000000002795877 -7.0733989799779504 
8000.0000000000000 9000.0000000000000 -333.33333333330000 -6089135.4356825994 16861684.243143640 -8175936.2117196834 -5.9124139024752504e-05 -0.00057475159583163368 0.00030995472473140806 0.40000000010778003 -0.50000000012487111 -7.0733989798961563 
9000.0000000000000 9000.0000000000000 -333.33333333330000 -6089135.4351687068 16861684.243353777 -8175936.2115806425 -4.1203756296922947e-05 -0.00056200976252080337 0.00017999665011692549 0.20000000004978749 -0.50000000012669321 -7.0733989799335859 
9000.0000000000000 8000.0000000000000 -333.33333333330000 -6089135.4347494310 16861684.245123245 -8175936.2111764504 -8.6707612472719319e-05 -0.00093802997449355047 0.00015673700909186452 0.20000000005182558 -1.0000000002834304 -7.0733989800203005 
8000.0000000000000 8000.0000000000000 -166.66666666670000 -4936157.5016645910 18014662.179544199 -4088105.3555147722 -0.00014718639757780195 -0.00057710550039205338 0.00016713314260609002 0.40000000012322939 -1.0000000003093783 -7.1098811333545262 
8000.0000000000000 9000.0000000000000 -166.66666666670000 -4936157.5021796469 18014662.177420557 -4088105.3557529249 -7.1342437413111180e-05 -0.00033747300614973163 0.00018349938824086342 0.40000000011973491 -0.50000000013642987 -7.1098811332717862 
9000.0000000000000 9000.0000000000000 -166.66666666670000 -4936157.5015648678 18014662.177652594 -4088105.3556778301 -5.0330251644974628e-05 -0.00033081379974785047 0.00010489237709493386 0.20000000005479632 -0.50000000013864954 -7.1098811333095018 
9000.0000000000000 8000.0000000000000 -166.66666666670000 -4936157.5011227354 18014662.179765742 -4088105.3554546498 -0.00010545027846994476 -0.00056089352583996849 9.0423056538366692e-05 0.20000000005731855 -1.0000000003140450 -7.1098811333972218 
8000.0000000000000 8000.0000000000000 0.0000000000000000 -4359642.7276118752 18591176.954127368 -2044098.4290833252 -0.00016071605050498676 -0.00036334930725690970 0.00010302272890764177 0.40000000013451403 -1.0000000003346792 -7.1314437831832658 
8000.0000000000000 9000.0000000000000 0.0000000000000000 -4359642.7281458816 18591176.951821320 -2044098.4292184678 -7.7968469804327504e-05 -0.00020874793726217744 0.00011427838389792385 0.40000000013023057 -0.50000000014535584 -7.1314437830982769 
9000.0000000000000 9000.0000000000000 0.0000000000000000 -4359642.7274775691 18591176.952065174 -2044098.4291776100 -5.5354818109345336e-05 -0.00020543791301952589 6.4079208865813568e-05 0.20000000005896071 -0.50000000014805246 -7.1314437831367234 
9000.0000000000000 8000.0000000000000 0.0000000000000000 -4359642.7270239228 18591176.954360589 -2044098.4290519934 -0.00011585962778101535 -0.00035463961460494421 5.4467721197975192e-05 0.20000000006207838 -1.0000000003403624 -7.1314437832266542 
8000.0000000000000 7000.0000000000000 -1333.3333333329999 -13004835.644964445 9945984.0281440653 -32695236.958544698 -7.6027931207953909e-05 -0.0019357178541550371 0.00052730719585229410 0.40000000001664360 -1.5000000000558822 -6.5412712775243662 
7000.0000000000000 7000.0000000000000 -1333.3333333329999 -13004835.645042907 9945984.0280039869 -32695236.958977435 -2.6256931330680701e-05 -0.0020243976908521054 0.00061178915288427941 0.60000000002289722 -1.5000000000536831 -6.5412712774220045 
7000.0000000000000 8000.0000000000000 -1333.3333333329999 -13004835.645397620 9945984.0276185032 -32695236.959971931 -1.8534925959741573e-05 -0.0021842420281609097 0.00063349942311233590 0.60000000002223153 -1.0000000000319924 -6.5412712771974961 
8000.0000000000000 7000.0000000000000 -1500.0000000000000 -14157091.201116903 8793728.4706634618 -36780506.658166319 -6.5552653920580958e-05 -0.0019629457699018842 0.00053859799229554763 0.39999999999797048 -1.4999999999780291 -6.4003899928443406 
7000.0000000000000 7000.0000000000000 -1500.0000000000000 -14157091.201156704 8793728.4705389440 -36780506.658589520 -9.0316762582102551e-06 -0.0020578533538576031 0.00062049226367367116 0.59999999999339948 -1.4999999999762286 -6.4003899927401537 
7000.0000000000000 8000.0000000000000 -1500.0000000000000 -14157091.201460585 8793728.4703070745 -36780506.659474567 -6.3437230792171389e-06 -0.0022502017612559158 0.00064224978723155567 0.59999999999321163 -0.99999999998351374 -6.4003899925118191 
8000.0000000000000 7000.0000000000000 -1166.6666666670001 -11852476.919772083 11098342.754694745 -28609601.477825262 -8.7664087110356302e-05 -0.0018844485189515542 0.00050768901542496282 0.40000000003479480 -1.5000000001324614 -6.6672424062003666 
7000.0000000000000 7000.0000000000000 -1166.6666666670001 -11852476.919898828 11098342.754540525 -28609601.478249960 -4.4354253686877260e-05 -0.0019663174053771090 0.00059582313031708372 0.60000000005193199 -1.5000000001298317 -6.6672424060997040 
7000.0000000000000 8000.0000000000000 -1166.6666666670001 -11852476.920302277 11098342.753967773 -28609601.479308020 -3.1281402330272512e-05 -0.0020899347961637897 0.00061684462390116225 0.60000000005076692 -1.0000000000788114 -6.6672424058791657 
8000.0000000000000 7000.0000000000000 -1000.0000000000000 -10700015.016291965 12250804.659563247 -24523600.183227856 -0.00010119097155895327 -0.0018022577322344708 0.00047844897117618941 0.40000000005236991 -1.5000000002074201 -6.7783020438693899 
7000.0000000000000 7000.0000000000000 -1000.0000000000000 -10700015.016477745 12250804.659395557 -24523600.183628283 -6.3415518630005006e-05 -0.0018765923439089146 0.00057037386573028910 0.60000000008040200 -1.5000000002043095 -6.7783020437702266 
7000.0000000000000 8000.0000000000000 -1000.0000000000000 -10700015.016929274 12250804.658597002 -24523600.184702188 -4.4627399247964487e-05 -0.0019621008614798914 0.00059005846013643337 0.60000000007871435 -1.0000000001236484 -6.7783020435535608 
8000.0000000000000 7000.0000000000000 -833.33333333329995 -9547449.9252796024 13403369.751993584 -20437233.041984800 -0.00011743259313205375 -0.0016811974089434767 0.00043821919515376728 0.40000000006931119 -1.5000000002803788 -6.8744488554064285 
7000.0000000000000 7000.0000000000000 -833.33333333329995 -9547449.9255363755 13403369.751812255 -20437233.042346258 -8.3543553876992661e-05 -0.0017470866716744287 0.00053285580493818777 0.60000000010819587 -1.5000000002767178 -6.8744488553084873 
7000.0000000000000 8000.0000000000000 -833.33333333329995 -9547449.9260368478 13403369.750744380 -20437233.043386143 -5.8620329729184702e-05 -0.0017948422642685520 0.00055056251492645607 0.60000000010596077 -1.0000000001661566 -6.8744488550953395 
8000.0000000000000 7000.0000000000000 -666.66666666670005 -8394781.6374908183 14556038.041228957 -16350500.021330103 -0.00013731212835241743 -0.0015122067959844347 0.00038555590234186880 0.40000000008555586 -1.5000000003509177 -6.9556815055680010 
7000.0000000000000 7000.0000000000000 -666.66666666670005 -8394781.6378317829 14556038.041032922 -16350500.021639470 -0.00010484400595933124 -0.0015684809850433088 0.00048028456620898935 0.60000000013518850 -1.5000000003466150 -6.9556815054709409 
7000.0000000000000 8000.0000000000000 -666.66666666670005 -8394781.6383836865 14556038.039647099 -16350500.022593109 -7.3307290888668399e-05 -0.0015815191826851758 0.00049540115358794924 0.60000000013237986 -1.0000000002059599 -6.9556815052606904 
8000.0000000000000 7000.0000000000000 -500.00000000000000 -7242010.1436791224 15708809.536514234 -12263401.088490263 -0.00016185579668941610 -0.0012850355866321839 0.00031893762716622112 0.40000000010103209 -1.5000000004185650 -7.0219986589909595 
7000.0000000000000 7000.0000000000000 -500.00000000000000 -7242010.1441188110 15708809.536301419 -12263401.088736093 -0.00012742379022220925 -0.0013302085896559151 0.00040923729634573236 0.60000000016123733 -1.5000000004135052 -7.0219986588943915 
7000.0000000000000 8000.0000000000000 -500.00000000000000 -7242010.1447263043 15708809.534543851 -12263401.089548511 -8.8731903187475915e-05 -0.0013147081088937375 0.00042120392788039273 0.60000000015782728 -1.0000000002426466 -7.0219986586861092 
8000.0000000000000 7000.0000000000000 -333.33333333330000 -6089135.4345987141 16861684.247092757 -8175936.2106949501 -0.00019218503505074940 -0.00098825532076086292 0.00023677509108079646 0.40000000011565762 -1.5000000004827916 -7.0733989801924171 
7000.0000000000000 7000.0000000000000 -333.33333333330000 -6089135.4351531025 16861684.246859957 -8175936.2108677477 -0.00015139007369068691 -0.0010204800782645678 0.00031579386438248679 0.60000000018617727 -1.5000000004768343 -7.0733989800959103 
7000.0000000000000 8000.0000000000000 -333.33333333330000 -6089135.4358220361 16861684.244671687 -8175936.2114808196 -0.00010493424100406259 -0.00098623214785188078 0.00032412216309271841 0.60000000018213762 -1.0000000002757641 -7.0733989798883448 
8000.0000000000000 7000.0000000000000 -166.66666666670000 -4936157.5010035820 18014662.182207096 -4088105.3551738812 -0.00022949711582874498 -0.00060918122175439965 0.00013741204786503654 0.40000000012933340 -1.5000000005429985 -7.1098811335699263 
7000.0000000000000 7000.0000000000000 -166.66666666670000 -4936157.5016901884 18014662.181949828 -4088105.3552662637 -0.00017684645821426366 -0.00062619386461421631 0.00019548942773930797 0.60000000020981836 -1.5000000005359799 -7.1098811334730163 
7000.0000000000000 8000.0000000000000 -166.66666666670000 -4936157.5024280390 18014662.179266859 -4088105.3556181286 -0.00012195178207489796 -0.00058714557631686290 0.00019979390337650113 0.60000000020511923 -1.0000000003048151 -7.1098811332645599 
8000.0000000000000 7000.0000000000000 0.0000000000000000 -4359642.7269215146 18591176.957053542 -2044098.4288854208 -0.00025005253213718166 -0.00039740294775159686 8.3219518645863348e-05 0.40000000014193887 -1.5000000005985101 -7.1314437834014894 
7000.0000000000000 7000.0000000000000 0.0000000000000000 -4359642.7276788075 18591176.956782743 -2044098.4289360293 -0.00018996000013107839 -0.00040619073406414195 0.00012803155719054324 0.60000000023194289 -1.5000000005902454 -7.1314437833037116 
7000.0000000000000 8000.0000000000000 0.0000000000000000 -4359642.7284531845 18591176.953835815 -2044098.4291413217 -0.00013066894007257273 -0.00036878281532675566 0.00013024150780728780 0.60000000022655320 -1.0000000003292522 -7.1314437830923776 
8000.0000000000000 6000.0000000000000 -1333.3333333329999 -13004835.644841185 9945984.0280710980 -32695236.958061535 -0.00010477909685257810 -0.00032587295936601409 0.00032902331616238497 0.40000000001997688 -2.0000000000782800 -6.5412712779904387 
8000.0000000000000 5000.0000000000000 -1333.3333333329999 -13004835.645220876 9945984.0271319915 -32695236.959032509 -0.00010808427842735497 0.0028066604169850649 2.6980078766506070e-05 0.40000000002418895 -2.5000000000901577 -6.5412712787917613 
7000.0000000000000 5000.0000000000000 -1333.3333333329999 -13004835.645198926 9945984.0270160809 -32695236.959643606 -2.9260968392583128e-05 0.0026064186345233636 0.00053028760104211273 0.60000000002471798 -2.5000000000866396 -6.5412712786586003 
7000.0000000000000 6000.0000000000000 -1333.3333333329999 -13004835.644875346 9945984.0279377270 -32695236.958563220 -3.0397868858739923e-05 -0.00046904782713071385 0.00057654880534470311 0.60000000002378406 -2.0000000000750870 -6.5412712778757003 
8000.0000000000000 6000.0000000000000 -1500.0000000000000 -14157091.201048048 8793728.4705213271 -36780506.657899462 -9.0031052120389960e-05 -0.00025129262482215036 0.00032369955787379896 0.40000000000096347 -1.9999999999690097 -6.4003899933128405 
8000.0000000000000 5000.0000000000000 -1500.0000000000000 -14157091.201473376 8793728.4697199333 -36780506.659250215 -8.6855899649494517e-05 0.0030280483630891839 -2.2507730919217286e-06 0.40000000000467434 -2.4999999999514215 -6.4003899941116424 
7000.0000000000000 5000.0000000000000 -1500.0000000000000 -14157091.201422665 8793728.4696138706 -36780506.659871653 -6.4747615061699311e-06 0.0028136099751726370 0.00053701357030318058 0.59999999999389353 -2.4999999999486211 -6.4003899939746400 
7000.0000000000000 6000.0000000000000 -1500.0000000000000 -14157091.201047327 8793728.4704004601 -36780506.658402890 -9.4289885178933517e-06 -0.00040544492849697758 0.00058451494886973241 0.59999999999367148 -1.9999999999663467 -6.4003899931954882 
8000.0000000000000 6000.0000000000000 -1166.6666666670001 -11852476.919598002 11098342.754729833 -28609601.477181755 -0.00012097015941091611 -0.00040000125603176440 0.00032632758000032734 0.40000000003851038 -2.0000000001879044 -6.6672424066634459 
8000.0000000000000 5000.0000000000000 -1166.6666666670001 -11852476.919936247 11098342.753684333 -28609601.477824681 -0.00013129717382163940 0.0025390600751162176 4.9127084736481218e-05 0.40000000004327368 -2.5000000002322018 -6.6672424074658121 
7000.0000000000000 5000.0000000000000 -1166.6666666670001 -11852476.919950739 11098342.753561128 -28609601.478403177 -5.3486777201785096e-05 0.0023542773660027807 0.00051807805850970158 0.60000000005515275 -2.5000000002279212 -6.6672424073361745 
7000.0000000000000 6000.0000000000000 -1166.6666666670001 -11852476.919675879 11098342.754585840 -28609601.477662578 -5.2553970018558543e-05 -0.00053140640659336141 0.00056213399170543634 0.60000000005346577 -2.0000000001841465 -6.6672424065510967 
8000.0000000000000 6000.0000000000000 -1000.0000000000000 -10700015.016068917 12250804.659752076 -24523600.182481386 -0.00013956066583278989 -0.00046655341230155193 0.00031457410395969879 0.40000000005654124 -2.0000000002976517 -6.7783020443291964 
8000.0000000000000 5000.0000000000000 -1000.0000000000000 -10700015.016367724 12250804.658639317 -24523600.182848990 -0.00015752620079745016 0.0022296256091296428 6.3473318214315582e-05 0.40000000006194553 -2.5000000003776210 -6.7783020451314107 
7000.0000000000000 5000.0000000000000 -1000.0000000000000 -10700015.016426552 12250804.658510827 -24523600.183375124 -7.9316331810324941e-05 0.0020618055262747758 0.00049821686467694777 0.60000000008510324 -2.5000000003725109 -6.7783020450048639 
7000.0000000000000 6000.0000000000000 -1000.0000000000000 -10700015.016200092 12250804.659598593 -24523600.182924274 -7.6040216657135616e-05 -0.00058520263547950783 0.00053907123550463762 0.60000000008261789 -2.0000000002932694 -6.7783020442189308 
8000.0000000000000 6000.0000000000000 -833.33333333329995 -9547449.9250076264 13403369.752389001 -20437233.041194491 -0.00016168435583231326 -0.00051700963753302835 0.00029281036477684692 0.40000000007404790 -2.0000000004072533 -6.8744488558629859 
8000.0000000000000 5000.0000000000000 -833.33333333329995 -9547449.9252666421 13403369.751256714 -20437233.041341197 -0.00018812948382451551 0.0018842206532029573 6.9620817779829640e-05 0.40000000008023173 -2.5000000005264589 -6.8744488566641389 
7000.0000000000000 5000.0000000000000 -833.33333333329995 -9547449.9253777210 13403369.751124246 -20437233.041798100 -0.00010692738242932859 0.0017352621333881170 0.00046815852585081280 0.60000000011446708 -2.5000000005204197 -6.8744488565401705 
7000.0000000000000 6000.0000000000000 -833.33333333329995 -9547449.9252024200 13403369.752226265 -20437233.041584723 -0.00010101434609649497 -0.00062164013217506095 0.00050479205513051138 0.60000000011113253 -2.0000000004021596 -6.8744488557544159 
8000.0000000000000 6000.0000000000000 -666.66666666670005 -8394781.6371680219 14556038.041891366 -16350500.020557167 -0.00018866907679065828 -0.00054134519959493687 0.00026018578862908214 0.40000000009100939 -2.0000000005163936 -6.9556815060216532 
8000.0000000000000 5000.0000000000000 -666.66666666670005 -8394781.6373842433 14556038.040796800 -16350500.020539589 -0.00022486153362389158 0.0015104460922028135 6.7546441034896897e-05 0.40000000009816972 -2.5000000006787197 -6.9556815068211630 
7000.0000000000000 5000.0000000000000 -666.66666666670005 -8394781.6375553068 14556038.040660739 -16350500.020913754 -0.00013651086382374854 0.0013828408286431016 0.00042493664239240316 0.60000000014312782 -2.5000000006716134 -6.9556815066991868 
7000.0000000000000 6000.0000000000000 -666.66666666670005 -8394781.6374374274 14556038.041718630 -16350500.020882417 -0.00012764584824080357 -0.00063031879009527050 0.00045630748654188077 0.60000000013888866 -2.0000000005104712 -6.9556815059143409 
8000.0000000000000 6000.0000000000000 -500.00000000000000 -7242010.1433015689 15708809.537511956 -12263401.087798372 -0.00022206225723050995 -0.00052792786445156445 0.00021597201570365172 0.40000000010740111 -2.0000000006246950 -7.0219986594423949 
8000.0000000000000 5000.0000000000000 -500.00000000000000 -7242010.1434689825 15708809.536522949 -12263401.087675741 -0.00026995761373237669 0.0011178520420942859 5.7659931489135274e-05 0.40000000011580517 -2.5000000008343535 -7.0219986602400093 
7000.0000000000000 5000.0000000000000 -500.00000000000000 -7242010.1437074654 15708809.536382306 -12263401.087957930 -0.00016827968501491482 0.0010149340675563831 0.00036512967331153609 0.60000000017095267 -2.5000000008259899 -7.0219986601194098 
7000.0000000000000 6000.0000000000000 -500.00000000000000 -7242010.1436573239 15708809.537327254 -12263401.088049209 -0.00015611835913873688 -0.00059912251110475065 0.00039017384091985990 0.60000000016574717 -2.0000000006177925 -7.0219986593358579 
8000.0000000000000 6000.0000000000000 -333.33333333330000 -6089135.4341603275 16861684.248502351 -8175936.2101507504 -0.00026364284338487406 -0.00046343222086299413 0.00015958172064496702 0.40000000012319298 -2.0000000007317094 -7.0733989806426871 
8000.0000000000000 5000.0000000000000 -333.33333333330000 -6089135.4342696751 16861684.247698262 -8175936.2099858671 -0.00032619209204681656 0.00071829926917941339 4.0845411024260057e-05 0.40000000013319170 -2.5000000009932388 -7.0733989814385234 
7000.0000000000000 5000.0000000000000 -333.33333333330000 -6089135.4345824653 16861684.247550327 -8175936.2101715887 -0.00020246971690706574 0.00064441064118037788 0.00028481994542640704 0.60000000019778688 -2.5000000009833667 -7.0733989813186682 
7000.0000000000000 6000.0000000000000 -333.33333333330000 -6089135.4346149480 16861684.248302296 -8175936.2103210008 -0.00018662360851649708 -0.00051415874680514682 0.00030244065379895710 0.60000000019154687 -2.0000000007236349 -7.0733989805364228 
8000.0000000000000 6000.0000000000000 -166.66666666670000 -4936157.5004960252 18014662.184113640 -4088105.3548474805 -0.00031543326787676531 -0.00033269174122084347 9.0568921513342959e-05 0.40000000013834491 -2.0000000008368972 -7.1098811340204637 
8000.0000000000000 5000.0000000000000 -166.66666666670000 -4936157.5005345307 18014662.183586232 -4088105.3547075968 -0.00039691741475401704 0.00032624632038053491 1.8476569208266906e-05 0.40000000015038711 -2.5000000011551582 -7.1098811348150388 
7000.0000000000000 5000.0000000000000 -166.66666666670000 -4936157.5009277761 18014662.183426164 -4088105.3547977139 -0.00023934432078931382 0.00028695154549553061 0.00017951903809240878 0.60000000022344924 -2.5000000011434582 -7.1098811346953203 
7000.0000000000000 6000.0000000000000 -166.66666666670000 -4936157.5010628942 18014662.183893166 -4088105.3549345527 -0.00021935691384024935 -0.00035955203078279658 0.00018858332511908832 0.60000000021610089 -2.0000000008274195 -7.1098811339139649 
8000.0000000000000 6000.0000000000000 0.0000000000000000 -4359642.7263769992 18591176.959230915 -2044098.4286859173 -0.00034414979195671470 -0.00024874733247300915 5.2860566438169304e-05 0.40000000015279857 -2.0000000009396186 -7.1314437838541513 
8000.0000000000000 5000.0000000000000 0.0000000000000000 -4359642.7263764162 18591176.958866410 -2044098.4285759090 -0.00043635950133932865 0.00013406731957167316 6.1067187476949285e-06 0.40000000016744935 -2.5000000013197869 -7.1314437846484138 
7000.0000000000000 5000.0000000000000 0.0000000000000000 -4359642.7268113326 18591176.958698757 -2044098.4286191722 -0.00025848802390832239 0.00011363205263036427 0.00012002138878093565 0.60000000024772604 -2.5000000013058519 -7.1314437845282885 
7000.0000000000000 6000.0000000000000 0.0000000000000000 -4359642.7270034542 18591176.958998740 -2044098.4287312303 -0.00023630540784009744 -0.00026272493131073940 0.00012452246631950093 0.60000000023919275 -2.0000000009284564 -7.1314437837469438 
5000.0000000000000 5000.0000000000000 -1333.3333333329999 -13004835.645121705 9945984.0271743089 -32695236.958943989 8.6205007769088784e-06 0.0028955443330792780 -0.00065622893780587367 1.0000000000304647 -2.5000000000908877 -6.5412712782131672 
6000.0000000000000 6000.0000000000000 -1333.3333333329999 -13004835.644916195 9945984.0279183518 -32695236.958664853 3.8538318919962185e-05 -0.00041416611857976807 0.00032780262539193353 0.80000000002715044 -2.0000000000764300 -6.5412712777005035 
6000.0000000000000 5000.0000000000000 -1333.3333333329999 -13004835.645285297 9945984.0270106513 -32695236.959565789 4.5153958668203726e-05 0.0026991757406838639 0.00052564665198096222 0.80000000002498528 -2.5000000000883902 -6.5412712784874163 
5000.0000000000000 5000.0000000000000 -1500.0000000000000 -14157091.201377800 8793728.4698274564 -36780506.658837676 2.8728281869262313e-05 0.0031318759954692939 -0.00072159523406371915 0.99999999997791733 -2.4999999999542357 -6.4003899935338149 
6000.0000000000000 6000.0000000000000 -1500.0000000000000 -14157091.201075193 8793728.4704088103 -36780506.658399843 6.2417250380030994e-05 -0.00034200735403160218 0.00032057950333397143 0.79999999998553328 -1.9999999999684692 -6.4003899930204184 
6000.0000000000000 5000.0000000000000 -1500.0000000000000 -14157091.201496881 8793728.4696343392 -36780506.659669228 6.6368669493311821e-05 0.0029176655010729156 0.00053957198472011109 0.79999999998255411 -2.4999999999510809 -6.4003899938051259 
5000.0000000000000 5000.0000000000000 -1166.6666666670001 -11852476.919872684 11098342.753665468 -28609601.478002559 -1.2015495615666743e-05 0.0026152332759460731 -0.00057619693258404900 1.0000000000840770 -2.5000000002307359 -6.6672424068876683 
6000.0000000000000 6000.0000000000000 -1166.6666666670001 -11852476.919743888 11098342.754539996 -28609601.477847416 1.3829173670956469e-05 -0.00048413969086766399 0.00033566296617037930 0.80000000006880634 -2.0000000001846732 -6.6672424063762108 
6000.0000000000000 5000.0000000000000 -1166.6666666670001 -11852476.920064228 11098342.753530769 -28609601.478431325 2.3109013225479707e-05 0.0024365068524055036 0.00051346251349407583 0.80000000006748617 -2.5000000002289173 -6.6672424071639238 
5000.0000000000000 5000.0000000000000 -1000.0000000000000 -10700015.016388547 12250804.658561813 -24523600.183232401 -3.2724041768753299e-05 0.0022951075878708252 -0.00048424595184518639 1.0000000001387015 -2.5000000003738676 -6.7783020445546303 
6000.0000000000000 6000.0000000000000 -1000.0000000000000 -10700015.016312664 12250804.659527142 -24523600.183169506 -1.1117984364781195e-05 -0.00054472001491516053 0.00034114537997858977 0.80000000011037620 -2.0000000002929568 -6.7783020440446844 
6000.0000000000000 5000.0000000000000 -1000.0000000000000 -10700015.016586104 12250804.658455947 -24523600.183488835 8.4535971003882603e-07 0.0021341335030113885 0.00049979809467425322 0.80000000010990369 -2.5000000003727192 -6.7783020448320599 
5000.0000000000000 5000.0000000000000 -833.33333333329995 -9547449.9254309349 13403369.751121899 -20437233.041865032 -5.2839925217249725e-05 0.0019405348194397841 -0.00038402778374036861 1.0000000001942697 -2.5000000005203558 -6.8744488560892938 
6000.0000000000000 6000.0000000000000 -833.33333333329995 -9547449.9253804535 13403369.752129737 -20437233.041865997 -3.5568642235567633e-05 -0.00058730230518367699 0.00034052923293839232 0.80000000015171924 -2.0000000004010023 -6.8744488555810204 
6000.0000000000000 5000.0000000000000 -833.33333333329995 -9547449.9256066307 13403369.751044894 -20437233.041974559 -2.0740535532631425e-05 0.0017980288022161226 0.00048046717123805270 0.80000000015206141 -2.5000000005198291 -6.8744488563672217 
5000.0000000000000 5000.0000000000000 -666.66666666670005 -8394781.6377623212 14556038.040605078 -16350500.021133749 -7.1425733904140410e-05 0.0015582084471747286 -0.00028015153722340099 1.0000000002506899 -2.5000000006702456 -6.9556815062484381 
6000.0000000000000 6000.0000000000000 -666.66666666670005 -8394781.6377056427 14556038.041597284 -16350500.021173552 -5.8624358342853918e-05 -0.00060182151910513919 0.00032936613018338381 0.80000000019267492 -2.0000000005084853 -6.9556815057418637 
6000.0000000000000 5000.0000000000000 -666.66666666670005 -8394781.6378817018 14556038.040556815 -16350500.021127110 -4.0389866985176477e-05 0.0014358428183404439 0.00045025709548517816 0.80000000019375495 -2.5000000006702368 -6.9556815065263589 
5000.0000000000000 5000.0000000000000 -500.00000000000000 -7242010.1441435050 15708809.536274038 -12263401.088264538 -8.7213053348144526e-05 0.0011564774387783829 -0.00017819579211357929 1.0000000003078438 -2.5000000008235417 -7.0219986596691859 
6000.0000000000000 6000.0000000000000 -500.00000000000000 -7242010.1440446852 15708809.537181120 -12263401.088321898 -7.9199597478696575e-05 -0.00057660590369681952 0.00030242671246979248 0.80000000023305717 -2.0000000006150143 -7.0219986591642094 
6000.0000000000000 5000.0000000000000 -500.00000000000000 -7242010.1441650009 15708809.536253739 -12263401.088178921 -5.6407277374987837e-05 0.0010572440020178925 0.00040284993891966884 0.80000000023474349 -2.5000000008238796 -7.0219986599467958 
5000.0000000000000 5000.0000000000000 -333.33333333330000 -6089135.4353368478 16861684.247391589 -8175936.2104872204 -9.8538411512803309e-05 0.00074558875450147621 -8.4708876811410291e-05 1.0000000003655833 -2.5000000009801862 -7.0733989808689151 
6000.0000000000000 6000.0000000000000 -333.33333333330000 -6089135.4351551384 16861684.248131290 -8175936.2105442695 -9.6002436526081999e-05 -0.00049830828869210715 0.00025361913272675137 0.80000000027265028 -2.0000000007201315 -7.0733989803653126 
6000.0000000000000 5000.0000000000000 -333.33333333330000 -6089135.4352109851 16861684.247397389 -8175936.2103667427 -6.6603978023216273e-05 0.00067419154200182210 0.00033070762902793734 0.80000000027474438 -2.5000000009806183 -7.0733989811461626 
5000.0000000000000 5000.0000000000000 -166.66666666670000 -4936157.5021055341 18014662.183221240 -4088105.3550320864 -0.00010327803644086234 0.00033807303873525219 -7.1207629863115106e-06 1.0000000004237242 -2.5000000011400432 -7.1098811342454535 
6000.0000000000000 6000.0000000000000 -166.66666666670000 -4936157.5017947536 18014662.183697276 -4088105.3550739381 -0.00010751544373157614 -0.00035174072071478946 0.00017591312163544508 0.80000000031119967 -2.0000000008232850 -7.1098811337428875 
6000.0000000000000 5000.0000000000000 -166.66666666670000 -4936157.5017740112 18014662.183249813 -4088105.3549283710 -6.8265578950008808e-05 0.00030129514588119090 0.00022498850264767874 0.80000000031342633 -2.5000000011402208 -7.1098811345225599 
5000.0000000000000 5000.0000000000000 0.0000000000000000 -4359642.7282291017 18591176.958472125 -2044098.4287886354 -0.00010370555549230992 0.00013689141073253510 2.6717710311094050e-05 1.0000000004820364 -2.5000000013028809 -7.1314437840770895 
6000.0000000000000 6000.0000000000000 0.0000000000000000 -4359642.7278415253 18591176.958790421 -2044098.4288195411 -0.00011174514788249505 -0.00025936893123057377 0.00012889616954289958 0.80000000034840912 -2.0000000009238241 -7.1314437835751159 
6000.0000000000000 5000.0000000000000 0.0000000000000000 -4359642.7277790122 18591176.958511040 -2044098.4287072057 -6.6589842293047344e-05 0.00011939693109780500 0.00016254419234214013 0.80000000035040431 -2.5000000013023422 -7.1314437843546044 
0.0000000000000000 4000.0000000000000 -1333.3333333329999 -13004835.642940540 9945984.0288921185 -32695236.949446809 2.8294010854362240e-05 0.0068232165305391803 -0.0017341154174069667 2.0000000000000000 -3.0000000000755227 -6.5412712769967163 
0.0000000000000000 5000.0000000000000 -1333.3333333329999 -13004835.641776944 9945984.0307344869 -32695236.946274016 4.3373044125029524e-05 0.0025634205760498197 -0.0019310583814553350 2.0000000000000000 -2.5000000000845461 -6.5412712758375395 
1000.0000000000000 5000.0000000000000 -1333.3333333329999 -13004835.641887490 9945984.0303251836 -32695236.948024672 3.4725597980347744e-05 0.0024983003775776165 -0.0032201211792923469 1.7999999999903638 -2.5000000000825420 -6.5412712760488727 
1000.0000000000000 4000.0000000000000 -1333.3333333329999 -13004835.643009024 9945984.0284782611 -32695236.951362528 2.2271568413472605e-05 0.0067055125544730025 -0.0030318980445197385 1.7999999999884813 -3.0000000000740572 -6.5412712771978523 
0.0000000000000000 4000.0000000000000 -1500.0000000000000 -14157091.200554393 8793728.4719066583 -36780506.648968205 2.9661733005815584e-05 0.0071630595348753292 -0.0016882379745726266 2.0000000000000000 -2.9999999999216311 -6.4003899923618954 
0.0000000000000000 5000.0000000000000 -1500.0000000000000 -14157091.199356638 8793728.4733074214 -36780506.645253226 5.0309882932605713e-05 0.0027836268695351609 -0.0019052222102697567 2.0000000000000000 -2.4999999999506954 -6.4003899912122284 
1000.0000000000000 5000.0000000000000 -1500.0000000000000 -14157091.199315909 8793728.4729098193 -36780506.647115581 4.6940521254841802e-05 0.0027074568902076632 -0.0032187606777496240 1.7999999999611502 -2.4999999999484399 -6.4003899914138582 
1000.0000000000000 4000.0000000000000 -1500.0000000000000 -14157091.200471742 8793728.4715072643 -36780506.650993556 2.8973365992525239e-05 0.0070367853905351210 -0.0030109469206277659 1.7999999999589185 -2.9999999999201625 -6.4003899925516299 
0.0000000000000000 4000.0000000000000 -1166.6666666670001 -11852476.916191023 11098342.755032724 -28609601.469000936 2.6250078695279552e-05 0.0063774285891705050 -0.0017452392372733232 2.0000000000000000 -3.0000000002361982 -6.6672424056300121 
0.0000000000000000 5000.0000000000000 -1166.6666666670001 -11852476.915057871 11098342.757315449 -28609601.466342427 3.5378170908723581e-05 0.0023032148318105029 -0.0019225185952811178 2.0000000000000000 -2.5000000002214029 -6.6672424044638570 
1000.0000000000000 5000.0000000000000 -1166.6666666670001 -11852476.915345343 11098342.756893596 -28609601.467959754 2.0950106758146764e-05 0.0022482422269042663 -0.0031678005234576749 1.8000000000224596 -2.5000000002196914 -6.6672424046838819 
1000.0000000000000 4000.0000000000000 -1166.6666666670001 -11852476.916436208 11098342.754603766 -28609601.470781367 1.4327277644193073e-05 0.0062686819170926118 -0.0029985854745391829 1.8000000000209952 -3.0000000002347673 -6.6672424058414848 
0.0000000000000000 4000.0000000000000 -1000.0000000000000 -10700015.011044012 12250804.659594893 -24523600.174870789 2.3466589572741714e-05 0.0058223789519204344 -0.0017156988104941834 2.0000000000000000 -3.0000000004041882 -6.7783020432599601 
0.0000000000000000 5000.0000000000000 -1000.0000000000000 -10700015.009938544 12250804.662311018 -24523600.172697265 2.6421845868353906e-05 0.0020076593755809112 -0.0018738300306100589 2.0000000000000000 -2.5000000003613074 -6.7783020420891678 
1000.0000000000000 5000.0000000000000 -1000.0000000000000 -10700015.010432979 12250804.661875028 -24523600.174158987 5.6121487070005622e-06 0.0019618911305678368 -0.0030529918865204305 1.8000000000578356 -2.5000000003599241 -6.7783020423167120 
1000.0000000000000 4000.0000000000000 -1000.0000000000000 -10700015.011495231 12250804.659149934 -24523600.176488318 4.9916831873507666e-06 0.0057229975759956813 -0.0029020230520344632 1.8000000000568552 -3.0000000004028240 -6.7783020434805001 
0.0000000000000000 4000.0000000000000 -833.33333333329995 -9547449.9182382636 13403369.751844630 -20437233.034309953 2.0161703070917785e-05 0.0051553933830308400 -0.0016388613969758208 2.0000000000000000 -3.0000000005800525 -6.8744488547627949 
0.0000000000000000 5000.0000000000000 -833.33333333329995 -9547449.9171584900 13403369.754980089 -20437233.032590598 1.6760379785181049e-05 0.0016827618649112696 -0.0017782986832605102 2.0000000000000000 -2.5000000005042806 -6.8744488535894952 
1000.0000000000000 5000.0000000000000 -833.33333333329995 -9547449.9178958237 13403369.754527152 -20437233.033874109 -1.1133491316319658e-05 0.0016453070399887059 -0.0028654326450632522 1.8000000000969596 -2.5000000005032512 -6.8744488538232407 
1000.0000000000000 4000.0000000000000 -833.33333333329995 -9547449.9189297408 13403369.751382042 -20437233.035735689 -5.5930418654362671e-06 0.0050659207651524993 -0.0027319558324278895 1.8000000000965195 -3.0000000005787792 -6.8744488549909324 
0.0000000000000000 4000.0000000000000 -666.66666666670005 -8394781.6285091713 14556038.041051302 -16350500.014574314 1.7023140514048147e-05 0.0043745439244274806 -0.0015070191635276548 2.0000000000000000 -3.0000000007643739 -6.9556815048964102 
0.0000000000000000 5000.0000000000000 -666.66666666670005 -8394781.6274535451 14556038.044583116 -16350500.013276815 6.8668197315675016e-06 0.0013360195689329439 -0.0016278661872595871 2.0000000000000000 -2.5000000006503105 -6.9556815037225119 
1000.0000000000000 5000.0000000000000 -666.66666666670005 -8394781.6284778900 14556038.044108434 -16350500.014359573 -2.8916243340283151e-05 0.0013062107854531703 -0.0025929000303425431 1.8000000001403973 -2.5000000006496439 -6.9556815039609887 
1000.0000000000000 4000.0000000000000 -666.66666666670005 -8394781.6294816956 14556038.040567977 -16350500.015778983 -1.6803720794797728e-05 0.0042959870340261927 -0.0024764724496131618 1.8000000001405250 -3.0000000007631931 -6.9556815051304870 
0.0000000000000000 4000.0000000000000 -500.00000000000000 -7242010.1325847292 15708809.536491258 -12263401.082912361 1.5453921721650423e-05 0.0034788251341161813 -0.0013109150953559330 2.0000000000000000 -3.0000000009577525 -7.0219986582991734 
0.0000000000000000 5000.0000000000000 -500.00000000000000 -7242010.1315515479 15708809.540385228 -12263401.082002707 -2.5274629998907090e-06 0.00097665687084253763 -0.0014123663976311996 2.0000000000000000 -2.5000000007993357 -7.0219986571263489 
1000.0000000000000 5000.0000000000000 -500.00000000000000 -7242010.1329188943 15708809.539880779 -12263401.082863128 -4.7086217864662552e-05 0.00095421485787710886 -0.0022203860348831324 1.8000000001888465 -2.5000000007990191 -7.0219986573679325 
1000.0000000000000 4000.0000000000000 -500.00000000000000 -7242010.1338885017 15708809.535981243 -12263401.083867930 -2.7269736262894977e-05 0.0034131369792241659 -0.0021214454354640294 1.8000000001895182 -3.0000000009566135 -7.0219986585373499 
0.0000000000000000 4000.0000000000000 -333.33333333330000 -6089135.4211867051 16861684.247445732 -8175936.2065766184 1.7868257222831609e-05 0.0024685322794508833 -0.0010387928750410617 2.0000000000000000 -3.0000000011607892 -7.0733989794898466 
0.0000000000000000 5000.0000000000000 -333.33333333330000 -6089135.4201735165 16861684.251653168 -8175936.2060197620 -1.0397114197863218e-05 0.00061600001749501500 -0.0011183788965874780 2.0000000000000000 -2.5000000009512280 -7.0733989783195206 
1000.0000000000000 5000.0000000000000 -333.33333333330000 -6089135.4219573652 16861684.251106076 -8175936.2066376908 -6.4658801574311812e-05 0.00060118182871474397 -0.0017289102472024427 1.8000000002431888 -2.5000000009512227 -7.0733989785624436 
1000.0000000000000 4000.0000000000000 -333.33333333330000 -6089135.4228859041 16861684.246898159 -8175936.2072577942 -3.4538396756111526e-05 0.0024193048907390825 -0.0016495503001382277 1.8000000002443044 -3.0000000011595658 -7.0733989797301167 
0.0000000000000000 4000.0000000000000 -166.66666666670000 -4936157.4850296015 18014662.183200106 -4088105.3528310633 2.8067700313799116e-05 0.0013456314211026652 -0.00067472714454020713 2.0000000000000000 -3.0000000013740613 -7.1098811328678009 
0.0000000000000000 5000.0000000000000 -166.66666666670000 -4936157.4840313736 18014662.187654607 -4088105.3525883313 -1.5382951469299327e-05 0.00026765830113969688 -0.00072732836268142381 2.0000000000000000 -2.5000000011057728 -7.1098811317011359 
1000.0000000000000 5000.0000000000000 -166.66666666670000 -4936157.4863309180 18014662.187045608 -4088105.3529425976 -8.0256076679392028e-05 0.00026142816552585113 -0.0010937490669482219 1.8000000003045733 -2.5000000011060095 -7.1098811319434754 
1000.0000000000000 4000.0000000000000 -166.66666666670000 -4936157.4872088339 18014662.182597086 -4088105.3532128800 -3.4661049904031149e-05 0.0013191053485244412 -0.0010388104544461637 1.8000000003059253 -3.0000000013725199 -7.1098811331080176 
0.0000000000000000 4000.0000000000000 0.0000000000000000 -4359642.7096001338 18591176.958438143 -2044098.4275149407 3.5688997285900862e-05 0.00075638098179766147 -0.00046738972542199842 2.0000000000000000 -3.0000000015980883 -7.1314437827131840 
0.0000000000000000 5000.0000000000000 0.0000000000000000 -4359642.7086076140 18591176.962997191 -2044098.4274187540 -1.6963098375295235e-05 9.8408343355148713e-05 -0.00050482108336618735 2.0000000000000000 -2.5000000012626571 -7.1314437815510150 
1000.0000000000000 5000.0000000000000 0.0000000000000000 -4359642.7111936202 18591176.962351531 -2044098.4276354895 -8.7361659030136608e-05 9.6814588378852609e-05 -0.00073673334441101094 1.8000000003745364 -2.5000000012630297 -7.1314437817906358 
1000.0000000000000 4000.0000000000000 0.0000000000000000 -4359642.7120435452 18591176.957801931 -2044098.4277405038 -3.2333726209501324e-05 0.00074317332202319931 -0.00069563824959686872 1.8000000003757739 -3.0000000015958652 -7.1314437829509743 
7000.0000000000000 2000.0000000000000 -1333.3333333329999 -13004835.651118049 9945984.0201148745 -32695236.979595039 -8.7032322900193928e-06 0.011791771663780386 0.00043784809752236764 0.60000000002657250 -4.0000000000100426 -6.5412712829617590 
6000.0000000000000 2000.0000000000000 -1333.3333333329999 -13004835.651202083 9945984.0201037247 -32695236.979485534 -0.00010636034420711617 0.011839675264967703 0.0014589713098522637 0.80000000002663818 -4.0000000000063594 -6.5412712828433381 
7000.0000000000000 2000.0000000000000 -1500.0000000000000 -14157091.207289236 8793728.4649873730 -36780506.681622490 4.3032102949420091e-06 0.012046114245958809 0.00043822962337906868 0.59999999999388642 -3.9999999998806048 -6.4003899981992669 
6000.0000000000000 2000.0000000000000 -1500.0000000000000 -14157091.207338102 8793728.4649983793 -36780506.681436844 -0.00010731032637192691 0.012075379539773735 0.0014741296726184666 0.79999999998386240 -3.9999999998768669 -6.4003899980828285 
7000.0000000000000 2000.0000000000000 -1166.6666666670001 -11852476.925929513 11098342.744207168 -28609601.496461298 -2.2562336772743188e-05 0.011361456487144993 0.00043372045042725340 0.60000000005899146 -4.0000000001502753 -6.6672424117077806 
6000.0000000000000 2000.0000000000000 -1166.6666666670001 -11852476.926071161 11098342.744173370 -28609601.496408798 -0.00010251643232065302 0.011425379286517070 0.0014351626925411564 0.80000000006933092 -4.0000000001467475 -6.6672424115873046 
7000.0000000000000 2000.0000000000000 -1000.0000000000000 -10700015.022465739 12250804.646516507 -24523600.199418660 -3.7233567072388837e-05 0.010729960210166751 0.00042357457175586018 0.60000000009105525 -4.0000000003027596 -6.7783020494342301 
6000.0000000000000 2000.0000000000000 -1000.0000000000000 -10700015.022694338 12250804.646457443 -24523600.199407283 -9.5502221913370270e-05 0.010806477111972185 0.0013970343028532005 0.80000000011174577 -4.0000000002994947 -6.7783020493115291 
7000.0000000000000 2000.0000000000000 -833.33333333329995 -9547449.9314698726 13403369.736293260 -20437233.055679038 -5.2646990899110280e-05 0.0098681047139953688 0.00040469612360003273 0.60000000012266608 -4.0000000004691421 -6.8744488610158641 
6000.0000000000000 2000.0000000000000 -833.33333333329995 -9547449.9318236597 13403369.736203451 -20437233.055696573 -8.4889308714961479e-05 0.0099529537261592981 0.0013370554069127199 0.80000000015361461 -4.0000000004662590 -6.8744488608906957 
7000.0000000000000 2000.0000000000000 -666.66666666670005 -8394781.6436815467 14556038.022790048 -16350500.032458132 -6.8689779298597474e-05 0.0087420690005951471 0.00037390671202570133 0.60000000015371213 -4.0000000006512755 -6.9556815112089030 
6000.0000000000000 2000.0000000000000 -666.66666666670005 -8394781.6442105826 14556038.022660119 -16350500.032496111 -6.9965032529493380e-05 0.0088299050397331047 0.0012451098624590843 0.80000000019455775 -4.0000000006489103 -6.9556815110809982 
7000.0000000000000 2000.0000000000000 -500.00000000000000 -7242010.1498321285 15708809.515266050 -12263401.096966406 -8.5182510558232165e-05 0.0073126225862703599 0.00032758659033302578 0.60000000018406219 -4.0000000008512577 -7.0219986646498578 
6000.0000000000000 2000.0000000000000 -500.00000000000000 -7242010.1506027132 15708809.515081003 -12263401.097020101 -4.9480394675988391e-05 0.0073967135456038556 0.0011074136662832625 0.80000000023402784 -4.0000000008495755 -7.0219986645189731 
7000.0000000000000 2000.0000000000000 -333.33333333330000 -6089135.4406446181 16861684.222986344 -8175936.2164206244 -0.00010186216359065942 0.0055342595007342871 0.00026170457598237651 0.60000000021356026 -4.0000000010714487 -7.0733989858554747 
6000.0000000000000 2000.0000000000000 -333.33333333330000 -6089135.4417460104 16861684.222722985 -8175936.2164881183 -2.1213770063105203e-05 0.0056060114117520519 0.00090489984291262579 0.80000000027123452 -4.0000000010706858 -7.0733989857214263 
7000.0000000000000 2000.0000000000000 -166.66666666670000 -4936157.5068280371 18014662.155226488 -4088105.3580418536 -0.00011833403145679823 0.0033545602352415761 0.00017187082352410616 0.60000000024200839 -4.0000000013144890 -7.1098811392229759 
6000.0000000000000 2000.0000000000000 -166.66666666670000 -4936157.5083830422 18014662.154849373 -4088105.3581218161 1.8781521897957483e-05 0.0034023815214893629 0.00061083708090867270 0.80000000030503127 -4.0000000013150308 -7.1098811390856849 
7000.0000000000000 2000.0000000000000 0.0000000000000000 -4359642.7325999951 18591176.928636823 -2044098.4302969510 -0.00012645833929177160 0.0021573919724232537 0.00012039762415316281 0.60000000026913347 -4.0000000015832748 -7.1314437890301825 
6000.0000000000000 2000.0000000000000 0.0000000000000000 -4359642.7344175139 18591176.928192131 -2044098.4303826927 4.2342343886081234e-05 0.0021898785464223762 0.00043700944464697687 0.80000000033375940 -4.0000000015858479 -7.1314437888896185 
8000.0000000000000 2000.0000000000000 -1333.3333333329999 -13004835.651212947 9945984.0201595277 -32695236.979149878 9.8849758606956375e-05 0.011854433106121927 -0.0011594574378089605 0.40000000002591074 -4.0000000000069207 -6.5412712831822697 
9000.0000000000000 2000.0000000000000 -1333.3333333329999 -13004835.651387669 9945984.0201690122 -32695236.978713080 8.8748206835987314e-05 0.011964763452095468 -0.00098358314430267539 0.20000000001502197 -4.0000000000018767 -6.5412712833899320 
9000.0000000000000 1000.0000000000000 -1333.3333333329999 -13004835.653760947 9945984.0186307132 -32695236.988326862 7.8683415947784454e-05 0.0078096334704314228 -0.00098253081348055366 0.20000000001085033 -4.4999999999848583 -6.5412712847155925 
8000.0000000000000 2000.0000000000000 -1500.0000000000000 -14157091.207380036 8793728.4650317803 -36780506.681236729 0.00012588650526621233 0.012094146290666815 -0.0012003238371987904 0.40000000000312597 -3.9999999998766245 -6.4003899984232371 
9000.0000000000000 2000.0000000000000 -1500.0000000000000 -14157091.207521884 8793728.4650584031 -36780506.680816904 0.00010971266455398633 0.012179158210872339 -0.0010033225545848592 0.20000000000334126 -3.9999999998705347 -6.4003899986335702 
9000.0000000000000 1000.0000000000000 -1500.0000000000000 -14157091.209786402 8793728.4643786680 -36780506.690856978 8.8849397765888914e-05 0.0078788562799265438 -0.00098350413591594176 0.19999999999860801 -4.4999999999104174 -6.4003899999138252 
8000.0000000000000 2000.0000000000000 -1166.6666666670001 -11852476.926027354 11098342.744246988 -28609601.495976582 6.6851032192370867e-05 0.011435931400801390 -0.0011108027075912639 0.40000000004869374 -4.0000000001481633 -6.6672424119243843 
9000.0000000000000 2000.0000000000000 -1166.6666666670001 -11852476.926248370 11098342.744231718 -28609601.495538708 6.3560956617061127e-05 0.011566785271772184 -0.00095717129967170286 0.20000000002684493 -4.0000000001443858 -6.6672424121291822 
9000.0000000000000 1000.0000000000000 -1166.6666666670001 -11852476.928739201 11098342.741698319 -28609601.504615899 6.5997021637641235e-05 0.0076225316684231199 -0.00097218035031654986 0.20000000002337576 -4.5000000000666214 -6.6672424134971289 
8000.0000000000000 2000.0000000000000 -1000.0000000000000 -10700015.022567345 12250804.646545339 -24523600.198916722 2.9601876589450699e-05 0.010812785979992768 -0.0010522846084902093 0.40000000007155723 -4.0000000003018110 -6.7783020496465634 
9000.0000000000000 2000.0000000000000 -1000.0000000000000 -10700015.022855479 12250804.646495346 -24523600.198495958 3.3849297267608601e-05 0.010958178130069232 -0.00092101417608886067 0.20000000003895121 -4.0000000002995320 -6.7783020498483548 
9000.0000000000000 1000.0000000000000 -1000.0000000000000 -10700015.025472980 12250804.642807081 -24523600.206903506 5.0669667119844981e-05 0.0072962662967441631 -0.00094873529239075638 0.20000000003633156 -4.5000000001567964 -6.7783020512546575 
8000.0000000000000 2000.0000000000000 -833.33333333329995 -9547449.9315795973 13403369.736303180 -20437233.055185370 -1.3301344569157983e-05 0.0099550820005826698 -0.00098070938194949478 0.40000000009464098 -4.0000000004695151 -6.8744488612236916 
9000.0000000000000 2000.0000000000000 -833.33333333329995 -9547449.9319656491 13403369.736205248 -20437233.054801885 -8.0941722078622321e-07 0.010107761688878444 -0.00087051000497397849 0.20000000005154089 -4.0000000004689804 -6.8744488614223869 
9000.0000000000000 1000.0000000000000 -833.33333333329995 -9547449.9347199202 13403369.731174575 -20437233.062382262 3.2661010714559459e-05 0.0068055271777834369 -0.00090696637939562661 0.20000000004992116 -4.5000000002566338 -6.8744488628621365 
8000.0000000000000 2000.0000000000000 -666.66666666670005 -8394781.6438098680 14556038.022770237 -16350500.032002212 -6.2480251059067929e-05 0.0088282590742013722 -0.00089119056606106373 0.40000000011817111 -4.0000000006531380 -6.9556815114121644 
9000.0000000000000 2000.0000000000000 -666.66666666670005 -8394781.6443381868 14556038.022606488 -16350500.031677675 -4.1041079974383936e-05 0.0089794691186763018 -0.00079905265313506911 0.20000000006489091 -4.0000000006546150 -6.9556815116077413 
9000.0000000000000 1000.0000000000000 -666.66666666670005 -8394781.6472412571 14556038.016012486 -16350500.038247513 1.2086665476191887e-05 0.0061201889043683245 -0.00083969816438377715 0.20000000006441956 -4.5000000003675682 -6.9556815130748486 
8000.0000000000000 2000.0000000000000 -500.00000000000000 -7242010.1499997713 15708809.515201028 -12263401.096582217 -0.00011899594778344268 0.0073921334023996886 -0.00077623912770038376 0.40000000014250942 -4.0000000008547909 -7.0219986648487218 
9000.0000000000000 2000.0000000000000 -500.00000000000000 -7242010.1507330406 15708809.514946872 -12263401.096338581 -8.7804962748843038e-05 0.0075313633183559476 -0.00069749272929865648 0.20000000007937199 -4.0000000008585888 -7.0219986650412034 
9000.0000000000000 1000.0000000000000 -500.00000000000000 -7242010.1538002808 15708809.506528208 -12263401.101687752 -1.0659338588245275e-05 0.0052042476606722681 -0.00073733233729830327 0.20000000008018778 -4.5000000004912550 -7.0219986665282201 
8000.0000000000000 2000.0000000000000 -333.33333333330000 -6089135.4408892225 16861684.222853247 -8175936.2161464356 -0.00018474773776134447 0.0055998746441634061 -0.00062435256425908520 0.40000000016822884 -4.0000000010768852 -7.0733989860503943 
9000.0000000000000 2000.0000000000000 -333.33333333330000 -6089135.4419148080 16861684.222474430 -8175936.2160033518 -0.00014256550740241985 0.0057143192652201217 -0.00055357278497055861 0.20000000009546043 -4.0000000010833849 -7.0733989862398383 
9000.0000000000000 1000.0000000000000 -333.33333333330000 -6089135.4451673431 16861684.211920038 -8175936.2198958853 -3.4720531404173493e-05 0.0040146561492244931 -0.00058735774939153390 0.20000000009768032 -4.5000000006296039 -7.0733989877377343 
8000.0000000000000 2000.0000000000000 -166.66666666670000 -4936157.5072149495 18014662.154990807 -4088105.3579185065 -0.00026321255151553054 0.0033968304841266385 -0.00041769007418474539 0.40000000019624343 -4.0000000013221815 -7.1098811394147257 
9000.0000000000000 2000.0000000000000 -166.66666666670000 -4936157.5086534582 18014662.154439136 -4088105.3578887512 -0.00020755792887166175 0.0034701585151724517 -0.00035155447760978876 0.20000000011373095 -4.0000000013319088 -7.1098811396011419 
9000.0000000000000 1000.0000000000000 -166.66666666670000 -4936157.5121218273 18014662.141375896 -4088105.3600653461 -5.8515792324852149e-05 0.0024998367287145033 -0.00037414915090672733 0.20000000011743407 -4.5000000007848149 -7.1098811410991081 
8000.0000000000000 2000.0000000000000 0.0000000000000000 -4359642.7330787033 18591176.928339440 -2044098.4302594198 -0.00030618676635875419 0.0021852652439611929 -0.00029794877559363053 0.40000000022802767 -4.0000000015938557 -7.1314437892198184 
9000.0000000000000 2000.0000000000000 0.0000000000000000 -4359642.7347585987 18591176.927687228 -2044098.4302883111 -0.00024294968702200643 0.0022334123740637380 -0.00023383105102884241 0.20000000013480332 -4.0000000016076394 -7.1314437894030238 
9000.0000000000000 1000.0000000000000 0.0000000000000000 -4359642.7383439718 18591176.913267650 -2044098.4315394112 -7.0093819723387592e-05 0.0016540941597835220 -0.00024959158132016634 0.20000000014000369 -4.5000000009594308 -7.1314437908882899 
4000.0000000000000 1000.0000000000000 -1333.3333333329999 -13004835.652643273 9945984.0191258751 -32695236.987256713 4.2035797802444808e-05 0.0077918637745177646 -0.0030901442651376809 1.2000000000317466 -4.4999999999846922 -6.5412712835110165 
5000.0000000000000 2000.0000000000000 -1333.3333333329999 -13004835.651058430 9945984.0202345904 -32695236.978904333 -7.1141096119397911e-05 0.011908371331055920 -0.00010896656044242259 1.0000000000329381 -4.0000000000014602 -6.5412712826393875 
4000.0000000000000 1000.0000000000000 -1500.0000000000000 -14157091.208821960 8793728.4649131056 -36780506.689269572 5.2769854069543463e-05 0.0078574888879412476 -0.0032280447975976882 1.1999999999695463 -4.4999999999113198 -6.4003899987111339 
5000.0000000000000 2000.0000000000000 -1500.0000000000000 -14157091.207199482 8793728.4651576560 -36780506.680723459 -6.6189143637298479e-05 0.012117273206141921 -0.00017678625291752504 0.99999999997949007 -3.9999999998717302 -6.4003899978815237 
4000.0000000000000 1000.0000000000000 -1166.6666666670001 -11852476.927514268 11098342.742165376 -28609601.503979728 2.9616760416341489e-05 0.0076087929606480868 -0.0029079896493154254 1.2000000000967537 -4.5000000000653166 -6.6672424122926648 
5000.0000000000000 2000.0000000000000 -1166.6666666670001 -11852476.925950482 11098342.744273333 -28609601.495942540 -7.4505639429412677e-05 0.011516892615052137 -3.2047755389300942e-05 1.0000000000873612 -4.0000000001422249 -6.6672424113810829 
4000.0000000000000 1000.0000000000000 -1000.0000000000000 -10700015.024198372 12250804.643254492 -24523600.206618596 1.5375217086485877e-05 0.0072868894753886273 -0.0026792545255410367 1.2000000001647988 -4.5000000001542881 -6.7783020500518649 
5000.0000000000000 2000.0000000000000 -1000.0000000000000 -10700015.022634776 12250804.646521030 -24523600.199042235 -7.6108111207883150e-05 0.010915733975600047 4.9627049405044567e-05 1.0000000001426683 -4.0000000002954996 -6.7783020491033090 
4000.0000000000000 1000.0000000000000 -833.33333333329995 -9547449.9334665313 13403369.731607676 -20437233.062366508 -7.9791197920655815e-07 0.0068006316606071728 -0.0024012695319672798 1.2000000002361455 -4.5000000002528635 -6.8744488616621249 
5000.0000000000000 2000.0000000000000 -833.33333333329995 -9547449.9318768121 13403369.736221004 -20437233.055423174 -7.5686261028578465e-05 0.010073634759205139 0.00013008636192008007 1.0000000001987166 -4.0000000004629479 -6.8744488606806655 
4000.0000000000000 1000.0000000000000 -666.66666666670005 -8394781.6460952163 14556038.016433196 -16350500.038418649 -1.8930380995544419e-05 0.0061195110002948009 -0.0020707116055984302 1.2000000003111033 -4.5000000003624905 -6.9556815118782529 
5000.0000000000000 2000.0000000000000 -666.66666666670005 -8394781.6444460154 14556038.022616185 -16350500.032308875 -7.2820432666385206e-05 0.0089542147341534137 0.00020123638659988926 1.0000000002552858 -4.0000000006464633 -6.9556815108692707 
4000.0000000000000 1000.0000000000000 -500.00000000000000 -7242010.1528653717 15708809.506934524 -12263401.101962812 -3.8890726283378032e-05 0.0052070956353850858 -0.0016831463623261788 1.2000000003900431 -4.5000000004848353 -7.0219986653351549 
5000.0000000000000 2000.0000000000000 -500.00000000000000 -7242010.1511141639 15708809.514952039 -12263401.096916530 -6.6825386881314133e-05 0.0075150316344425802 0.00025213163872797768 1.0000000003120488 -4.0000000008482131 -7.0219986643055643 
4000.0000000000000 1000.0000000000000 -333.33333333330000 -6089135.4445676748 16861684.212305546 -8175936.2201902904 -6.0249672239328207e-05 0.0040197656185917635 -0.0012323012315746023 1.2000000004734206 -4.5000000006218182 -7.0733989865477511 
5000.0000000000000 2000.0000000000000 -333.33333333330000 -6089135.4426596975 16861684.222474024 -8175936.2164662750 -5.6540928065435737e-05 0.0057061874156676181 0.00026804768635128542 1.0000000003685312 -4.0000000010707035 -7.0733989855062038 
4000.0000000000000 1000.0000000000000 -166.66666666670000 -4936157.5120042805 18014662.141729344 -4088105.3602916421 -8.2049960546709446e-05 0.0025053297234916621 -0.00070913127615983935 1.2000000005617970 -4.5000000007756578 -7.1098811399111392 
5000.0000000000000 2000.0000000000000 -166.66666666670000 -4936157.5098679820 18014662.154429648 -4088105.3581744544 -4.0005577857057432e-05 0.0034683830508002909 0.00022929791468180219 1.0000000004240714 -4.0000000013168817 -7.1098811388682472 
4000.0000000000000 1000.0000000000000 0.0000000000000000 -4359642.7385071740 18591176.913601641 -2044098.4317092749 -9.2899595153750263e-05 0.0016592399543670219 -0.00042812658235754893 1.2000000006558493 -4.5000000009489085 -7.1314437897005982 
5000.0000000000000 2000.0000000000000 0.0000000000000000 -4359642.7362363953 18591176.927672043 -2044098.4304696203 -2.9867798070360737e-05 0.0022341839238781847 0.00019344220464893847 1.0000000004777825 -4.0000000015902613 -7.1314437886690927 
2000.0000000000000 7000.0000000000000 -1333.3333333329999 -13004835.642286254 9945984.0302496515 -32695236.951387759 -3.4860432434053906e-05 -0.0021393450467916955 -0.0044908805393726421 1.5999999999969092 -1.5000000000483231 -6.5412712753871318 
2000.0000000000000 6000.0000000000000 -1333.3333333329999 -13004835.642094050 9945984.0302278772 -32695236.950908318 -3.9969585899692128e-05 -0.00059412478065758785 -0.0045560841914188280 1.5999999999980810 -2.0000000000693592 -6.5412712758170750 
1000.0000000000000 6000.0000000000000 -1333.3333333329999 -13004835.641547767 9945984.0311695505 -32695236.947218373 2.6825002308228409e-05 -0.00059670732857062224 -0.0033169812158488450 1.7999999999920802 -2.0000000000703850 -6.5412712752918463 
1000.0000000000000 7000.0000000000000 -1333.3333333329999 -13004835.641704166 9945984.0311677493 -32695236.947824359 1.3574244525404966e-05 -0.0021507542612181326 -0.0033606868523206389 1.7999999999931442 -1.5000000000487608 -6.5412712748635391 
2000.0000000000000 7000.0000000000000 -1500.0000000000000 -14157091.199239140 8793728.4728215504 -36780506.650112823 -2.0621214973356734e-05 -0.0021791020517217528 -0.0045715546372258444 1.5999999999483516 -1.4999999999734173 -6.4003899907348103 
2000.0000000000000 6000.0000000000000 -1500.0000000000000 -14157091.199110322 8793728.4727191385 -36780506.649846546 -2.2149672040891104e-05 -0.00053687804503161989 -0.0046376138203203287 1.5999999999489967 -1.9999999999637110 -6.4003899911666711 
1000.0000000000000 6000.0000000000000 -1500.0000000000000 -14157091.198912384 8793728.4736311249 -36780506.645952307 4.0459039028237917e-05 -0.00053176396558339090 -0.0033357174041268910 1.7999999999633807 -1.9999999999653519 -6.4003899906586250 
1000.0000000000000 7000.0000000000000 -1500.0000000000000 -14157091.198997272 8793728.4737103861 -36780506.646361619 2.5435942910831214e-05 -0.0021859996215264623 -0.0033934191353033952 1.7999999999649317 -1.4999999999743763 -6.4003899902273336 
2000.0000000000000 7000.0000000000000 -1166.6666666670001 -11852476.916268757 11098342.756756464 -28609601.471543044 -5.0107497601356014e-05 -0.0020728273272712389 -0.0043424586218727803 1.6000000000496435 -1.5000000001218317 -6.6672424040398113 
2000.0000000000000 6000.0000000000000 -1166.6666666670001 -11852476.916016467 11098342.756854897 -28609601.470904090 -5.9169632331202369e-05 -0.00064772844146320093 -0.0044055040478551489 1.6000000000513805 -2.0000000001752052 -6.6672424044672400 
1000.0000000000000 6000.0000000000000 -1166.6666666670001 -11852476.915066309 11098342.757828919 -28609601.467459340 1.1951117640228913e-05 -0.00065624314990786589 -0.0032467903310097268 1.8000000000236083 -2.0000000001755605 -6.6672424039263936 
1000.0000000000000 7000.0000000000000 -1166.6666666670001 -11852476.915291574 11098342.757706672 -28609601.468206938 9.3817577524676661e-07 -0.0020873682446762515 -0.0032787540357362456 1.8000000000241483 -1.5000000001217126 -6.6672424035015174 
2000.0000000000000 7000.0000000000000 -1000.0000000000000 -10700015.011943292 12250804.661586329 -24523600.177808493 -6.6643465727212253e-05 -0.0019726212189715799 -0.0041159888113439999 1.6000000001071122 -1.5000000001935694 -6.7783020416898463 
2000.0000000000000 6000.0000000000000 -1000.0000000000000 -10700015.011632534 12250804.661851287 -24523600.177065667 -8.0114195189280441e-05 -0.00069045361646986902 -0.0041754351526761277 1.6000000001094645 -2.0000000002809828 -6.7783020421144409 
1000.0000000000000 6000.0000000000000 -1000.0000000000000 -10700015.010213198 12250804.662861308 -24523600.173912022 -4.0970081082599172e-06 -0.00070304017892141755 -0.0031165389781801509 1.8000000000583645 -2.0000000002806142 -6.7783020415598196 
1000.0000000000000 7000.0000000000000 -1000.0000000000000 -10700015.010506058 12250804.662572429 -24523600.174744688 -1.2388467828179046e-05 -0.0019888689910800262 -0.0031391027000600489 1.8000000000583509 -1.5000000001928628 -6.7783020411385371 
2000.0000000000000 7000.0000000000000 -833.33333333329995 -9547449.9200712424 13403369.753979515 -20437233.037426438 -8.4778916716098031e-05 -0.0018307145539299243 -0.0037994495579679300 1.6000000001699513 -1.5000000002631295 -6.8744488532121997 
2000.0000000000000 6000.0000000000000 -833.33333333329995 -9547449.9197017755 13403369.754464449 -20437233.036637645 -0.00010320845823855979 -0.00071364336512671882 -0.0038537225553170926 1.6000000001729817 -2.0000000003863896 -6.8744488536339432 
1000.0000000000000 6000.0000000000000 -833.33333333329995 -9547449.9177357089 13403369.755515572 -20437233.033826604 -2.1198238811441203e-05 -0.00072840273371740688 -0.0029160047471790702 1.8000000000968295 -2.0000000003852461 -6.8744488530677028 
1000.0000000000000 7000.0000000000000 -833.33333333329995 -9547449.9180962928 13403369.755006703 -20437233.034685984 -2.6300626427840903e-05 -0.0018472446934970983 -0.0029314735266917627 1.8000000000962399 -1.5000000002618064 -6.8744488526498753 
2000.0000000000000 7000.0000000000000 -666.66666666670005 -8394781.6314163692 14556038.043175021 -16350500.017640721 -0.00010484763362092912 -0.0016379947572987056 -0.0033787830447209980 1.6000000002388861 -1.5000000003300611 -6.9556815033634161 
2000.0000000000000 6000.0000000000000 -666.66666666670005 -8394781.6309859529 14556038.043940868 -16350500.016866570 -0.00012890266114786421 -0.00070713609699547494 -0.0034261796758607035 1.6000000002426680 -2.0000000004910721 -6.9556815037826007 
1000.0000000000000 6000.0000000000000 -666.66666666670005 -8394781.6283797696 14556038.045040458 -16350500.014455264 -3.9164553983703515e-05 -0.00072219346843995012 -0.0026327975594271284 1.8000000001395828 -2.0000000004891070 -6.9556815032072512 
1000.0000000000000 7000.0000000000000 -666.66666666670005 -8394781.6288096309 14556038.044250697 -16350500.015280848 -4.0667896871496444e-05 -0.0016534234068897988 -0.0026433041977622289 1.8000000001384038 -1.5000000003280958 -6.9556815027924177 
2000.0000000000000 7000.0000000000000 -500.00000000000000 -7242010.1367432056 15708809.538412921 -12263401.085687080 -0.00012720658528582912 -0.0013841764468572753 -0.0028374853484000374 1.6000000003147452 -1.5000000003938632 -7.0219986567803954 
2000.0000000000000 6000.0000000000000 -500.00000000000000 -7242010.1362474756 15708809.539528375 -12263401.084991502 -0.00015768177887974779 -0.00065912629731667313 -0.0028761708427660314 1.6000000003193651 -2.0000000005946137 -7.0219986571976625 
1000.0000000000000 6000.0000000000000 -500.00000000000000 -7242010.1328871306 15708809.540687107 -12263401.083043024 -5.7726246531722983e-05 -0.00067272535574169684 -0.0022515077888600799 1.8000000001873442 -2.0000000005917880 -7.0219986566161108 
1000.0000000000000 7000.0000000000000 -500.00000000000000 -7242010.1333893184 15708809.539547583 -12263401.083772052 -5.5335086407410108e-05 -0.0013972255448411687 -0.0022588706435827670 1.8000000001855749 -1.5000000003912357 -7.0219986562034800 
2000.0000000000000 7000.0000000000000 -333.33333333330000 -6089135.4268220067 16861684.248930547 -8175936.2088047666 -0.00015223244795673131 -0.0010577735503535725 -0.0021562058346955913 1.6000000003984753 -1.5000000004539762 -7.0733989779803048 
2000.0000000000000 6000.0000000000000 -333.33333333330000 -6089135.4262542790 16861684.250472378 -8175936.2082555024 -0.00019006361239491736 -0.00055607207544633669 -0.0021842410006127442 1.6000000004040307 -2.0000000006965215 -7.0733989783966695 
1000.0000000000000 6000.0000000000000 -333.33333333330000 -6089135.4219984403 16861684.251705606 -8175936.2068395196 -7.6519033273589644e-05 -0.00056664526835383357 -0.0017524543055753930 1.8000000002410252 -2.0000000006928071 -7.0733989778122890 
1000.0000000000000 7000.0000000000000 -333.33333333330000 -6089135.4225774352 16861684.250139203 -8175936.2074064566 -7.0123757478047916e-05 -0.0010673422455003420 -0.0017579972197532951 1.8000000002386805 -1.5000000004506704 -7.0733989774007124 
2000.0000000000000 7000.0000000000000 -166.66666666670000 -4936157.4924302241 18014662.183962788 -4088105.3542328570 -0.00018030768478089309 -0.00064607431108928753 -0.0013123887938262951 1.6000000004911550 -1.5000000005097716 -7.1098811313607673 
2000.0000000000000 6000.0000000000000 -166.66666666670000 -4936157.4917813651 18014662.186016072 -4088105.3539021919 -0.00022658573601337287 -0.00038255322435127312 -0.0013277642469711433 1.6000000004977559 -2.0000000007962133 -7.1098811317776551 
1000.0000000000000 6000.0000000000000 -166.66666666670000 -4936157.4864531178 18014662.187344812 -4088105.3530991185 -9.5065014054726850e-05 -0.00038890152800415378 -0.0011098599390922911 1.8000000003018131 -2.0000000007915957 -7.1098811311943546 
1000.0000000000000 7000.0000000000000 -166.66666666670000 -4936157.4871146418 18014662.185266018 -4088105.3534348425 -8.4845488645727104e-05 -0.00065131158523109092 -0.0011142252691867193 1.8000000002989256 -1.5000000005057770 -7.1098811307822993 
2000.0000000000000 7000.0000000000000 0.0000000000000000 -4359642.7179643558 18591176.958761804 -2044098.4284291824 -0.00019515528018450914 -0.00041723121144280289 -0.00084681755094154958 1.6000000005939994 -1.5000000005605472 -7.1314437811998328 
2000.0000000000000 6000.0000000000000 0.0000000000000000 -4359642.7172723301 18591176.961093135 -2044098.4282264991 -0.00024594912441728949 -0.00027612504807944651 -0.00085535419892812669 1.6000000006017598 -2.0000000008930017 -7.1314437816191116 
1000.0000000000000 6000.0000000000000 0.0000000000000000 -4359642.7113586534 18591176.962475613 -2044098.4277518135 -0.00010420833203254244 -0.00028012348793563944 -0.00074901218395855766 1.8000000003712926 -2.0000000008874883 -7.1314437810414919 
1000.0000000000000 7000.0000000000000 0.0000000000000000 -4359642.7120630201 18591176.960118175 -2044098.4279541625 -9.2165873691870258e-05 -0.00042012645337123416 -0.00075285227031097221 1.8000000003679122 -1.5000000005558578 -7.1314437806270323 
6000.0000000000000 7000.0000000000000 -1333.3333333329999 -13004835.645045768 9945984.0279656611 -32695236.959204424 1.8094605949306292e-05 -0.0019955168666805144 0.00020949993588990698 0.80000000002852889 -1.5000000000543019 -6.5412712772460671 
6000.0000000000000 7000.0000000000000 -1500.0000000000000 -14157091.201144036 8793728.4705281481 -36780506.658732921 3.9100847733164423e-05 -0.0020241513153507426 0.00018782557083305321 0.79999999998770022 -1.4999999999775242 -6.4003899925633183 
6000.0000000000000 7000.0000000000000 -1166.6666666670001 -11852476.919930995 11098342.754476156 -28609601.478537980 -3.4048016751348860e-06 -0.0019415014367762475 0.00023050919956794786 0.80000000006937710 -1.5000000001297524 -6.6672424059249575 
6000.0000000000000 7000.0000000000000 -1000.0000000000000 -10700015.016555626 12250804.659306273 -24523600.183954094 -2.4926718158715403e-05 -0.0018551889321946804 0.00024802540351490717 0.80000000011014205 -1.5000000002035241 -6.7783020435968444 
6000.0000000000000 7000.0000000000000 -833.33333333329995 -9547449.9256792329 13403369.751698775 -20437233.042685941 -4.5927442078353622e-05 -0.0017286135357267554 0.00025869931697130428 0.80000000015070938 -1.5000000002752314 -6.8744488551365261 
6000.0000000000000 7000.0000000000000 -666.66666666670005 -8394781.6380620282 14556038.040895551 -16350500.021968415 -6.5776907629089780e-05 -0.0015527075791568971 0.00025865146655267734 0.80000000019094919 -1.5000000003444480 -6.9556815053003209 
6000.0000000000000 7000.0000000000000 -500.00000000000000 -7242010.1444623126 15708809.536140030 -12263401.089028778 -8.3752656457229823e-05 -0.0013172634545519576 0.00024342222379173268 0.80000000023071061 -1.5000000004106975 -7.0219986587248915 
6000.0000000000000 7000.0000000000000 -333.33333333330000 -6089135.4356395593 16861684.246674076 -8175936.2110972526 -9.9041302610770497e-05 -0.0010109329616292744 0.00020793431351608856 0.80000000026981954 -1.5000000004734437 -7.0733989799271351 
6000.0000000000000 7000.0000000000000 -166.66666666670000 -4936157.5023536300 18014662.181738667 -4088105.3554038736 -0.00011074649256623574 -0.00062112092874996600 0.00014640384067434920 0.80000000030806717 -1.5000000005320830 -7.1098811333043779 
6000.0000000000000 7000.0000000000000 0.0000000000000000 -4359642.7284398237 18591176.956558719 -2044098.4290202546 -0.00011558665405653013 -0.00040369223681389015 0.00010835757846781169 0.80000000034520513 -1.5000000005859351 -7.1314437831343973 
7000.0000000000000 4000.0000000000000 -1333.3333333329999 -13004835.646322004 9945984.0250955839 -32695236.963266432 -2.3596279342727259e-05 0.0067527852133151163 0.00048286349687476539 0.60000000002554021 -3.0000000000777556 -6.5412712798278898 
6000.0000000000000 4000.0000000000000 -1333.3333333329999 -13004835.646443963 9945984.0250904486 -32695236.963014510 1.6545118858843786e-05 0.0069041087879765511 0.00082792686940823788 0.80000000002291938 -3.0000000000787606 -6.5412712796673791 
7000.0000000000000 4000.0000000000000 -1500.0000000000000 -14157091.202574110 8793728.4681522939 -36780506.664052263 -1.6877235617437112e-06 0.0070867376728203394 0.00048795651852849407 0.59999999999398623 -2.9999999999202753 -6.4003899951305598 
6000.0000000000000 4000.0000000000000 -1500.0000000000000 -14157091.202680649 8793728.4681698214 -36780506.663671143 2.8717669657296100e-05 0.0072464957793979545 0.00086227815172627571 0.79999999997991722 -2.9999999999216609 -6.4003899949734597 
7000.0000000000000 4000.0000000000000 -1166.6666666670001 -11852476.921047987 11098342.751183027 -28609601.481488086 -4.7022162733749691e-05 0.0063108744055759593 0.00047321070940785527 0.60000000005675147 -3.0000000002422667 -6.6672424085161097 
6000.0000000000000 4000.0000000000000 -1166.6666666670001 -11852476.921201976 11098342.751155939 -28609601.481350746 4.4705600523385789e-06 0.0064530686035887434 0.00079465731759277363 0.80000000006601568 -3.0000000002428702 -6.6672424083528421 
7000.0000000000000 4000.0000000000000 -1000.0000000000000 -10700015.017497642 12250804.655683143 -24523600.185940847 -7.2101306901336057e-05 0.0057578660899572000 0.00045685941182173291 0.60000000008752952 -3.0000000004143526 -6.7783020461928327 
6000.0000000000000 4000.0000000000000 -1000.0000000000000 -10700015.017705187 12250804.655633826 -24523600.185902409 -7.0588913952504216e-06 0.0058899609336246512 0.00075891018052080459 0.80000000010902894 -3.0000000004145373 -6.7783020460274139 
7000.0000000000000 4000.0000000000000 -833.33333333329995 -9547449.9264187366 13403369.747863140 -20437233.043863282 -9.8969775191255324e-05 0.0050916385461264660 0.00043126754021250710 0.60000000011777643 -3.0000000005945635 -6.8744488577336735 
6000.0000000000000 4000.0000000000000 -833.33333333329995 -9547449.9267070424 13403369.747790437 -20437233.043906134 -1.7153000384912446e-05 0.0052122262666902501 0.00071581676141176424 0.80000000015174255 -3.0000000005943273 -6.8744488575666463 
7000.0000000000000 4000.0000000000000 -666.66666666670005 -8394781.6385578159 14556038.036992216 -16350500.022498444 -0.00012775985054403239 0.0043115823824784625 0.00039348216415372383 0.60000000014738120 -3.0000000007834347 -6.9556815078958616 
6000.0000000000000 4000.0000000000000 -666.66666666670005 -8394781.6389606930 14556038.036894334 -16350500.022601930 -2.4261963924553014e-05 0.0044184403654849826 0.00065901084394880507 0.80000000019388917 -3.0000000007828125 -6.9556815077276672 
7000.0000000000000 4000.0000000000000 -500.00000000000000 -7242010.1446571732 15708809.532344345 -12263401.089084944 -0.00015860416998773571 0.0034192065396084700 0.00034012940561571619 0.60000000017621613 -3.0000000009814674 -7.0219986613170722 
6000.0000000000000 4000.0000000000000 -500.00000000000000 -7242010.1452162825 15708809.532219237 -12263401.089224258 -2.5902715343635669e-05 0.0035087960202619590 0.00058039754948470120 0.80000000023514073 -3.0000000009805485 -7.0219986611480198 
7000.0000000000000 4000.0000000000000 -333.33333333330000 -6089135.4354576468 16861684.243195087 -8175936.2108685495 -0.00019164823573118161 0.0024188432161254716 0.00026736971284883150 0.60000000020413335 -3.0000000011890924 -7.0733989825153509 
6000.0000000000000 4000.0000000000000 -333.33333333330000 -6089135.4362237975 16861684.243041303 -8175936.2110128067 -1.8343498249385354e-05 0.0024856524538376433 0.00046987979400013575 0.80000000027509888 -3.0000000011880594 -7.0733989823455650 
7000.0000000000000 4000.0000000000000 -166.66666666670000 -4936157.5016973931 18014662.178822197 -4088105.3550994173 -0.00022706395554102806 0.0013186849424668824 0.00017086520795760402 0.60000000023095723 -3.0000000014066481 -7.1098811358893368 
6000.0000000000000 4000.0000000000000 -166.66666666670000 -4936157.5027321698 18014662.178640090 -4088105.3552098572 3.7276913289175237e-06 0.0013544115424613272 0.00031512883243260404 0.80000000031328711 -3.0000000014058092 -7.1098811357186937 
7000.0000000000000 4000.0000000000000 0.0000000000000000 -4359642.7275191061 18591176.953989748 -2044098.4287329675 -0.00024538885030859239 0.00074496458841985188 0.00011610125087211265 0.60000000025647637 -3.0000000016343518 -7.1314437857182895 
6000.0000000000000 4000.0000000000000 0.0000000000000000 -4359642.7287050597 18591176.953793883 -2044098.4288157416 1.9164675863069363e-05 0.00076267496425562974 0.00022500570713655820 0.80000000034914831 -3.0000000016341697 -7.1314437855463586 
0.0000000000000000 7000.0000000000000 -1333.3333333329999 -13004835.641507715 9945984.0315472968 -32695236.946344282 2.1858525293951464e-05 -0.0021352479761973984 -0.0020966927027327052 2.0000000000000000 -1.5000000000496931 -6.5412712746461761 
0.0000000000000000 8000.0000000000000 -1333.3333333329999 -13004835.641838938 9945984.0310944542 -32695236.947489072 9.6715888211818485e-06 -0.0022866242057594226 -0.0021211591522136437 2.0000000000000000 -1.0000000000281055 -6.5412712744435888 
1000.0000000000000 8000.0000000000000 -1333.3333333329999 -13004835.642058261 9945984.0307268798 -32695236.948910076 3.6190715034949310e-06 -0.0022909014444273366 -0.0033751159336050415 1.7999999999935972 -1.0000000000277016 -6.5412712746610699 
0.0000000000000000 7000.0000000000000 -1500.0000000000000 -14157091.198943419 8793728.4740788601 -36780506.644797236 2.9895118354356183e-05 -0.0021655270990212604 -0.0021050333111922439 2.0000000000000000 -1.4999999999755920 -6.4003899900172483 
0.0000000000000000 8000.0000000000000 -1500.0000000000000 -14157091.199208135 8793728.4737843275 -36780506.645866558 1.5629108269532339e-05 -0.0023549953722263321 -0.0021371619096277566 2.0000000000000000 -0.99999999998196654 -6.4003899898098098 
1000.0000000000000 8000.0000000000000 -1500.0000000000000 -14157091.199289098 8793728.4734289832 -36780506.647359356 1.2244519959535262e-05 -0.0023615549481135157 -0.0034154989375404770 1.7999999999657699 -0.99999999998135258 -6.4003899900205150 
0.0000000000000000 7000.0000000000000 -1166.6666666670001 -11852476.914927464 11098342.758098703 -28609601.466828395 1.3343393332813119e-05 -0.0020760005487500161 -0.0020578690725673787 2.0000000000000000 -1.5000000001223479 -6.6672424032775979 
0.0000000000000000 8000.0000000000000 -1166.6666666670001 -11852476.915323189 11098342.757454146 -28609601.468002696 3.5267049906094035e-06 -0.0021870334599530510 -0.0020761915893940867 2.0000000000000000 -1.0000000000725018 -6.6672424030797224 
1000.0000000000000 8000.0000000000000 -1166.6666666670001 -11852476.915705852 11098342.757072764 -28609601.469335090 -5.3837431484715856e-06 -0.0021896234506473921 -0.0032872890035427135 1.8000000000241996 -1.0000000000723122 -6.6672424033033684 
0.0000000000000000 7000.0000000000000 -1000.0000000000000 -10700015.009944113 12250804.662979180 -24523600.173486255 4.4998278178234195e-06 -0.0019808049319348727 -0.0019829641161179254 2.0000000000000000 -1.5000000001931908 -6.7783020409089092 
0.0000000000000000 8000.0000000000000 -1000.0000000000000 -10700015.010403045 12250804.662104553 -24523600.174643412 -2.6703963382933673e-06 -0.0020511346052052657 -0.0019965918486910821 2.0000000000000000 -1.0000000001148321 -6.7783020407153778 
1000.0000000000000 8000.0000000000000 -1000.0000000000000 -10700015.010979401 12250804.661707008 -24523600.175868541 -1.4672972965791230e-05 -0.0020525991529426408 -0.0031434751119053480 1.8000000000579879 -1.0000000001148563 -6.7783020409444452 
0.0000000000000000 7000.0000000000000 -833.33333333329995 -9547449.9172994494 13403369.755431654 -20437233.033567518 -4.4919823487218019e-06 -0.0018417038483013136 -0.0018651551635094324 2.0000000000000000 -1.5000000002618250 -6.8744488524155258 
0.0000000000000000 8000.0000000000000 -833.33333333329995 -9547449.9178208858 13403369.754283585 -20437233.034659781 -8.7685961562646819e-06 -0.0018732165288120981 -0.0018754093721404651 2.0000000000000000 -1.0000000001547504 -6.8744488522257319 
1000.0000000000000 8000.0000000000000 -833.33333333329995 -9547449.9186284859 13403369.753866315 -20437233.035757184 -2.4144847733809089e-05 -0.0018740423720498851 -0.0029333005767589902 1.8000000000954555 -1.0000000001549803 -6.8744488524593326 
0.0000000000000000 7000.0000000000000 -666.66666666670005 -8394781.6277312692 14556038.044699213 -16350500.014323290 -1.3428429886403041e-05 -0.0016497084175836436 -0.0016959299779671453 2.0000000000000000 -1.5000000003278118 -6.9556815025544907 
0.0000000000000000 8000.0000000000000 -666.66666666670005 -8394781.6283151321 14556038.043229096 -16350500.015302027 -1.4607010275023804e-05 -0.0016469385920745497 -0.0017038891161131270 2.0000000000000000 -1.0000000001918816 -6.9556815023675815 
1000.0000000000000 8000.0000000000000 -666.66666666670005 -8394781.6294014007 14556038.042786742 -16350500.016249478 -3.3682259072535872e-05 -0.0016475014246393211 -0.0026439918774291108 1.8000000001372025 -1.0000000001923033 -6.9556815026046683 
0.0000000000000000 7000.0000000000000 -500.00000000000000 -7242010.1319693625 15708809.540027777 -12263401.082997493 -2.2085182979165104e-05 -0.0013947923246709995 -0.0014643292861890509 2.0000000000000000 -1.5000000003906624 -7.0219986559632739 
0.0000000000000000 8000.0000000000000 -500.00000000000000 -7242010.1326162554 15708809.538181575 -12263401.083813414 -2.0017860213530776e-05 -0.0013652921388997469 -0.0014707291616512118 2.0000000000000000 -1.0000000002258167 -7.0219986557781473 
1000.0000000000000 8000.0000000000000 -500.00000000000000 -7242010.1340423720 15708809.537706189 -12263401.084586572 -4.3163556214230300e-05 -0.0013658197709969563 -0.0022595054184049107 1.8000000001839676 -1.0000000002264102 -7.0219986560174883 
0.0000000000000000 7000.0000000000000 -333.33333333330000 -6089135.4207362672 16861684.250663389 -8175936.2068378842 -3.0216817301987563e-05 -0.0010658561609088494 -0.0011557437971597725 2.0000000000000000 -1.5000000004498304 -7.0733989771597079 
0.0000000000000000 8000.0000000000000 -333.33333333330000 -6089135.4214474130 16861684.248381540 -8175936.2074408289 -2.4842684853165454e-05 -0.0010206222131702743 -0.0011609190851527801 2.0000000000000000 -1.0000000002561069 -7.0733989769750076 
1000.0000000000000 8000.0000000000000 -333.33333333330000 -6089135.4232943906 16861684.247861203 -8175936.2080134125 -5.2477912361354156e-05 -0.0010211704101165801 -0.0017592415944675281 1.8000000002366878 -1.0000000002568461 -7.0733989772151693 
0.0000000000000000 7000.0000000000000 -166.66666666670000 -4936157.4847443383 18014662.185852204 -4088105.3530981909 -3.7585122195687671e-05 -0.00065067860167534368 -0.00075007477984799520 2.0000000000000000 -1.5000000005047003 -7.1098811305421847 
0.0000000000000000 8000.0000000000000 -166.66666666670000 -4936157.4855216369 18014662.183069479 -4088105.3534371285 -2.8967770020758950e-05 -0.00060459973162898932 -0.00075388240123269354 2.0000000000000000 -1.0000000002822569 -7.1098811303562934 
1000.0000000000000 8000.0000000000000 -166.66666666670000 -4936157.4878989598 18014662.182486892 -4088105.3537786407 -6.1552924422011334e-05 -0.00060504974218234377 -0.0011162031050043438 1.8000000002965764 -1.0000000002831124 -7.1098811305956042 
0.0000000000000000 7000.0000000000000 0.0000000000000000 -4359642.7093969975 18591176.960740663 -2044098.4277406170 -4.1050521441016290e-05 -0.00041993121921978508 -0.00052004745871231904 2.0000000000000000 -1.5000000005545777 -7.1314437803897679 
0.0000000000000000 8000.0000000000000 0.0000000000000000 -4359642.7102079280 18591176.957690485 -2044098.4279346440 -3.0845350463315304e-05 -0.00037766610807555022 -0.00052307256051161463 2.0000000000000000 -1.0000000003037182 -7.1314437802008017 
1000.0000000000000 8000.0000000000000 0.0000000000000000 -4359642.7128819730 18591176.957071707 -2044098.4281521630 -6.6025017117981937e-05 -0.00037801434970315991 -0.00075515303396829123 1.8000000003652421 -1.0000000003046619 -7.1314437804372792 
4000.0000000000000 4000.0000000000000 -1333.3333333329999 -13004835.645630062 9945984.0256615411 -32695236.961002856 -6.1117502622594808e-05 0.0071889849361218760 -0.0027130953524791722 1.2000000000339834 -3.0000000000789195 -6.5412712789743290 
5000.0000000000000 4000.0000000000000 -1333.3333333329999 -13004835.646338243 9945984.0252425987 -32695236.962164033 -7.1497322073969450e-06 0.0071861197985775369 -0.00046348184171933851 1.0000000000298808 -3.0000000000800231 -6.5412712794111352 
5000.0000000000000 3000.0000000000000 -1333.3333333329999 -13004835.648424188 9945984.0226518139 -32695236.968987007 -4.2867466127467355e-05 0.011076006439463437 -0.00024197249913093501 1.0000000000304541 -3.5000000000435483 -6.5412712809675195 
4000.0000000000000 4000.0000000000000 -1500.0000000000000 -14157091.202052871 8793728.4687800519 -36780506.661233597 -3.5517844558857906e-05 0.0075428996571534008 -0.0028731059998471447 1.1999999999741922 -2.9999999999226747 -6.4003899942882816 
5000.0000000000000 4000.0000000000000 -1500.0000000000000 -14157091.202611418 8793728.4683487099 -36780506.662607796 7.6826860320986492e-06 0.0075420007469095751 -0.00051940555353905326 0.99999999997677069 -2.9999999999231899 -6.4003899947218788 
5000.0000000000000 3000.0000000000000 -1500.0000000000000 -14157091.204659866 8793728.4665665813 -36780506.670138597 -3.4498881280543516e-05 0.011423639147584546 -0.00029709270994256973 0.99999999997706546 -3.4999999998861293 -6.4003899962526276 
4000.0000000000000 4000.0000000000000 -1166.6666666670001 -11852476.920226948 11098342.751688922 -28609601.479743347 -8.8037417749720271e-05 0.0067244862313493581 -0.0025162567123411771 1.2000000000963238 -3.0000000002421725 -6.6672424076539318 
5000.0000000000000 4000.0000000000000 -1166.6666666670001 -11852476.921079120 11098342.751281159 -28609601.480702519 -2.1929370574228373e-05 0.0067197470125805406 -0.00039350672116630122 1.0000000000840670 -3.0000000002438791 -6.6672424080929753 
5000.0000000000000 3000.0000000000000 -1166.6666666670001 -11852476.923211291 11098342.747822721 -28609601.486788247 -5.0143722145637150e-05 0.010556717644556140 -0.00017492943172506945 1.0000000000848950 -3.5000000002113545 -6.6672424096708625 
4000.0000000000000 4000.0000000000000 -1000.0000000000000 -10700015.016604707 12250804.656127902 -24523600.184674125 -0.00011653361259143491 0.0061454285977296033 -0.0022817322850017369 1.2000000001614255 -3.0000000004130074 -6.7783020453245104 
5000.0000000000000 4000.0000000000000 -1000.0000000000000 -10700015.017591564 12250804.655730719 -24523600.185443107 -3.6278410716562167e-05 0.0061389816772244050 -0.00031253957768492179 1.0000000001392590 -3.0000000004153291 -6.7783020457648959 
5000.0000000000000 3000.0000000000000 -1000.0000000000000 -10700015.019779313 12250804.651342871 -24523600.190759979 -5.6083148414802846e-05 0.0098486332316901765 -9.9576353189161413e-05 1.0000000001403040 -3.5000000003906950 -6.7783020473600146 
4000.0000000000000 4000.0000000000000 -833.33333333329995 -9547449.9255292192 13403369.748243030 -20437233.043026723 -0.00014710560747114941 0.0054482301689870371 -0.0020087896646771991 1.2000000002295133 -3.0000000005920375 -6.8744488568614139 
5000.0000000000000 4000.0000000000000 -833.33333333329995 -9547449.9266372528 13403369.747856485 -20437233.043618552 -4.9519191562129831e-05 0.0054404098331581156 -0.00022481798519534621 1.0000000001953568 -3.0000000005949801 -6.8744488573023386 
5000.0000000000000 3000.0000000000000 -833.33333333329995 -9547449.9288914911 13403369.742474770 -20437233.048134401 -6.0175411055690244e-05 0.0089330695425160166 -2.0984033204841614e-05 1.0000000001965550 -3.5000000005828293 -6.8744488589102861 
4000.0000000000000 4000.0000000000000 -666.66666666670005 -8394781.6377679855 14556038.037301444 -16350500.022033658 -0.00018061554654275500 0.0046298469864249460 -0.0016968655189144946 1.2000000003008184 -3.0000000007799059 -6.9556815070215166 
5000.0000000000000 4000.0000000000000 -666.66666666670005 -8394781.6389789470 14556038.036926264 -16350500.022463260 -6.0535389643933806e-05 0.0046211617327563759 -0.00013588994007316006 1.0000000002522238 -3.0000000007834711 -6.9556815074622813 
5000.0000000000000 3000.0000000000000 -666.66666666670005 -8394781.6413132604 14556038.030483907 -16350500.026146345 -6.1466410767933472e-05 0.0077893938542151434 5.4004251846520438e-05 1.0000000002534601 -3.5000000007891576 -6.9556815090785520 
4000.0000000000000 4000.0000000000000 -500.00000000000000 -7242010.1440875474 15708809.532576142 -12263401.088919040 -0.00021842701746491736 0.0036879691217672371 -0.0013456512916624607 1.2000000003755782 -3.0000000009772867 -7.0219986604420219 
5000.0000000000000 4000.0000000000000 -500.00000000000000 -7242010.1453779666 15708809.532213721 -12263401.089203907 -6.7600050583275758e-05 0.0036791557578368418 -5.2769125065777378e-05 1.0000000003096761 -3.0000000009814647 -7.0219986608820619 
5000.0000000000000 3000.0000000000000 -500.00000000000000 -7242010.1478099050 15708809.524642691 -12263401.092023030 -5.8291845839359018e-05 0.0063947709083620229 0.00011629276363290829 1.0000000003107525 -3.5000000010112382 -7.0219986625020425 
4000.0000000000000 4000.0000000000000 -333.33333333330000 -6089135.4352565408 16861684.243343655 -8175936.2109095855 -0.00026255351475376208 0.0026212365178163422 -0.00095516936680816247 1.2000000004540310 -3.0000000011848673 -7.0733989816403664 
5000.0000000000000 4000.0000000000000 -333.33333333330000 -6089135.4365973109 16861684.242996119 -8175936.2110700831 -6.8164129397342565e-05 0.0026133987414401804 1.5927031280050014e-05 1.0000000003674760 -3.0000000011896266 -7.0733989820792695 
5000.0000000000000 3000.0000000000000 -333.33333333330000 -6089135.4391497951 16861684.234229248 -8175936.2129934598 -4.7867508558002487e-05 0.0047236381670703979 0.00015402946306879639 1.0000000003680645 -3.5000000012508186 -7.0733989836982607 
4000.0000000000000 4000.0000000000000 -166.66666666670000 -4936157.5020446461 18014662.178885747 -4088105.3552315650 -0.00031579416639833271 0.0014297610940075863 -0.00052585557751742775 1.2000000005364175 -3.0000000014033299 -7.1098811350144251 
5000.0000000000000 4000.0000000000000 -166.66666666670000 -4936157.5034009200 18014662.178555932 -4088105.3552912944 -5.8634456780737381e-05 0.0014245677267211798 5.9898774955142106e-05 1.0000000004253213 -3.0000000014086083 -7.1098811354519560 
5000.0000000000000 3000.0000000000000 -166.66666666670000 -4936157.5061035659 18014662.168531042 -4088105.3562834016 -2.5731579973825254e-05 0.0027471086964228281 0.00015203770675068596 1.0000000004249061 -3.5000000015098602 -7.1098811370651385 
4000.0000000000000 4000.0000000000000 0.0000000000000000 -4359642.7281896910 18591176.954011075 -2044098.4288784787 -0.00034509592081590472 0.00080296601651603735 -0.00030157422240863208 1.2000000006229838 -3.0000000016333122 -7.1314437848425403 
5000.0000000000000 4000.0000000000000 0.0000000000000000 -4359642.7295442875 18591176.953690913 -2044098.4288941375 -5.0824865078750320e-05 0.00079960204599469596 7.4306090269957690e-05 1.0000000004828307 -3.0000000016389872 -7.1314437852786670 
5000.0000000000000 3000.0000000000000 0.0000000000000000 -4359642.7323303381 18591176.943022422 -2044098.4294110199 -1.1052794070861178e-05 0.0016786644471723220 0.00013898067998297490 1.0000000004806464 -3.5000000017905752 -7.1314437868810625 
9000.0000000000000 7000.0000000000000 -1333.3333333329999 -13004835.644908996 9945984.0282834042 -32695236.958155584 -6.1728775751898986e-05 -0.0017971766037564690 0.00027141656723370837 0.20000000000884949 -1.5000000000588847 -6.5412712775795772 
9000.0000000000000 6000.0000000000000 -1333.3333333329999 -13004835.644854691 9945984.0282069743 -32695236.957539462 -8.4106060125792634e-05 -0.00010476633928667176 0.00010550495895957051 0.20000000001144388 -2.0000000000825722 -6.5412712780616946 
9000.0000000000000 7000.0000000000000 -1500.0000000000000 -14157091.201093463 8793728.4707975984 -36780506.657752551 -5.6600171771492470e-05 -0.0018144295956865153 0.00027979049984397342 0.19999999999985391 -1.4999999999808180 -6.4003899929012320 
9000.0000000000000 6000.0000000000000 -1500.0000000000000 -14157091.201088166 8793728.4706564955 -36780506.657327294 -7.6165883020621697e-05 -1.3300888941804198e-05 0.00010369579552046069 0.20000000000228096 -1.9999999999729641 -6.4003899933867237 
9000.0000000000000 7000.0000000000000 -1166.6666666670001 -11852476.919679850 11098342.754838202 -28609601.477471869 -6.7802812566471275e-05 -0.0017565288534247649 0.00025864249459918486 0.20000000001752921 -1.5000000001357154 -6.6672424062541271 
9000.0000000000000 6000.0000000000000 -1166.6666666670001 -11852476.919581775 11098342.754864667 -28609601.476722933 -9.3280541278884874e-05 -0.00019668513277353857 0.00010359135878807678 0.20000000002032908 -2.0000000001925802 -6.6672424067324432 
9000.0000000000000 7000.0000000000000 -1000.0000000000000 -10700015.016158195 12250804.659710513 -24523600.182919122 -7.5501125315012810e-05 -0.0016858632274473900 0.00024098934035187452 0.20000000002587501 -1.5000000002109939 -6.7783020439219763 
9000.0000000000000 6000.0000000000000 -1000.0000000000000 -10700015.016020738 12250804.659884915 -24523600.182095513 -0.00010460063846636511 -0.00028231383182252299 9.7804960823750695e-05 0.20000000002894841 -2.0000000003027965 -6.7783020443963542 
9000.0000000000000 7000.0000000000000 -833.33333333329995 -9547449.9250996411 13403369.752145251 -20437233.041727304 -8.5585981164015392e-05 -0.0015776138192526786 0.00021797098395187655 0.20000000003386839 -1.5000000002843743 -6.8744488554581409 
9000.0000000000000 6000.0000000000000 -833.33333333329995 -9547449.9249263816 13403369.752519896 -20437233.040887423 -0.00011913777893757995 -0.00035369107656187961 8.8142463720965799e-05 0.20000000003731738 -2.0000000004129994 -6.8744488559287458 
9000.0000000000000 7000.0000000000000 -666.66666666670005 -8394781.6372602042 14556038.041386576 -16350500.021128016 -9.8910891647773506e-05 -0.0014232215969669879 0.00018910546018075674 0.20000000004148807 -1.5000000003554737 -6.9556815056191592 
9000.0000000000000 6000.0000000000000 -666.66666666670005 -8394781.6370539144 14556038.042021569 -16350500.020330440 -0.00013814384874913756 -0.00040155143741152794 7.4769481513866135e-05 0.20000000004545365 -2.0000000005229270 -6.9556815060864627 
9000.0000000000000 7000.0000000000000 -500.00000000000000 -7242010.1433935883 15708809.536680505 -12263401.088344861 -0.00011642437398067276 -0.0012130746667632394 0.00015391425096646056 0.20000000004870960 -1.5000000004238623 -7.0219986590418912 
9000.0000000000000 6000.0000000000000 -500.00000000000000 -7242010.1431562938 15708809.537644187 -12263401.087648585 -0.00016306405447420931 -0.00041524029521474668 5.8024561815695737e-05 0.20000000005337729 -2.0000000006322636 -7.0219986595066866 
9000.0000000000000 7000.0000000000000 -333.33333333330000 -6089135.4342542309 16861684.247271702 -8175936.2106044143 -0.00013917290265458079 -0.00093650223254399618 0.00011189210462739718 0.20000000005550239 -1.5000000004890559 -7.0733989802434376 
9000.0000000000000 6000.0000000000000 -333.33333333330000 -6089135.4339873455 16861684.248641044 -8175936.2100691833 -0.00019555850431759054 -0.00038258575874791932 3.8402274667148979e-05 0.20000000006110910 -2.0000000007406307 -7.0733989807068349 
9000.0000000000000 7000.0000000000000 -166.66666666670000 -4936157.5005963128 18014662.182404283 -4088105.3551329235 -0.00016830669807589460 -0.00058171687272898004 6.2490829424430701e-05 0.20000000006182847 -1.5000000005505021 -7.1098811336213066 
9000.0000000000000 6000.0000000000000 -166.66666666670000 -4936157.5003006766 18014662.184265297 -4088105.3548192531 -0.00023753045006874303 -0.00028985689627618495 1.6575917532237392e-05 0.20000000006866991 -2.0000000008475713 -7.1098811340847607 
9000.0000000000000 7000.0000000000000 0.0000000000000000 -4359642.7264818996 18591176.957261454 -2044098.4288674409 -0.00018462030443158731 -0.00038322386615870821 3.5874403772293909e-05 0.20000000006764110 -1.5000000006075731 -7.1314437834534559 
9000.0000000000000 6000.0000000000000 0.0000000000000000 -4359642.7261720281 18591176.959390979 -2044098.4286797717 -0.00026113956334919978 -0.00022666107334542746 5.2090721103956767e-06 0.20000000007608282 -2.0000000009525376 -7.1314437839187645 
8000.0000000000000 4000.0000000000000 -1333.3333333329999 -13004835.646396969 9945984.0251810364 -32695236.962560944 -6.4343951790635080e-05 0.0070048000100966235 -0.00038724313295820879 0.40000000002800323 -3.0000000000801736 -6.5412712799868746 
8000.0000000000000 3000.0000000000000 -1333.3333333329999 -13004835.648497682 9945984.0225876756 -32695236.969481166 2.3620267905939404e-05 0.010839134925484514 -0.00085738610426079219 0.40000000002911446 -3.5000000000464873 -6.5412712815276288 
7000.0000000000000 3000.0000000000000 -1333.3333333329999 -13004835.648394106 9945984.0225332715 -32695236.970153183 -1.5896952931806223e-05 0.010599136082549612 0.00044950979025312364 0.60000000002615872 -3.5000000000469025 -6.5412712813352121 
8000.0000000000000 4000.0000000000000 -1500.0000000000000 -14157091.202668563 8793728.4682302512 -36780506.663342603 -3.4766607913636218e-05 0.0073505347812128701 -0.00044011436888721171 0.40000000000768543 -2.9999999999217071 -6.4003899952947814 
8000.0000000000000 3000.0000000000000 -1500.0000000000000 -14157091.204742836 8793728.4664506912 -36780506.670943469 5.7593344805858550e-05 0.011196953718570438 -0.00091770627290002377 0.40000000000759778 -3.4999999998881108 -6.4003899968092668 
7000.0000000000000 3000.0000000000000 -1500.0000000000000 -14157091.204631761 8793728.4664001781 -36780506.671590820 2.4506520387947159e-06 0.010957789355832227 0.00045241486331805739 0.59999999999396059 -3.4999999998896638 -6.4003899966113087 
8000.0000000000000 4000.0000000000000 -1166.6666666670001 -11852476.921097511 11098342.751272678 -28609601.480812617 -9.7106400775659650e-05 0.0065486420804130776 -0.00033866567366827024 0.40000000004796238 -3.0000000002457443 -6.6672424086701687 
8000.0000000000000 3000.0000000000000 -1166.6666666670001 -11852476.923228925 11098342.747807089 -28609601.487020750 -1.5130824648939103e-05 0.010313309563437468 -0.00079567208042081680 0.40000000005040942 -3.5000000002152376 -6.6672424102332482 
7000.0000000000000 3000.0000000000000 -1166.6666666670001 -11852476.923136469 11098342.747752964 -28609601.487691853 -3.5547692055909118e-05 0.010076251452266000 0.00044263988093416653 0.60000000005805865 -3.5000000002143774 -6.6672424100463648 
8000.0000000000000 4000.0000000000000 -1000.0000000000000 -10700015.017516298 12250804.655773683 -24523600.185319602 -0.00013387666772961078 0.0059785849633477040 -0.00029459940771201296 0.40000000006761616 -3.0000000004189782 -6.7783020463424171 
8000.0000000000000 3000.0000000000000 -1000.0000000000000 -10700015.019681202 12250804.651375679 -24523600.190778457 -5.9145064904285495e-05 0.0096033292408914013 -0.00073182539772053388 0.40000000007155545 -3.5000000003955014 -6.7783020479237015 
7000.0000000000000 3000.0000000000000 -1000.0000000000000 -10700015.019602090 12250804.651326742 -24523600.191422246 -5.6557153606400773e-05 0.0093735914383942555 0.00042963757804916243 0.60000000008957322 -3.5000000003932277 -6.7783020477421880 
8000.0000000000000 4000.0000000000000 -833.33333333329995 -9547449.9264021739 13403369.747951254 -20437233.043318342 -0.00017594556056731235 0.0052919928034549351 -0.00025464738038874382 0.40000000008704534 -3.0000000006004508 -6.8744488578793650 
8000.0000000000000 3000.0000000000000 -833.33333333329995 -9547449.9286015835 13403369.742559690 -20437233.047985956 -0.00010930675091772512 0.0086917441626709977 -0.00066419354174437808 0.40000000009267200 -3.5000000005885132 -6.8744488594745485 
7000.0000000000000 3000.0000000000000 -833.33333333329995 -9547449.9285355732 13403369.742521938 -20437233.048575416 -7.8958573212121417e-05 0.0084744535232195387 0.00040791641095052635 0.60000000012060617 -3.5000000005846768 -6.8744488592980622 
8000.0000000000000 4000.0000000000000 -666.66666666670005 -8394781.6385034062 14556038.037074801 -16350500.022048816 -0.00022527215540947538 0.0044873857092038432 -0.00021761402031492268 0.40000000010636139 -3.0000000007907408 -6.9556815080383592 
8000.0000000000000 3000.0000000000000 -666.66666666670005 -8394781.6407360844 14556038.030628785 -16350500.025879685 -0.00016717768907550560 0.0075598520357018899 -0.00058980010988035105 0.40000000011394377 -3.5000000007956129 -6.9556815096429512 
7000.0000000000000 3000.0000000000000 -666.66666666670005 -8394781.6406788640 14556038.030609708 -16350500.026387732 -0.00010275221296728219 0.0073611772919641803 0.00037446651054622731 0.60000000015104904 -3.5000000007900374 -6.9556815094709634 
8000.0000000000000 4000.0000000000000 -500.00000000000000 -7242010.1445647348 15708809.532419002 -12263401.088745013 -0.00028476272297007794 0.0035648854311662579 -0.00018130052021708657 0.40000000012571174 -3.0000000009904144 -7.0219986614571450 
8000.0000000000000 3000.0000000000000 -500.00000000000000 -7242010.1468264740 15708809.524859879 -12263401.091691379 -0.00023546651109558958 0.0061878628377475689 -0.00050378189544053413 0.40000000013564380 -3.5000000010182437 -7.0219986630664915 
7000.0000000000000 3000.0000000000000 -500.00000000000000 -7242010.1467673117 15708809.524868906 -12263401.092091991 -0.00012789318012567860 0.0060155986368483939 0.00032587504223391715 0.60000000018077582 -3.5000000010106840 -7.0219986628982918 
8000.0000000000000 4000.0000000000000 -333.33333333330000 -6089135.4353305306 16861684.243260834 -8175936.2106466824 -0.00035859009469194541 0.0025268395280983857 -0.00014232506113168782 0.40000000014528331 -3.0000000012000090 -7.0733989826538046 
8000.0000000000000 3000.0000000000000 -333.33333333330000 -6089135.4376129396 16861684.234535400 -8175936.2126592370 -0.00031873535292125955 0.0045551196847218407 -0.00039863889205799181 0.40000000015816417 -3.5000000012579457 -7.0733989842631155 
7000.0000000000000 3000.0000000000000 -333.33333333330000 -6089135.4375311900 16861684.234584291 -8175936.2129294416 -0.00015429049501730391 0.0044197341597116638 0.00025831275057427777 0.60000000020963873 -3.5000000012480288 -7.0733989840978415 
8000.0000000000000 4000.0000000000000 -166.66666666670000 -4936157.5015437426 18014662.178880665 -4088105.3549961410 -0.00045254541747822273 0.0013785263482970806 -9.5926791971011723e-05 0.40000000016530451 -3.0000000014200014 -7.1098811360269627 
8000.0000000000000 3000.0000000000000 -166.66666666670000 -4936157.5038327016 18014662.168945972 -4088105.3560246341 -0.00042448100983143373 0.0026406304618923973 -0.00026313531703796083 0.40000000018205595 -3.5000000015163582 -7.1098811376313495 
7000.0000000000000 3000.0000000000000 -166.66666666670000 -4936157.5036927061 18014662.169048816 -4088105.3561478029 -0.00018179847665384668 0.0025572451504328945 0.00016756128651790851 0.60000000023746025 -3.5000000015034525 -7.1098811374680428 
8000.0000000000000 4000.0000000000000 0.0000000000000000 -4359642.7273549009 18591176.954045422 -2044098.4286879948 -0.00050539249734671970 0.00077767105772639611 -7.0185215966974928e-05 0.40000000018604620 -3.0000000016507800 -7.1314437858558204 
8000.0000000000000 3000.0000000000000 0.0000000000000000 -4359642.7296427945 18591176.943496987 -2044098.4292118468 -0.00048413559456078799 0.0016103406590073151 -0.00018611542172688628 0.40000000020808207 -3.5000000017951871 -7.1314437874503556 
7000.0000000000000 3000.0000000000000 0.0000000000000000 -4359642.7294625035 18591176.943630606 -2044098.4292583857 -0.00019580852657350700 0.0015574811374745438 0.00011583851791481761 0.60000000026401468 -3.5000000017782216 -7.1314437872880658 
2000.0000000000000 5000.0000000000000 -1333.3333333329999 -13004835.642387748 9945984.0293589476 -32695236.951897115 -3.7432618079270338e-05 0.0024748015452097346 -0.0046358730842990057 1.5999999999993049 -2.5000000000810449 -6.5412712765733101 
2000.0000000000000 4000.0000000000000 -1333.3333333329999 -13004835.643471643 9945984.0274953060 -32695236.955425352 -2.5108712213193899e-05 0.0066269896842474640 -0.0047179201670165625 1.6000000000003178 -3.0000000000729496 -6.5412712777153832 
2000.0000000000000 5000.0000000000000 -1500.0000000000000 -14157091.199460380 8793728.4719758071 -36780506.651206754 -1.7224956528071003e-05 0.0026738078259744714 -0.0047186701799768905 1.5999999999495937 -2.4999999999463696 -6.4003899919194982 
2000.0000000000000 4000.0000000000000 -1500.0000000000000 -14157091.200575352 8793728.4705609940 -36780506.655274935 -4.3330386990374335e-06 0.0069510580746338178 -0.0048028090313863708 1.5999999999499290 -2.9999999999187286 -6.4003899930485284 
2000.0000000000000 5000.0000000000000 -1166.6666666670001 -11852476.916257717 11098342.755892700 -28609601.471569441 -5.9412810630333976e-05 0.0022332225553688364 -0.0044824733624549201 1.6000000000532837 -2.5000000002188414 -6.6672424052253882 
2000.0000000000000 4000.0000000000000 -1166.6666666670001 -11852476.917314490 11098342.753581839 -28609601.474577270 -4.8039199359253740e-05 0.0061970429808299119 -0.0045608534312570224 1.6000000000550405 -3.0000000002340497 -6.6672424063778815 
2000.0000000000000 5000.0000000000000 -1000.0000000000000 -10700015.011823108 12250804.660836169 -24523600.177456960 -8.3563594537666860e-05 0.0019535697122645781 -0.0042478698139067359 1.6000000001121140 -2.5000000003597962 -6.7783020428732703 
2000.0000000000000 4000.0000000000000 -1000.0000000000000 -10700015.012854449 12250804.658086361 -24523600.179962531 -7.3484513439925575e-05 0.0056578755723712950 -0.0043208411607670383 1.6000000001146921 -3.0000000004025691 -6.7783020440336434 
2000.0000000000000 5000.0000000000000 -833.33333333329995 -9547449.9198409971 13403369.753445555 -20437233.036806323 -0.00011031906030095078 0.0016418710300094895 -0.0039197230293082823 1.6000000001764543 -2.5000000005039156 -6.8744488543924849 
2000.0000000000000 4000.0000000000000 -833.33333333329995 -9547449.9208456930 13403369.750273149 -20437233.038827419 -0.00010181056574553026 0.0050070279251369374 -0.0039853789830625163 1.6000000001799450 -3.0000000005790595 -6.8744488555583194 
2000.0000000000000 5000.0000000000000 -666.66666666670005 -8394781.6310702227 14556038.042977028 -16350500.016866684 -0.00014016061076428616 0.0013059902513995918 -0.0034836574709660537 1.6000000002470591 -2.5000000006511622 -6.9556815045402010 
2000.0000000000000 4000.0000000000000 -666.66666666670005 -8394781.6320431773 14556038.039408257 -16350500.018421801 -0.00013338870732306223 0.0042434778508747203 -0.0035399294105275922 1.6000000002515651 -3.0000000007640568 -6.9556815057091921 
2000.0000000000000 5000.0000000000000 -500.00000000000000 -7242010.1362699000 15708809.538688852 -12263401.084880939 -0.00017360890041740696 0.00095587362610355343 -0.0029228693660135530 1.6000000003247836 -2.5000000008014336 -7.0219986579539846 
2000.0000000000000 4000.0000000000000 -500.00000000000000 -7242010.1372008519 15708809.534761885 -12263401.085990852 -0.00016857973949358667 0.0033681437277004707 -0.0029676125623025896 1.6000000003304184 -3.0000000009580665 -7.0219986591239953 
2000.0000000000000 5000.0000000000000 -333.33333333330000 -6089135.4262040118 16861684.249837779 -8175936.2080965722 -0.00021121318152635645 0.00060384778854440395 -0.0022177539980287207 1.6000000004106023 -2.5000000009545507 -7.0733989791517491 
2000.0000000000000 4000.0000000000000 -333.33333333330000 -6089135.4270757781 16861684.245605066 -8175936.2087859418 -0.00020771063086052981 0.0023846846268600402 -0.0022488101416667213 1.6000000004174912 -3.0000000011615282 -7.0733989803208539 
2000.0000000000000 5000.0000000000000 -166.66666666670000 -4936157.4916429631 18014662.185679074 -4088105.3537627240 -0.00025353751207652248 0.00026492505079098134 -0.0013456093010455346 1.6000000005056143 -2.5000000011102355 -7.1098811325319309 
2000.0000000000000 4000.0000000000000 -166.66666666670000 -4936157.4924293682 18014662.181209508 -4088105.3540626429 -0.00025104751292731527 0.0013005263056867890 -0.0013609577463365729 1.6000000005138859 -3.0000000013747941 -7.1098811336984502 
2000.0000000000000 5000.0000000000000 0.0000000000000000 -4359642.7170853997 18591176.960929640 -2044098.4281145388 -0.00027595005246112237 0.00010079319933260818 -0.00086474082364859455 1.6000000006110442 -2.5000000012680879 -7.1314437823734727 
2000.0000000000000 4000.0000000000000 0.0000000000000000 -4359642.7178213205 18591176.956361048 -2044098.4282285091 -0.00027379553390217195 0.00073446915591407003 -0.00087176689251713892 1.6000000006208213 -3.0000000015980932 -7.1314437835360573 
6000.0000000000000 3000.0000000000000 -1333.3333333329999 -13004835.648518508 9945984.0225202069 -32695236.969862562 -4.9840508650645648e-05 0.010778576068862206 0.0012063787255144405 0.80000000002294958 -3.5000000000455205 -6.5412712811956917 
6000.0000000000000 3000.0000000000000 -1500.0000000000000 -14157091.204732152 8793728.4664084557 -36780506.671193026 -4.7769714438506181e-05 0.011132412029715424 0.0012446135428093514 0.79999999997988713 -3.4999999998882778 -6.4003899964757816 
6000.0000000000000 3000.0000000000000 -1166.6666666670001 -11852476.923304180 11098342.747718824 -28609601.487494532 -4.9981692380009718e-05 0.010257671412807265 0.0011651690729656285 0.80000000006606864 -3.5000000002130562 -6.6672424099032366 
6000.0000000000000 3000.0000000000000 -1000.0000000000000 -10700015.019838430 12250804.651270173 -24523600.191305682 -4.7923902206478507e-05 0.0095535013752489264 0.0011166151587616111 0.80000000010905592 -3.5000000003920197 -6.7783020475957994 
6000.0000000000000 3000.0000000000000 -833.33333333329995 -9547449.9288733155 13403369.742439637 -20437233.048527990 -4.2986609642970280e-05 0.0086486288526202958 0.0010547029101190225 0.80000000015166350 -3.5000000005836460 -6.8744488591487505 
6000.0000000000000 3000.0000000000000 -666.66666666670005 -8394781.6411601249 14556038.030496089 -16350500.026397759 -3.3771564637465492e-05 0.0075242579616492250 0.00097131080851015615 0.80000000019355622 -3.5000000007892713 -6.9556815093190503 
6000.0000000000000 3000.0000000000000 -500.00000000000000 -7242010.1474462310 15708809.524715766 -12263401.092146341 -1.7678625986041803e-05 0.0061603948089888547 0.00085554634349218619 0.80000000023428441 -3.5000000010103429 -7.0219986627440729 
6000.0000000000000 3000.0000000000000 -333.33333333330000 -6089135.4384774501 16861684.234380726 -8175936.2130108997 9.8268180231057151e-06 0.0045361008790409177 0.00069285548253520388 0.80000000027324958 -3.5000000012484098 -7.0733989839415461 
6000.0000000000000 3000.0000000000000 -166.66666666670000 -4936157.5049966304 18014662.168781471 -4088105.3562316657 5.6286679323399239e-05 0.0026300536586805353 0.00046392563838344877 0.80000000030966867 -3.5000000015051183 -7.1098811373097712 
6000.0000000000000 3000.0000000000000 0.0000000000000000 -4359642.7309708055 18591176.943327755 -2044098.4293361213 8.5425952687298153e-05 0.0016039433663013539 0.00033014979534613331 0.80000000034254626 -3.5000000017821975 -7.1314437871276626 
3000.0000000000000 5000.0000000000000 -1333.3333333329999 -13004835.643353505 9945984.0283358637 -32695236.955517776 -0.00011638463893611330 0.0026695629411879846 -0.0041370473001334845 1.4000000000186701 -2.5000000000848317 -6.5412712772011883 
3000.0000000000000 4000.0000000000000 -1333.3333333329999 -13004835.644490039 9945984.0264415238 -32695236.958938397 -7.6694372565117803e-05 0.0068750842181480734 -0.0045078440820930897 1.4000000000228359 -3.0000000000756044 -6.5412712783687557 
3000.0000000000000 5000.0000000000000 -1500.0000000000000 -14157091.200046353 8793728.4709883817 -36780506.655017227 -9.3632993771105284e-05 0.0028829968313438055 -0.0042950020596806094 1.3999999999595809 -2.4999999999494560 -6.4003899925328778 
3000.0000000000000 4000.0000000000000 -1500.0000000000000 -14157091.201204868 8793728.4695448130 -36780506.658983618 -4.6108585628438355e-05 0.0072116691449670735 -0.0046898394140639033 1.3999999999629225 -2.9999999999204006 -6.4003899936888349 
3000.0000000000000 5000.0000000000000 -1166.6666666670001 -11852476.917652193 11098342.754831050 -28609601.474967659 -0.00014035414043550123 0.0024124145970862475 -0.0039204603228886158 1.4000000000816613 -2.5000000002233644 -6.6672424058666602 
3000.0000000000000 4000.0000000000000 -1166.6666666670001 -11852476.918772334 11098342.752487024 -28609601.477865856 -0.00010960218924040674 0.0064302402880562224 -0.0042653023212784556 1.4000000000866883 -3.0000000002377551 -6.6672424070431964 
3000.0000000000000 5000.0000000000000 -1000.0000000000000 -10700015.013702387 12250804.659733390 -24523600.180590950 -0.00016629498961899590 0.0021158466726547533 -0.0036389173465912394 1.4000000001490305 -2.5000000003651146 -6.7783020435265930 
3000.0000000000000 4000.0000000000000 -1000.0000000000000 -10700015.014810216 12250804.656946927 -24523600.182989556 -0.00014537589676392603 0.0058735161638699311 -0.0039556578466641047 1.4000000001549824 -3.0000000004074101 -6.7783020447095899 
3000.0000000000000 5000.0000000000000 -833.33333333329995 -9547449.9222688731 13403369.752299648 -20437233.039624069 -0.00019524147967267831 0.0017855261515694967 -0.0032852932272895508 1.4000000002212936 -2.5000000005101195 -6.8744488550562277 
3000.0000000000000 4000.0000000000000 -833.33333333329995 -9547449.9233667254 13403369.749085421 -20437233.041546401 -0.00018498034897731450 0.0052019786399217921 -0.0035712598123252845 1.4000000002282764 -3.0000000005851395 -6.8744488562433341 
3000.0000000000000 5000.0000000000000 -666.66666666670005 -8394781.6341185309 14556038.041786892 -16350500.019304842 -0.00022859652974411754 0.0014287347677912341 -0.0028517665877206789 1.4000000002990003 -2.5000000006583813 -6.9556815052123477 
3000.0000000000000 4000.0000000000000 -666.66666666670005 -8394781.6352065112 14556038.038168732 -16350500.020775372 -0.00023002570344160487 0.0044138069286340700 -0.0031032943544433015 1.4000000003071840 -3.0000000007715260 -6.9556815064013913 
3000.0000000000000 5000.0000000000000 -500.00000000000000 -7242010.1400182201 15708809.537454858 -12263401.086863663 -0.00026821335072140380 0.0010546546084123504 -0.0023300306729714042 1.4000000003827251 -2.5000000008098495 -7.0219986586320777 
3000.0000000000000 4000.0000000000000 -500.00000000000000 -7242010.1410935586 15708809.533467922 -12263401.087908767 -0.00028305612081437772 0.0035086855171768071 -0.0025418480354618541 1.4000000003923729 -3.0000000009671415 -7.0219986598210813 
3000.0000000000000 5000.0000000000000 -333.33333333330000 -6089135.4307381995 16861684.248562619 -8175936.2095343815 -0.00031647330977825893 0.00067458003852310532 -0.0017117551361780555 1.4000000004730508 -2.5000000009644059 -7.0733989798327945 
3000.0000000000000 4000.0000000000000 -333.33333333330000 -6089135.4317944106 16861684.244256083 -8175936.2101830188 -0.00034790645944961061 0.0024883184136673033 -0.0018760877622164998 1.4000000004845548 -3.0000000011725287 -7.0733989810200120 
3000.0000000000000 5000.0000000000000 -166.66666666670000 -4936157.4970512679 18014662.184369396 -4088105.3545505037 -0.00037635893836548604 0.00030225990252232742 -0.00098933857869989896 1.4000000005705415 -2.5000000011218444 -7.1098811332122995 
3000.0000000000000 4000.0000000000000 -166.66666666670000 -4936157.4980772594 18014662.179809377 -4088105.3548353980 -0.00043010682388760178 0.0013572374665459437 -0.0010947798782734582 1.4000000005844659 -3.0000000013881785 -7.1098811343962529 
3000.0000000000000 5000.0000000000000 0.0000000000000000 -4359642.7229527831 18591176.959604986 -2044098.4285488992 -0.00040962089118455033 0.00011992975647898596 -0.00060121379379416339 1.4000000006757050 -2.5000000012818506 -7.1314437830488657 
3000.0000000000000 4000.0000000000000 0.0000000000000000 -4359642.7239602655 18591176.954937078 -2044098.4286606708 -0.00047635520119535560 0.00076479332422778258 -0.00067383445512851723 1.4000000006928375 -3.0000000016144952 -7.1314437842283853 
9000.0000000000000 3000.0000000000000 -1333.3333333329999 -13004835.648692146 9945984.0226078071 -32695236.968664322 2.8128320448395133e-05 0.011224573657828219 -0.00077407254065765818 0.20000000001778706 -3.5000000000450879 -6.5412712816999896 
9000.0000000000000 3000.0000000000000 -1500.0000000000000 -14157091.204922754 8793728.4664817192 -36780506.670090407 5.3132670565304990e-05 0.011578666950067970 -0.00080555631616911771 0.20000000000703150 -3.4999999998854188 -6.4003899969870712 
9000.0000000000000 3000.0000000000000 -1166.6666666670001 -11852476.923446579 11098342.747810554 -28609601.486264437 -9.3920853058204765e-07 0.010696567949660224 -0.00074005406765179126 0.20000000002851268 -3.5000000002153264 -6.6672424104004557 
9000.0000000000000 3000.0000000000000 -1000.0000000000000 -10700015.019936670 12250804.651355062 -24523600.190106541 -3.4671464243546580e-05 0.0099773208089554751 -0.00070141321435213003 0.20000000003933310 -3.5000000003972929 -6.7783020480861751 
9000.0000000000000 3000.0000000000000 -833.33333333329995 -9547449.9289172720 13403369.742505543 -20437233.047420613 -7.4066915416508145e-05 0.0090479233221436150 -0.00065481697727588209 0.20000000005041962 -3.5000000005922627 -6.8744488596328130 
9000.0000000000000 3000.0000000000000 -666.66666666670005 -8394781.6411444359 14556038.030529298 -16350500.025439341 -0.00012073368534284753 0.0078875779143544895 -0.00059536995554024003 0.20000000006200039 -3.5000000008016445 -6.9556815097976070 
9000.0000000000000 3000.0000000000000 -500.00000000000000 -7242010.1473727860 15708809.524700627 -12263401.091387838 -0.00017717318555215771 0.0064733990050740240 -0.00051631189240700451 0.20000000007436849 -3.5000000010270016 -7.0219986632181639 
9000.0000000000000 3000.0000000000000 -333.33333333330000 -6089135.4383587316 16861684.234299518 -8175936.2124934578 -0.00024710810849038877 0.0047800362867695054 -0.00040877471915602936 0.20000000008788613 -3.5000000012700836 -7.0733989844123730 
9000.0000000000000 3000.0000000000000 -166.66666666670000 -4936157.5048597865 18014662.168615080 -4088105.3559811534 -0.00033587553672567499 0.0027791282914380790 -0.00026169058084579098 0.20000000010297764 -3.5000000015328547 -7.1098811377785802 
9000.0000000000000 3000.0000000000000 0.0000000000000000 -4359642.7308337968 18591176.943113897 -2044098.4292232175 -0.00038574904494679857 0.0016980500042336206 -0.00017674247103420217 0.20000000012010496 -3.5000000018175443 -7.1314437875955923 
3.7084029529999999e-30 3000.0000000000000 -1333.3333333329999 -13004835.644967854 9945984.0263822079 -32695236.956100620 -1.3063761373931033e-05 0.010745989295031160 -0.0014579905915000965 2.0000000000000000 -3.5000000000424096 -6.5412712785152838 
1000.0000000000000 3000.0000000000000 -1333.3333333329999 -13004835.645027392 9945984.0259712301 -32695236.958073486 -1.4900427347977800e-05 0.010602907739748518 -0.0027593590423374607 1.7999999999878820 -3.5000000000428781 -6.5412712786970975 
1.0619517550000000e-29 3000.0000000000000 -1500.0000000000000 -14157091.202558188 8793728.4701912757 -36780506.656306595 -1.7401667040968676e-05 0.011086693551359448 -0.0014069293070285603 2.0000000000000000 -3.4999999998877533 -6.4003899938555620 
1000.0000000000000 3000.0000000000000 -1500.0000000000000 -14157091.202472547 8793728.4697966836 -36780506.658363663 -1.4401580485189098e-05 0.010946855604604920 -0.0027342973786387507 1.7999999999583360 -3.4999999998884950 -6.4003899940253097 
3.8769667240000000e-30 3000.0000000000000 -1166.6666666670001 -11852476.918247612 11098342.751670696 -28609601.474941816 -8.2874258990801569e-06 0.010238737365964212 -0.0014772346801734174 2.0000000000000000 -3.5000000002071729 -6.6672424071694243 
1000.0000000000000 3000.0000000000000 -1166.6666666670001 -11852476.918476814 11098342.751242906 -28609601.476803757 -1.5532640242600990e-05 0.010094662727036952 -0.0027328976914078778 1.8000000000204077 -3.5000000002073439 -6.6672424073624788 
-1.2136591500000000e-29 3000.0000000000000 -1000.0000000000000 -10700015.013135364 12250804.655320629 -24523600.180067852 -3.2512734819985387e-06 0.0095485778087848992 -0.0014589634296686971 2.0000000000000000 -3.5000000003831544 -6.7783020448160265 
1000.0000000000000 3000.0000000000000 -1000.0000000000000 -10700015.013561804 12250804.654875992 -24523600.181787349 -1.6527966441661886e-05 0.0094060937588747225 -0.0026461691409055627 1.8000000000563232 -3.5000000003830145 -6.7783020450192586 
-1.6274744300000000e-29 3000.0000000000000 -833.33333333329995 -9547449.9203703683 13403369.746595807 -20437233.038730834 2.1234005124783665e-06 0.0086576742758066681 -0.0013968803025433394 2.0000000000000000 -3.5000000005715792 -6.8744488563312132 
1000.0000000000000 3000.0000000000000 -833.33333333329995 -9547449.9210250583 13403369.746134631 -20437233.040271804 -1.7842686547874744e-05 0.0085197753957551962 -0.0024893228419991006 1.8000000000960783 -3.5000000005711165 -6.8744488565432968 
0.0000000000000000 3000.0000000000000 -666.66666666670005 -8394781.6306896470 14556038.034764059 -16350500.018185863 8.4555966535751892e-06 0.0075464235919296997 -0.0012840426835027837 2.0000000000000000 -3.5000000007738015 -6.9556815064727946 
1000.0000000000000 3000.0000000000000 -666.66666666670005 -8394781.6316074990 14556038.034286836 -16350500.019508488 -1.8870942888483403e-05 0.0074168547949119640 -0.0022512866438319165 1.8000000001401715 -3.5000000007729848 -6.9556815066921169 
0.0000000000000000 3000.0000000000000 -500.00000000000000 -7242010.1348246280 15708809.529101292 -12263401.085681166 1.7367855152008608e-05 0.0061931889809199031 -0.0011129287255744074 2.0000000000000000 -3.5000000009913306 -7.0219986598790616 
1000.0000000000000 3000.0000000000000 -500.00000000000000 -7242010.1360452594 15708809.528608212 -12263401.086743539 -1.7959479894093697e-05 0.0060770983387883120 -0.0019197428266556069 1.8000000001891583 -3.5000000009900663 -7.0219986601037334 
-1.4159356700000001e-29 3000.0000000000000 -333.33333333330000 -6089135.4235028457 16861684.238890573 -8175936.2084676176 3.2200165776662536e-05 0.0045738363356989560 -0.00087524447653970067 2.0000000000000000 -3.5000000012258616 -7.0733989810687063 
1000.0000000000000 3000.0000000000000 -333.33333333330000 -6089135.4250721084 16861684.238380518 -8175936.2092282940 -1.1654742894852536e-05 0.0044789949730567697 -0.0014808811014682035 1.8000000002436671 -3.5000000012239236 -7.0733989812965845 
0.0000000000000000 3000.0000000000000 -166.66666666670000 -4936157.4874489009 18014662.173422106 -4088105.3538076761 5.9145366920131435e-05 0.0026610545924333176 -0.00056150261195797439 2.0000000000000000 -3.5000000014793127 -7.1098811344409993 
1000.0000000000000 3000.0000000000000 -166.66666666670000 -4936157.4894203916 18014662.172892053 -4088105.3542242786 6.4797326175652963e-06 0.0026001559783986579 -0.00091918500496781846 1.8000000003044418 -3.5000000014762267 -7.1098811346697479 
0.0000000000000000 3000.0000000000000 0.0000000000000000 -4359642.7120793946 18591176.948035084 -2044098.4280252471 7.6641957194336678e-05 0.0016276739524379185 -0.00038433778391327783 2.0000000000000000 -3.5000000017538833 -7.1314437842759801 
1000.0000000000000 3000.0000000000000 0.0000000000000000 -4359642.7142664231 18591176.947494045 -2044098.4282587173 1.9541063978942730e-05 0.0015877208246661075 -0.00060557831851300239 1.8000000003724010 -3.5000000017487403 -7.1314437845030563 
3000.0000000000000 8000.0000000000000 -1333.3333333329999 -13004835.643493420 9945984.0288221259 -32695236.956260383 -5.4461849246211764e-05 -0.0022222541452196227 -0.0035966722587504460 1.4000000000082400 -1.0000000000292282 -6.5412712757718898 
2000.0000000000000 8000.0000000000000 -1333.3333333329999 -13004835.642661393 9945984.0298257694 -32695236.952403080 -2.5055678924934867e-05 -0.0022778363777895198 -0.0044448421463925379 1.5999999999959784 -1.0000000000276612 -6.5412712751823019 
3000.0000000000000 8000.0000000000000 -1500.0000000000000 -14157091.200022863 8793728.4715806525 -36780506.655105613 -4.6407519697750645e-05 -0.0022914185510987430 -0.0037036543529124187 1.3999999999503565 -0.99999999998225708 -6.4003899910988329 
2000.0000000000000 8000.0000000000000 -1500.0000000000000 -14157091.199558685 8793728.4725576546 -36780506.651026338 -1.5176981869533073e-05 -0.0023504687726130613 -0.0045249046586862502 1.5999999999478152 -0.99999999998093503 -6.4003899905261994 
3000.0000000000000 8000.0000000000000 -1166.6666666670001 -11852476.917943543 11098342.755107090 -28609601.476212122 -6.3207308211519681e-05 -0.0021238276670279312 -0.0034308486880954012 1.4000000000699506 -1.0000000000745015 -6.6672424044439902 
2000.0000000000000 8000.0000000000000 -1166.6666666670001 -11852476.916697089 11098342.756138911 -28609601.472615022 -3.5592862517833998e-05 -0.0021755456242061660 -0.0042979931829615131 1.6000000000482903 -1.0000000000726657 -6.6672424038388467 
3000.0000000000000 8000.0000000000000 -1000.0000000000000 -10700015.014136905 12250804.659675591 -24523600.182181336 -7.3098563224653816e-05 -0.0019911124758700107 -0.0032002708510871542 1.4000000001358877 -1.0000000001177591 -6.7783020421116413 
2000.0000000000000 8000.0000000000000 -1000.0000000000000 -10700015.012423620 12250804.660736561 -24523600.178890236 -4.6973055651487981e-05 -0.0020384614648778798 -0.0040741412318996183 1.6000000001053036 -1.0000000001156168 -6.7783020414926005 
3000.0000000000000 8000.0000000000000 -833.33333333329995 -9547449.9228423424 13403369.751763478 -20437233.041400533 -8.4633388471432771e-05 -0.0018184350339788629 -0.0028986869919430235 1.4000000002064732 -1.0000000001586595 -6.8744488536492545 
2000.0000000000000 8000.0000000000000 -833.33333333329995 -9547449.9206036385 13403369.752853990 -20437233.038469132 -5.9395614820070760e-05 -0.0018607540080870714 -0.0037613222860857489 1.6000000001676435 -1.0000000001561580 -6.8744488530182855 
3000.0000000000000 8000.0000000000000 -666.66666666670005 -8394781.6348310411 14556038.040605476 -16350500.021102626 -9.8348184055076248e-05 -0.0015994224043172072 -0.0025197337687038698 1.4000000002821475 -1.0000000001968348 -6.9556815038127420 
2000.0000000000000 8000.0000000000000 -666.66666666670005 -8394781.6320021916 14556038.041725146 -16350500.018593244 -7.3069837004823755e-05 -0.0016358733424536283 -0.0033455501791522001 1.6000000002360293 -1.0000000001939038 -6.9556815031721735 
3000.0000000000000 8000.0000000000000 -500.00000000000000 -7242010.1408743691 15708809.535437550 -12263401.088511789 -0.00011481498447717917 -0.0013270321605605671 -0.0020572476558713862 1.4000000003633537 -1.0000000002318818 -7.0219986572383002 
2000.0000000000000 8000.0000000000000 -500.00000000000000 -7242010.1373851309 15708809.536584985 -12263401.086495697 -8.8217695173901963e-05 -0.0013565378867604417 -0.0028103972486326306 1.6000000003112793 -1.0000000002284348 -7.0219986565908830 
3000.0000000000000 8000.0000000000000 -333.33333333330000 -6089135.4317475650 16861684.245493449 -8175936.2108548973 -0.00013462077575943416 -0.00099351482604608530 -0.0015058132107833412 1.4000000004505184 -1.0000000002633593 -7.0733989784423210 
2000.0000000000000 8000.0000000000000 -333.33333333330000 -6089135.4275240377 16861684.246665698 -8175936.2094128290 -0.00010506917092254766 -0.0010147572459571973 -0.0021365527679666064 1.6000000003943329 -1.0000000002592937 -7.0733989777912845 
3000.0000000000000 8000.0000000000000 -166.66666666670000 -4936157.4982288014 18014662.180005752 -4088105.3553571114 -0.00015833956071360458 -0.00059042545451806381 -0.00086168440940182249 1.4000000005440230 -1.0000000002907825 -7.1098811318215676 
2000.0000000000000 8000.0000000000000 -166.66666666670000 -4936157.4931975938 18014662.181197111 -4088105.3545803125 -0.00012385542787353817 -0.00060184200063951969 -0.0013014725803467322 1.6000000004862616 -1.0000000002859804 -7.1098811311706598 
3000.0000000000000 8000.0000000000000 0.0000000000000000 -4359642.7242188295 18591176.954530060 -2044098.4290508153 -0.00017124746976096406 -0.00037039191409660448 -0.00051611417096413437 1.4000000006441518 -1.0000000003136160 -7.1314437816531830 
2000.0000000000000 8000.0000000000000 0.0000000000000000 -4359642.7187658446 18591176.955729112 -2044098.4286308417 -0.00013376106161809659 -0.00037646990315302284 -0.00084059424713442583 1.6000000005882740 -1.0000000003079492 -7.1314437810067108 
3000.0000000000000 9000.0000000000000 -1333.3333333329999 -13004835.643798837 9945984.0283700861 -32695236.957147747 -2.5455875956663733e-05 -0.0013749749890933918 -0.0035442054272463359 1.4000000000069670 -0.50000000001255007 -6.5412712756902618 
3000.0000000000000 10000.000000000000 -1333.3333333329999 -13004835.643917294 9945984.0281846169 -32695236.957485292 -1.2076072357181447e-05 -0.00075396241113174405 -0.0035289824539177792 1.4000000000065866 0.0000000000000000 -6.5412712756711171 
4000.0000000000000 10000.000000000000 -1333.3333333329999 -13004835.644755526 9945984.0274269655 -32695236.960230343 -1.1264767537358053e-05 -0.00074186142073154869 -0.0022055810375995809 1.2000000000219715 0.0000000000000000 -6.5412712762003480 
3000.0000000000000 9000.0000000000000 -1500.0000000000000 -14157091.200292269 8793728.4712646976 -36780506.655961528 -2.1566171351489668e-05 -0.0014249519325345824 -0.0036468370907622805 1.3999999999492341 -0.49999999999026568 -6.4003899910138529 
3000.0000000000000 10000.000000000000 -1500.0000000000000 -14157091.200398112 8793728.4711316824 -36780506.656292744 -1.0214755641501678e-05 -0.00078297603896083576 -0.0036305045737017507 1.3999999999488977 0.0000000000000000 -6.4003899909934576 
4000.0000000000000 10000.000000000000 -1500.0000000000000 -14157091.200952338 8793728.4703741744 -36780506.659298688 -9.0236259737648339e-06 -0.00077018142577734143 -0.0023190730937352856 1.1999999999644639 0.0000000000000000 -6.4003899915114895 
3000.0000000000000 9000.0000000000000 -1166.6666666670001 -11852476.918283213 11098342.754497405 -28609601.477101658 -2.9771028027583431e-05 -0.0013067742984214572 -0.0033825396080704988 1.4000000000685042 -0.50000000003374290 -6.6672424043655658 
3000.0000000000000 10000.000000000000 -1166.6666666670001 -11852476.918413712 11098342.754252102 -28609601.477435559 -1.4179459980557679e-05 -0.00071494213046479423 -0.0033683321300451981 1.4000000000680721 0.0000000000000000 -6.6672424043475997 
4000.0000000000000 10000.000000000000 -1166.6666666670001 -11852476.919554297 11098342.753494304 -28609601.479903627 -1.3678391392005689e-05 -0.00070348180246001548 -0.0020549591117057656 1.2000000000819355 0.0000000000000000 -6.6672424048864896 
3000.0000000000000 9000.0000000000000 -1000.0000000000000 -10700015.014509587 12250804.658883821 -24523600.183042951 -3.4763063566754466e-05 -0.0012177323481965445 -0.0031560567449028594 1.4000000001342325 -0.50000000005366096 -6.7783020420361249 
3000.0000000000000 10000.000000000000 -1000.0000000000000 -10700015.014651718 12250804.658570375 -24523600.183362938 -1.6659742550997020e-05 -0.00066458493865921651 -0.0031428175505083446 1.4000000001337332 0.0000000000000000 -6.7783020420192113 
4000.0000000000000 10000.000000000000 -1000.0000000000000 -10700015.016111925 12250804.657813445 -24523600.185535744 -1.6353592212262171e-05 -0.00065377493755692476 -0.0018667684696724459 1.2000000001445019 0.0000000000000000 -6.7783020425661311 
3000.0000000000000 9000.0000000000000 -833.33333333329995 -9547449.9232473485 13403369.750762269 -20437233.042203344 -4.0702762344470826e-05 -0.0011049266525780498 -0.0028587158543067438 1.4000000002045583 -0.50000000007210954 -6.8744488535761992 
3000.0000000000000 10000.000000000000 -833.33333333329995 -9547449.9234008826 13403369.750371432 -20437233.042498849 -1.9663192938440081e-05 -0.00060140955560548113 -0.0028464919330429086 1.4000000002039723 0.0000000000000000 -6.8744488535601622 
4000.0000000000000 10000.000000000000 -833.33333333329995 -9547449.9251957741 13403369.749617616 -20437233.044356041 -1.9384373298040201e-05 -0.00059134086107568340 -0.0016412332558575654 1.2000000002098117 0.0000000000000000 -6.8744488541133908 
3000.0000000000000 9000.0000000000000 -666.66666666670005 -8394781.6352682188 14556038.039364532 -16350500.021814866 -4.7877694649910201e-05 -0.00096509635689162067 -0.0024844435295351213 1.4000000002799047 -0.50000000008887990 -6.9556815037415438 
3000.0000000000000 10000.000000000000 -666.66666666670005 -8394781.6354330946 14556038.038886126 -16350500.022074979 -2.3344467556137374e-05 -0.00052378262406556201 -0.0024734031076996043 1.4000000002792048 0.0000000000000000 -6.9556815037261499 
4000.0000000000000 10000.000000000000 -666.66666666670005 -8394781.6375741959 14556038.038138956 -16350500.023595361 -2.2868296181920253e-05 -0.00051465246981289398 -0.0013793911272788693 1.2000000002779947 0.0000000000000000 -6.9556815042838807 
3000.0000000000000 9000.0000000000000 -500.00000000000000 -7242010.1413441170 15708809.533923607 -12263401.089100789 -5.6584637048381968e-05 -0.00079465448489242547 -0.0020274439545892964 1.4000000003606969 -0.50000000010374690 -7.0219986571681829 
3000.0000000000000 10000.000000000000 -500.00000000000000 -7242010.1415204741 15708809.533346485 -12263401.089314425 -2.7859319794435045e-05 -0.00042990362970931641 -0.0020179023644968392 1.4000000003598505 0.0000000000000000 -7.0219986571531461 
4000.0000000000000 10000.000000000000 -500.00000000000000 -7242010.1440137131 15708809.532611044 -12263401.090476822 -2.6901752519010564e-05 -0.00042203985914172361 -0.0010832815448723412 1.2000000003491642 0.0000000000000000 -7.0219986577135192 
3000.0000000000000 9000.0000000000000 -333.33333333330000 -6089135.4322508154 16861684.243670300 -8175936.2112870188 -6.7112484185905525e-05 -0.00058969381245264029 -0.0014827308686813602 1.4000000004473454 -0.50000000011646606 -7.0733989783723379 
3000.0000000000000 10000.000000000000 -333.33333333330000 -6089135.4324389501 16861684.242982406 -8175936.2114427267 -3.3357417597955719e-05 -0.00031782106416941471 -0.0014751649482239086 1.4000000004463118 0.0000000000000000 -7.0733989783573126 
4000.0000000000000 10000.000000000000 -333.33333333330000 -6089135.4352817843 16861684.242265750 -8175936.2122268612 -3.1576516940567525e-05 -0.00031170368113805599 -0.00075613234291317720 1.2000000004234115 0.0000000000000000 -7.0733989789184415 
3000.0000000000000 9000.0000000000000 -166.66666666670000 -4936157.4987670155 18014662.177834276 -4088105.3555976786 -7.9719443121394857e-05 -0.00034599973968509013 -0.00084704080660918794 1.4000000005402136 -0.50000000012677148 -7.1098811317505852 
3000.0000000000000 10000.000000000000 -166.66666666670000 -4936157.4989673905 18014662.177022662 -4088105.3556837221 -3.9965288248918767e-05 -0.00018544931015714041 -0.00084210851987154029 1.4000000005389472 0.0000000000000000 -7.1098811317351682 
4000.0000000000000 10000.000000000000 -166.66666666670000 -4936157.5021453816 18014662.176334038 -4088105.3560724021 -3.6973488035946955e-05 -0.00018171994906245390 -0.00040251105631183701 1.2000000005008036 0.0000000000000000 -7.1098811322952020 
3000.0000000000000 9000.0000000000000 0.0000000000000000 -4359642.7247749474 18591176.952174291 -2044098.4291867730 -8.6572283337886150e-05 -0.00021392362794297966 -0.00050618611167515290 1.4000000006395745 -0.50000000013437396 -7.1314437815798906 
3000.0000000000000 10000.000000000000 0.0000000000000000 -4359642.7249815837 18591176.951297462 -2044098.4292350281 -4.3560349492660889e-05 -0.00011392093252273600 -0.00050276259890335532 1.4000000006380267 0.0000000000000000 -7.1314437815636094 
4000.0000000000000 10000.000000000000 0.0000000000000000 -4359642.7283218149 18591176.950625464 -2044098.4294222067 -3.9861669042186822e-05 -0.00011156579212736046 -0.00021974484104430580 1.2000000005813873 0.0000000000000000 -7.1314437821208125 
10000.000000000000 8000.0000000000000 -1333.3333333329999 -13004835.645150142 9945984.0279439427 -32695236.959100749 -2.0740316831501604e-05 -0.0020333046727518513 0.00019602428391669456 0.0000000000000000 -1.0000000000353908 -6.5412712773528359 
10000.000000000000 7000.0000000000000 -1333.3333333329999 -13004835.644888461 9945984.0283380076 -32695236.958008777 -3.5526748819143592e-05 -0.0017334972222133314 0.00013524790992782036 0.0000000000000000 -1.5000000000600218 -6.5412712775973363 
10000.000000000000 8000.0000000000000 -1500.0000000000000 -14157091.201301966 8793728.4706023224 -36780506.658610731 -1.8821823656158917e-05 -0.0020916508293717826 0.00020460166585656303 0.0000000000000000 -0.99999999998641564 -6.4003899926704912 
10000.000000000000 7000.0000000000000 -1500.0000000000000 -14157091.201083869 8793728.4708511941 -36780506.657593220 -3.2671237595963608e-05 -0.0017467750052071974 0.00014214208812929487 0.0000000000000000 -1.4999999999818581 -6.4003899929194796 
10000.000000000000 8000.0000000000000 -1166.6666666670001 -11852476.919947952 11098342.754321491 -28609601.478460398 -2.3109438477676587e-05 -0.0019478060279747357 0.00018508741185897952 0.0000000000000000 -1.0000000000827760 -6.6672424060313702 
10000.000000000000 7000.0000000000000 -1166.6666666670001 -11852476.919647114 11098342.754893448 -28609601.477341212 -3.9025218799603442e-05 -0.0016972328534978825 0.00012669234602923665 0.0000000000000000 -1.5000000001369700 -6.6672424062714466 
10000.000000000000 8000.0000000000000 -1000.0000000000000 -10700015.016448144 12250804.658978654 -24523600.183907062 -2.6194670937610998e-05 -0.0018303390267327842 0.00017146876058988080 0.0000000000000000 -1.0000000001282885 -6.7783020437029702 
10000.000000000000 7000.0000000000000 -1000.0000000000000 -10700015.016112134 12250804.659766380 -24523600.182807300 -4.3594956342870634e-05 -0.0016314780746045396 0.00011632298257473549 0.0000000000000000 -1.5000000002123997 -6.7783020439389130 
10000.000000000000 8000.0000000000000 -833.33333333329995 -9547449.9254067577 13403369.751155440 -20437233.042669922 -3.0282814707220041e-05 -0.0016755390622263859 0.00015476933940533001 0.0000000000000000 -1.0000000001716236 -6.8744488552424281 
10000.000000000000 7000.0000000000000 -833.33333333329995 -9547449.9250392858 13403369.752202084 -20437233.041636050 -4.9714142790688770e-05 -0.0015288660039326702 0.00010394988978312773 0.0000000000000000 -1.5000000002859801 -6.8744488554747623 
10000.000000000000 8000.0000000000000 -666.66666666670005 -8394781.6375802457 14556038.040090924 -16350500.021979842 -3.5680474884730732e-05 -0.0014774096966204207 0.00013453199698651170 0.0000000000000000 -1.0000000002124509 -6.9556815054060559 
10000.000000000000 7000.0000000000000 -666.66666666670005 -8394781.6371847913 14556038.041445119 -16350500.021058101 -5.7912461865151726e-05 -0.0013810765562144731 8.9351769882603597e-05 0.0000000000000000 -1.5000000003573437 -6.9556815056355425 
10000.000000000000 8000.0000000000000 -500.00000000000000 -7242010.1437227707 15708809.535025824 -12263401.089059900 -4.2714760667152725e-05 -0.0012292931954063259 0.00011024228579004310 0.0000000000000000 -1.0000000002504075 -7.0219986588304781 
10000.000000000000 7000.0000000000000 -500.00000000000000 -7242010.1433025161 15708809.536742005 -12263401.088295856 -6.8774267363639572e-05 -0.0011787951461873555 7.2283427663611988e-05 0.0000000000000000 -1.5000000004260785 -7.0219986590581192 
10000.000000000000 8000.0000000000000 -333.33333333330000 -6089135.4345891690 16861684.245199371 -8175936.2111360608 -5.1730612336469298e-05 -0.00092391124052670719 8.1288613313541526e-05 0.0000000000000000 -1.0000000002850906 -7.0733989800325547 
10000.000000000000 7000.0000000000000 -333.33333333330000 -6089135.4341471530 16861684.247337900 -8175936.2105749585 -8.2948063679224131e-05 -0.00091172190875584899 5.2405143899713411e-05 0.0000000000000000 -1.5000000004917180 -7.0733989802595936 
10000.000000000000 8000.0000000000000 -166.66666666670000 -4936157.5009340644 18014662.179850027 -4088105.3554341416 -6.3098988666219786e-05 -0.00055330855408409650 4.6940486540376748e-05 0.0000000000000000 -1.0000000003160534 -7.1098811334095648 
10000.000000000000 7000.0000000000000 -166.66666666670000 -4936157.5004731510 18014662.182477497 -4088105.3551205238 -0.00010116673218373113 -0.00056851060153312002 2.9262068841125256e-05 0.0000000000000000 -1.5000000005537322 -7.1098811336374954 
10000.000000000000 8000.0000000000000 0.0000000000000000 -4359642.7268203832 18591176.954449456 -2044098.4290416404 -6.9419838384414525e-05 -0.00035066103142276060 2.8319039983664292e-05 0.0000000000000000 -1.0000000003427982 -7.1314437832392308 
10000.000000000000 7000.0000000000000 0.0000000000000000 -4359642.7263507070 18591176.957338855 -2044098.4288627694 -0.00011138487074985204 -0.00037638378350812328 1.6812743084264586e-05 0.0000000000000000 -1.5000000006115179 -7.1314437834697975 
8000.0000000000000 10000.000000000000 -1333.3333333329999 -13004835.645700682 9945984.0271556769 -32695236.960769579 -7.7462603676705407e-06 -0.00073435382057538334 0.00070662505841256017 0.40000000001358571 0.0000000000000000 -6.5412712771763708 
8000.0000000000000 10000.000000000000 -1500.0000000000000 -14157091.201761194 8793728.4700117391 -36780506.660251789 -5.5870935418497109e-06 -0.00076181621170497398 0.00072911242235513174 0.39999999999537605 0.0000000000000000 -6.4003899924876890 
8000.0000000000000 10000.000000000000 -1166.6666666670001 -11852476.920595344 11098342.753307583 -28609601.480103295 -1.0146664954026599e-05 -0.00069684639629537368 0.00067531269425090824 0.40000000003120328 0.0000000000000000 -6.6672424058608577 
8000.0000000000000 10000.000000000000 -1000.0000000000000 -10700015.017199477 12250804.657706521 -24523600.185470846 -1.2880942850907561e-05 -0.00064800581003896169 0.00063347206464242883 0.40000000004813580 0.0000000000000000 -6.7783020435377699 
8000.0000000000000 10000.000000000000 -833.33333333329995 -9547449.9262708072 13403369.749587644 -20437233.044102393 -1.6046520204480202e-05 -0.00058639963189183837 0.00057915340388593793 0.40000000006428282 0.0000000000000000 -6.8744488550816376 
8000.0000000000000 10000.000000000000 -666.66666666670005 -8394781.6385674160 14556038.038185157 -16350500.023229467 -1.9744607037601890e-05 -0.00051048320701707595 0.00051014634479111022 0.40000000007953346 0.0000000000000000 -6.9556815052485117 
8000.0000000000000 10000.000000000000 -500.00000000000000 -7242010.1448451411 15708809.532734778 -12263401.090075916 -2.4077387113874691e-05 -0.00041857499449915675 0.00042395382034365382 0.40000000009376457 0.0000000000000000 -7.0219986586747565 
8000.0000000000000 10000.000000000000 -333.33333333330000 -6089135.4358606478 16861684.242470529 -8175936.2118688859 -2.9144917935916274e-05 -0.00030887814585544790 0.00031778825205704803 0.40000000010683745 0.0000000000000000 -7.0733989798769645 
8000.0000000000000 10000.000000000000 -166.66666666670000 -4936157.5023703538 18014662.176625680 -4088105.3558350708 -3.5043198885379801e-05 -0.00017948855879209365 0.00018857822209272573 0.40000000011859571 0.0000000000000000 -7.1098811332521521 
8000.0000000000000 10000.000000000000 0.0000000000000000 -4359642.7283432195 18591176.950962283 -2044098.4292645161 -3.8211721761312057e-05 -0.00010962400381024505 0.00011780939695364611 0.40000000012886205 0.0000000000000000 -7.1314437830777768 
7.4168059059999997e-30 6000.0000000000000 -1333.3333333329999 -13004835.641388973 9945984.0315648522 -32695236.945628423 3.6145062041960206e-05 -0.00056319476161401224 -0.0020404100016870011 2.0000000000000000 -2.0000000000719620 -6.5412712750760953 
2.1239035100000000e-29 6000.0000000000000 -1500.0000000000000 -14157091.198901068 8793728.4740159176 -36780506.644263171 4.5043469468838108e-05 -0.00048994068626454423 -0.0020347527936043636 2.0000000000000000 -1.9999999999672509 -6.4003899904511101 
7.7539334480000000e-30 6000.0000000000000 -1166.6666666670001 -11852476.914734704 11098342.758235889 -28609601.465987183 2.6412313276250790e-05 -0.00062998089337824631 -0.0020136271809252570 2.0000000000000000 -2.0000000001767866 -6.6672424037032654 
-2.4273182999999999e-29 6000.0000000000000 -1000.0000000000000 -10700015.009678645 12250804.663281966 -24523600.172577091 1.5998188990512383e-05 -0.00068292756210408252 -0.0019487745337780978 2.0000000000000000 -2.0000000002814673 -6.7783020413303081 
-3.2549488500000001e-29 6000.0000000000000 -833.33333333329995 -9547449.9169615880 13403369.755953230 -20437233.032649044 5.1204946813705126e-06 -0.00071337453630936098 -0.0018391178428275598 2.0000000000000000 -2.0000000003857128 -6.8744488528329422 
0.0000000000000000 6000.0000000000000 -666.66666666670005 -8394781.6273204237 14556038.045500383 -16350500.013455704 -5.9311052118928788e-06 -0.00071129811141099021 -0.0016763634891139988 2.0000000000000000 -2.0000000004891842 -6.9556815029685239 
0.0000000000000000 6000.0000000000000 -500.00000000000000 -7242010.1314839739 15708809.541177511 -12263401.082242232 -1.6801176224509456e-05 -0.00066519491346752767 -0.0014498971222601518 2.0000000000000000 -2.0000000005914846 -7.0219986563748495 
-2.8318713500000002e-29 6000.0000000000000 -333.33333333330000 -6089135.4201739747 16861684.252239116 -8175936.2062580185 -2.7053544988894335e-05 -0.00056197253472848219 -0.0011455951205024961 2.0000000000000000 -2.0000000006921441 -7.0733989775700863 
0.0000000000000000 6000.0000000000000 -166.66666666670000 -4936157.4841022436 18014662.187939987 -4088105.3527593133 -3.6167570901099535e-05 -0.00038696602994810566 -0.00074394848214201113 2.0000000000000000 -2.0000000007906125 -7.1098811309529699 
0.0000000000000000 6000.0000000000000 0.0000000000000000 -4359642.7087142207 18591176.963107079 -2044098.4275389737 -4.0370326212799044e-05 -0.00027958441395074921 -0.00051594620849642974 2.0000000000000000 -2.0000000008862413 -7.1314437808029281 
0.0000000000000000 9000.0000000000000 -1333.3333333329999 -13004835.642140850 9945984.0306261890 -32695236.948419094 2.7020594018667539e-06 -0.0014091974668603029 -0.0021272405155160650 2.0000000000000000 -0.50000000001186595 -6.5412712743686070 
0.0000000000000000 9000.0000000000000 -1500.0000000000000 -14157091.199465632 8793728.4734528158 -36780506.646776266 5.9448104826951734e-06 -0.0014592424506529942 -0.0021463455796997483 2.0000000000000000 -0.49999999999001671 -6.4003899897312033 
0.0000000000000000 9000.0000000000000 -1166.6666666670001 -11852476.915668093 11098342.756827600 -28609601.468923800 -5.7223671335387754e-07 -0.0013398801229339526 -0.0020801827808699771 2.0000000000000000 -0.50000000003260414 -6.6672424030081174 
0.0000000000000000 9000.0000000000000 -1000.0000000000000 -10700015.010789886 12250804.661295313 -24523600.175526008 -3.7881639270370760e-06 -0.0012486728926659235 -0.0019994305199272661 2.0000000000000000 -0.50000000005204726 -6.7783020406467571 
0.0000000000000000 9000.0000000000000 -833.33333333329995 -9547449.9182489440 13403369.753264315 -20437233.035473902 -6.8484661938948228e-06 -0.0011326710917932900 -0.0018778691002761475 2.0000000000000000 -0.50000000006999867 -6.8744488521595590 
0.0000000000000000 9000.0000000000000 -666.66666666670005 -8394781.6287840139 14556038.041969523 -16350500.016017359 -9.6512947449127956e-06 -0.00098869104284040211 -0.0017065066145495751 2.0000000000000000 -0.50000000008624867 -6.9556815023031744 
0.0000000000000000 9000.0000000000000 -500.00000000000000 -7242010.1331258975 15708809.536648419 -12263401.084399398 -1.2092408984434637e-05 -0.00081323166703475098 -0.0014737558742016859 2.0000000000000000 -0.50000000010057011 -7.0219986557146772 
0.0000000000000000 9000.0000000000000 -333.33333333330000 -6089135.4219981171 16861684.246538494 -8175936.2078667358 -1.4074209193968318e-05 -0.00060249384109268287 -0.0011642438422143995 2.0000000000000000 -0.50000000011271672 -7.0733989769114984 
0.0000000000000000 9000.0000000000000 -166.66666666670000 -4936157.4861142151 18014662.180877145 -4088105.3536723331 -1.5534646738680958e-05 -0.00035238267448830612 -0.00075700295392509462 2.0000000000000000 -0.50000000012241919 -7.1098811302916243 
0.0000000000000000 9000.0000000000000 0.0000000000000000 -4359642.7108217198 18591176.955313265 -2044098.4280668674 -1.6130298358712011e-05 -0.00021695204844513421 -0.00052591442547858286 2.0000000000000000 -0.50000000012938162 -7.1314437801337140 
3000.0000000000000 1000.0000000000000 -1333.3333333329999 -13004835.651558340 9945984.0199335702 -32695236.984429456 8.1920781079360141e-05 0.0079421473871209743 -0.0052083992746340541 1.4000000000169459 -4.4999999999885452 -6.5412712828373660 
3000.0000000000000 1000.0000000000000 -1500.0000000000000 -14157091.208069790 8793728.4656967074 -36780506.686141081 9.4968740428799791e-05 0.0080304481557454677 -0.0053473266609702814 1.3999999999538439 -4.4999999999156124 -6.4003899980494001 
3000.0000000000000 1000.0000000000000 -1166.6666666670001 -11852476.926064281 11098342.743003417 -28609601.501470119 6.6009142193113930e-05 0.0077373012724158592 -0.0049945873439538237 1.4000000000844568 -4.5000000000686162 -6.6672424116089406 
3000.0000000000000 1000.0000000000000 -1000.0000000000000 -10700015.022345178 12250804.644130837 -24523600.204441711 4.6962873898888403e-05 0.0073950045386035898 -0.0046964362038576235 1.4000000001569151 -4.5000000001569100 -6.7783020493600423 
3000.0000000000000 1000.0000000000000 -833.33333333329995 -9547449.9311636779 13403369.732532907 -20437233.060534675 2.4566180667584505e-05 0.0068902630485628714 -0.0043027882364759205 1.4000000002349444 -4.5000000002546798 -6.8744488609642929 
3000.0000000000000 1000.0000000000000 -666.66666666670005 -8394781.6432844549 14556038.017421687 -16350500.036940090 -1.2370326048743187e-06 0.0061930940576866685 -0.0038002502401614470 1.4000000003192776 -4.5000000003633760 -6.9556815111766221 
3000.0000000000000 1000.0000000000000 -500.00000000000000 -7242010.1494716424 15708809.508006098 -12263401.100840567 -3.0175614703418051e-05 0.0052673198723358697 -0.0031724200606367821 1.4000000004107993 -4.5000000004846994 -7.0219986646320489 
3000.0000000000000 1000.0000000000000 -333.33333333330000 -6089135.4404919334 16861684.213487882 -8175936.2194212936 -6.1370421800619840e-05 0.0040688799770053569 -0.0023987072850734075 1.4000000005106068 -4.5000000006206564 -7.0733989858455866 
3000.0000000000000 1000.0000000000000 -166.66666666670000 -4936157.5071138032 18014662.143061239 -4088105.3598675113 -9.2844711584503988e-05 0.0025437407791827453 -0.0014526530480974389 1.4000000006201057 -4.5000000007736487 -7.1098811392124404 
3000.0000000000000 1000.0000000000000 0.0000000000000000 -4359642.7331712469 18591176.915019631 -2044098.4314549433 -0.00010831709445866875 0.0016920496228352709 -0.00093280058747820661 1.4000000007411741 -4.5000000009465824 -7.1314437890080162 
10000.000000000000 6000.0000000000000 -1333.3333333329999 -13004835.644859932 9945984.0282582231 -32695236.957344413 -4.6960738959287733e-05 -5.8906281456430165e-06 4.3239993994826997e-05 0.0000000000000000 -2.0000000000840870 -6.5412712780856248 
10000.000000000000 6000.0000000000000 -1500.0000000000000 -14157091.201101201 8793728.4707088433 -36780506.657108471 -4.2633435089876789e-05 9.2048042383146265e-05 4.7705603764449248e-05 0.0000000000000000 -1.9999999999743419 -6.4003899934112232 
10000.000000000000 6000.0000000000000 -1166.6666666670001 -11852476.919578929 11098342.754914194 -28609601.476555988 -5.2184023171675476e-05 -0.00010482046608057994 3.7917471541196819e-05 0.0000000000000000 -2.0000000001942628 -6.6672424067558849 
10000.000000000000 6000.0000000000000 -1000.0000000000000 -10700015.016010053 12250804.659932457 -24523600.181959402 -5.8900985764785807e-05 -0.00019819560080528331 3.1868729421584237e-05 0.0000000000000000 -2.0000000003046949 -6.7783020444193980 
10000.000000000000 6000.0000000000000 -833.33333333329995 -9547449.9249087516 13403369.752565624 -20437233.040783171 -6.7805287707829436e-05 -0.00027836790800905988 2.5294757445743898e-05 0.0000000000000000 -2.0000000004151839 -6.8744488559514823 
10000.000000000000 6000.0000000000000 -666.66666666670005 -8394781.6370309629 14556038.042066157 -16350500.020257302 -7.9697599044261278e-05 -0.00033645553906486094 1.8458618358388821e-05 0.0000000000000000 -2.0000000005254930 -6.9556815061089798 
10000.000000000000 6000.0000000000000 -500.00000000000000 -7242010.1431304524 15708809.537688928 -12263401.087603761 -9.5486116137309690e-05 -0.00036228404529655615 1.1676560936137337e-05 0.0000000000000000 -2.0000000006353331 -7.0219986595290624 
10000.000000000000 6000.0000000000000 -333.33333333330000 -6089135.4339620471 16861684.248687841 -8175936.2100479752 -0.00011620250775949784 -0.00034427223681784405 5.2669688952084193e-06 0.0000000000000000 -2.0000000007443566 -7.0733989807291380 
10000.000000000000 6000.0000000000000 -166.66666666670000 -4936157.5002805283 18014662.184316803 -4088105.3548148023 -0.00014302092299798275 -0.00026940624388396524 -4.2963316236920843e-07 0.0000000000000000 -2.0000000008521397 -7.1098811341070460 
10000.000000000000 6000.0000000000000 0.0000000000000000 -4359642.7261557570 18591176.959445603 -2044098.4286816551 -0.00015811142592790303 -0.00021604483450126676 -3.0523804259330248e-06 0.0000000000000000 -2.0000000009581744 -7.1314437839410800 
10000.000000000000 9000.0000000000000 -1333.3333333329999 -13004835.645408832 9945984.0275063030 -32695236.959986486 -8.7315454077153170e-06 -0.0012877288875745184 0.00022876997362585391 0.0000000000000000 -0.50000000001558553 -6.5412712772527231 
10000.000000000000 9000.0000000000000 -1500.0000000000000 -14157091.201530963 8793728.4702940378 -36780506.659477100 -7.6602153588708710e-06 -0.0013332923172437892 0.00023821321763882060 0.0000000000000000 -0.49999999999228528 -6.4003899925669892 
10000.000000000000 9000.0000000000000 -1166.6666666670001 -11852476.920233665 11098342.753733400 -28609601.479335945 -1.0040964615114827e-05 -0.0012249288373169191 0.00021651193845721248 0.0000000000000000 -0.50000000003785250 -6.6672424059344531 
10000.000000000000 9000.0000000000000 -1000.0000000000000 -10700015.016758503 12250804.658215974 -24523600.184743285 -1.1706262632435327e-05 -0.0011424154421332197 0.00020102141380361183 0.0000000000000000 -0.50000000005892087 -6.7783020436089103 
10000.000000000000 9000.0000000000000 -833.33333333329995 -9547449.9257396646 13403369.750190929 -20437233.043438099 -1.3853171780646505e-05 -0.0010374544518981115 0.00018181299077168469 0.0000000000000000 -0.50000000007861511 -6.8744488551507494 
10000.000000000000 9000.0000000000000 -666.66666666670005 -8394781.6379337907 14556038.038894236 -16350500.022651471 -1.6615217778122090e-05 -0.00090699665908776763 0.00015832856143535305 0.0000000000000000 -0.50000000009674628 -6.9556815053161349 
10000.000000000000 9000.0000000000000 -500.00000000000000 -7242010.1440953314 15708809.533563314 -12263401.089607120 -2.0130069514639689e-05 -0.00074768709117018742 0.00012994275164960884 0.0000000000000000 -0.50000000011310808 -7.0219986587415519 
10000.000000000000 9000.0000000000000 -333.33333333330000 -6089135.4349794127 16861684.243434004 -8175936.2115316745 -2.4538551424850092e-05 -0.00055588095148754969 9.5966076595387160e-05 0.0000000000000000 -0.50000000012747525 -7.0733989799437156 
10000.000000000000 9000.0000000000000 -166.66666666670000 -4936157.5013409620 18014662.177741315 -4088105.3556516888 -2.9990039851869494e-05 -0.00032760487791321473 5.5625965852968849e-05 0.0000000000000000 -0.50000000013959889 -7.1098811333197585 
10000.000000000000 9000.0000000000000 0.0000000000000000 -4359642.7272353880 18591176.952158511 -2044098.4291636371 -3.2996001830859026e-05 -0.00020383178580788547 3.3762934621453709e-05 0.0000000000000000 -0.50000000014920398 -7.1314437831472555 
4000.0000000000000 5000.0000000000000 -1333.3333333329999 -13004835.644420568 9945984.0275860801 -32695236.957786389 -8.5537531920866380e-05 0.0028982052662543979 -0.0025299254357546656 1.2000000000310631 -2.5000000000896745 -6.5412712777779500 
4000.0000000000000 5000.0000000000000 -1500.0000000000000 -14157091.200828489 8793728.4702530485 -36780506.657467909 -6.4306335196305381e-05 0.0031327823207228551 -0.0026765526154113690 1.1999999999719710 -2.4999999999536189 -6.4003899931018235 
4000.0000000000000 5000.0000000000000 -1166.6666666670001 -11852476.919024859 11098342.754064649 -28609601.477046300 -0.00010752566367008725 0.0026195575041138802 -0.0023469327849744972 1.2000000000926816 -2.5000000002289080 -6.6672424064502289 
4000.0000000000000 5000.0000000000000 -1000.0000000000000 -10700015.015402634 12250804.658949111 -24523600.182465747 -0.00013064290422378416 0.0023009267875331784 -0.0021268577677101943 1.2000000001570255 -2.5000000003714082 -6.7783020441158905 
4000.0000000000000 5000.0000000000000 -833.33333333329995 -9547449.9243195094 13403369.751497475 -20437233.041274894 -0.00015539994849166780 0.0019475460027457145 -0.0018692899201269895 1.2000000002242943 -2.5000000005172516 -6.8744488556500851 
4000.0000000000000 5000.0000000000000 -666.66666666670005 -8394781.6365423594 14556038.040968604 -16350500.020705016 -0.00018247988341689423 0.0015659429966176145 -0.0015742934778710136 1.2000000002946865 -2.5000000006664922 -6.9556815058094710 
4000.0000000000000 5000.0000000000000 -500.00000000000000 -7242010.1428366946 15708809.536624787 -12263401.087979505 -0.00021276735159815439 0.0011642383712147076 -0.0012425493165739998 1.2000000003683917 -2.5000000008191461 -7.0219986592310288 
4000.0000000000000 5000.0000000000000 -333.33333333330000 -6089135.4339696635 16861684.247728486 -8175936.2103253575 -0.00024737009161523868 0.00075233110899004829 -0.00087552041487950105 1.2000000004455871 -2.5000000009751742 -7.0733989804319748 
4000.0000000000000 5000.0000000000000 -166.66666666670000 -4936157.5007087830 18014662.183543060 -4088105.3549698992 -0.00028762407229841795 0.00034223969100329819 -0.00047556573177404962 1.2000000005264371 -2.5000000011344685 -7.1098811338099575 
4000.0000000000000 5000.0000000000000 0.0000000000000000 -4359642.7268257681 18591176.958786100 -2044098.4287700597 -0.00030934520815403555 0.00013930542686063779 -0.00026770529063959044 1.2000000006111031 -2.5000000012968369 -7.1314437836430775 
2000.0000000000000 3000.0000000000000 -1333.3333333329999 -13004835.645490289 9945984.0249805786 -32695236.962221619 -4.8676136892570429e-06 0.010489284768422211 -0.0047867266112178583 1.6000000000008257 -3.5000000000434750 -6.5412712791976464 
2000.0000000000000 3000.0000000000000 -1500.0000000000000 -14157091.202579921 8793728.4688465502 -36780506.662706219 1.3955235779344139e-05 0.010837985071315724 -0.0048745302131596707 1.5999999999497847 -3.4999999998890670 -6.4003899945044855 
2000.0000000000000 3000.0000000000000 -1166.6666666670001 -11852476.919351023 11098342.750209587 -28609601.480707336 -2.6056080378786271e-05 0.0099779784953245524 -0.0046253899407138520 1.6000000000562766 -3.5000000002079728 -6.6672424078828936 
2000.0000000000000 3000.0000000000000 -1000.0000000000000 -10700015.014910880 12250804.653798196 -24523600.185386747 -4.9890802967612125e-05 0.0092883141885894485 -0.0043796085010485456 1.6000000001167420 -3.5000000003836971 -6.7783020455576368 
2000.0000000000000 3000.0000000000000 -833.33333333329995 -9547449.9229214117 13403369.745010685 -20437233.043498121 -7.6633243863608773e-05 0.0084032525724195006 -0.0040367856486897427 1.6000000001829022 -3.5000000005718772 -6.8744488570972901 
2000.0000000000000 3000.0000000000000 -666.66666666670005 -8394781.6341335159 14556038.033114960 -16350500.022283984 -0.00010649570284924460 0.0073047261563340465 -0.0035823653723830247 1.6000000002555264 -3.5000000007738303 -6.9556815072588645 
2000.0000000000000 3000.0000000000000 -500.00000000000000 -7242010.1392946122 15708809.527386008 -12263401.088982843 -0.00013960254796701276 0.0059740221496044910 -0.0029996095790297715 1.6000000003354824 -3.5000000009909376 -7.0219986606798139 
2000.0000000000000 3000.0000000000000 -333.33333333330000 -6089135.4291514261 16861684.237103950 -8175936.2108406629 -0.00017594557966026811 0.0043925163250454662 -0.0022692429230523324 1.6000000004237491 -3.5000000012246208 -7.0733989818779870 
2000.0000000000000 3000.0000000000000 -166.66666666670000 -4936157.4944492830 18014662.171555623 -4088105.3551098458 -0.00021532922357580408 0.0025431293880242602 -0.0013693305003907492 1.6000000005214177 -3.5000000014762800 -7.1098811352518609 
2000.0000000000000 3000.0000000000000 0.0000000000000000 -4359642.7198015098 18591176.946126238 -2044098.4287541248 -0.00023574311334953428 0.0015494886456705406 -0.00087408798496519194 1.6000000006296857 -3.5000000017471935 -7.1314437850805996 
10000.000000000000 3000.0000000000000 -1333.3333333329999 -13004835.648754671 9945984.0226017572 -32695236.968399990 1.8695716418966679e-05 0.011381588321890181 -0.00033745360770666091 0.0000000000000000 -3.5000000000444027 -6.5412712817536320 
10000.000000000000 3000.0000000000000 -1500.0000000000000 -14157091.204975950 8793728.4664834179 -36780506.669797279 3.2426790483134385e-05 0.011733906427473489 -0.00033667977368041400 0.0000000000000000 -3.4999999998843050 -6.4003899970409170 
10000.000000000000 3000.0000000000000 -1166.6666666670001 -11852476.923524510 11098342.747794034 -28609601.486037850 2.5514281308389468e-06 0.010853059313990212 -0.00033698592749059533 0.0000000000000000 -3.5000000002151448 -6.6672424104541577 
10000.000000000000 3000.0000000000000 -1000.0000000000000 -10700015.020039394 12250804.651324682 -24523600.189925279 -1.6482559921374649e-05 0.010130463116098309 -0.00033333161212645697 0.0000000000000000 -3.5000000003977068 -6.7783020481401994 
10000.000000000000 3000.0000000000000 -833.33333333329995 -9547449.9290581569 13403369.742457204 -20437233.047289863 -3.9141503578909390e-05 0.0091941735582530045 -0.00032354016120034559 0.0000000000000000 -3.5000000005933880 -6.8744488596873907 
10000.000000000000 3000.0000000000000 -666.66666666670005 -8394781.6413414404 14556038.030458193 -16350500.025360655 -6.6520260619298298e-05 0.0080223870681585228 -0.00030351424723092292 0.0000000000000000 -3.5000000008036389 -6.9556815098528935 
10000.000000000000 3000.0000000000000 -500.00000000000000 -7242010.1476487536 15708809.524601491 -12263401.091357328 -0.00010011914335753532 0.0065908357908455945 -0.00026799294511134595 0.0000000000000000 -3.5000000010300778 -7.0219986632741831 
10000.000000000000 3000.0000000000000 -333.33333333330000 -6089135.4387408830 16861684.234167174 -8175936.2124995720 -0.00014179487752129721 0.0048722354898192710 -0.00021076382360494508 0.0000000000000000 -3.5000000012745138 -7.0733989844689598 
10000.000000000000 3000.0000000000000 -166.66666666670000 -4936157.5053775553 18014662.168445677 -4088105.3560019983 -0.00019351410872039940 0.0028356582983328099 -0.00012545091857308680 0.0000000000000000 -3.5000000015389747 -7.1098811378353250 
10000.000000000000 3000.0000000000000 0.0000000000000000 -4359642.7314268053 18591176.942925267 -2044098.4292444927 -0.00022212487171112321 0.0017337764653702051 -7.5003122013724862e-05 0.0000000000000000 -3.5000000018257058 -7.1314437876517971 
10000.000000000000 2000.0000000000000 -1333.3333333329999 -13004835.651447264 9945984.0201591626 -32695236.978609636 5.0321901080406506e-05 0.012013134421068664 -0.00041177661780688468 0.0000000000000000 -4.0000000000001901 -6.5412712834512670 
10000.000000000000 2000.0000000000000 -1500.0000000000000 -14157091.207565401 8793728.4650594518 -36780506.680704050 6.2475591509996394e-05 0.012218016749903721 -0.00040904755749410091 0.0000000000000000 -3.9999999998684421 -6.4003899986944930 
10000.000000000000 2000.0000000000000 -1166.6666666670001 -11852476.926332135 11098342.744207291 -28609601.495451026 3.5746897542160101e-05 0.011622673449865470 -0.00041193812685553631 0.0000000000000000 -4.0000000001431779 -6.6672424121911460 
10000.000000000000 2000.0000000000000 -1000.0000000000000 -10700015.022975571 12250804.646451686 -24523600.198430024 1.8564698820692916e-05 0.011019120206614136 -0.00040722554102430586 0.0000000000000000 -4.0000000002988818 -6.7783020499111792 
10000.000000000000 2000.0000000000000 -833.33333333329995 -9547449.9321392570 13403369.736136474 -20437233.054762479 -1.4893234510819131e-06 0.010170799380477999 -0.00039410090436446064 0.0000000000000000 -4.0000000004689715 -6.8744488614862878 
10000.000000000000 2000.0000000000000 -666.66666666670005 -8394781.6445884723 14556038.022505192 -16350500.031667266 -2.4803082591434810e-05 0.0090410067843552013 -0.00036754164475764721 0.0000000000000000 -4.0000000006553416 -6.9556815116728572 
10000.000000000000 2000.0000000000000 -500.00000000000000 -7242010.1510895696 15708809.514803907 -12263401.096355472 -5.1896951902932860e-05 0.0075871624330176995 -0.00032094180779137344 0.0000000000000000 -4.0000000008601599 -7.0219986651075477 
10000.000000000000 2000.0000000000000 -333.33333333330000 -6089135.4424125934 16861684.222278908 -8175936.2160389973 -8.3381003394389472e-05 0.0057593408715188709 -0.00024633902687440742 0.0000000000000000 -4.0000000010859260 -7.0733989863071827 
10000.000000000000 2000.0000000000000 -166.66666666670000 -4936157.5093288068 18014662.154178992 -4088105.3579241359 -0.00011977238539456842 0.0034983639902551474 -0.00013572319955462513 0.0000000000000000 -4.0000000013355592 -7.1098811396689090 
10000.000000000000 2000.0000000000000 0.0000000000000000 -4359642.7355315760 18591176.927391667 -2044098.4303172654 -0.00013924431204491477 0.0022515682059150556 -7.0473481413315287e-05 0.0000000000000000 -4.0000000016125110 -7.1314437894702030 
0.0000000000000000 1000.0000000000000 -1333.3333333329999 -13004835.649792911 9945984.0224393550 -32695236.974814262 -4.6815399908457022e-05 0.0077847370614721433 -0.0013567243867524839 2.0000000000000000 -4.4999999999873816 -6.5412712814556020 
0.0000000000000000 2000.0000000000000 -1333.3333333329999 -13004835.647535335 9945984.0239961147 -32695236.965673622 -5.1251505854232079e-05 0.011724977256087685 -0.0012780022554975509 2.0000000000000000 -4.0000000000034674 -6.5412712801565300 
0.0000000000000000 1000.0000000000000 -1500.0000000000000 -14157091.207199518 8793728.4680908136 -36780506.676065236 -4.7896297263869624e-05 0.0078607394115907999 -0.0013546247170483146 2.0000000000000000 -4.4999999999148876 -6.4003899967106772 
0.0000000000000000 2000.0000000000000 -1500.0000000000000 -14157091.205042085 8793728.4687995650 -36780506.666520342 -5.5816055320697339e-05 0.011940440553870410 -0.0012460202354192713 2.0000000000000000 -3.9999999998758549 -6.4003899954551846 
0.0000000000000000 1000.0000000000000 -1166.6666666670001 -11852476.923273230 11098342.745629277 -28609601.492417909 -4.5034839452826339e-05 0.0075928825437110090 -0.0013344027635518536 2.0000000000000000 -4.5000000000669651 -6.6672424101873595 
0.0000000000000000 2000.0000000000000 -1166.6666666670001 -11852476.920907030 11098342.748168524 -28609601.483784482 -4.5552237725738509e-05 0.011331022732208006 -0.0012829337090880374 2.0000000000000000 -4.0000000001418412 -6.6672424088477547 
0.0000000000000000 1000.0000000000000 -1000.0000000000000 -10700015.018379090 12250804.646884590 -24523600.196077809 -4.2499878128484520e-05 0.0072642863595337856 -0.0012833298427916320 2.0000000000000000 -4.5000000001547180 -6.7783020479025788 
0.0000000000000000 2000.0000000000000 -1000.0000000000000 -10700015.015895318 12250804.650564510 -24523600.188076496 -3.8796275166866166e-05 0.010732320071729372 -0.0012558234337203562 2.0000000000000000 -4.0000000002924256 -6.7783020465262771 
0.0000000000000000 1000.0000000000000 -833.33333333329995 -9547449.9258524254 13403369.735421661 -20437233.053009689 -3.9220305414576076e-05 0.0067739838096855468 -0.0011986349906241024 2.0000000000000000 -4.5000000002518821 -6.8744488594757511 
0.0000000000000000 2000.0000000000000 -833.33333333329995 -9547449.9232409354 13403369.740428934 -20437233.045788843 -3.1002586161319141e-05 0.0098984787322808944 -0.0011911161985244047 2.0000000000000000 -4.0000000004568577 -6.8744488580675336 
0.0000000000000000 1000.0000000000000 -666.66666666670005 -8394781.6364358608 14556038.020451527 -16350500.030432228 -3.5337298097572055e-05 0.0060919193324973590 -0.0010751228124380996 2.0000000000000000 -4.5000000003598917 -6.9556815096628375 
0.0000000000000000 2000.0000000000000 -666.66666666670005 -8394781.6336842012 14556038.027007367 -16350500.024164867 -2.1999736794887574e-05 0.0087940692974605387 -0.0010829478694342671 2.0000000000000000 -4.0000000006369980 -6.9556815082286070 
0.0000000000000000 1000.0000000000000 -500.00000000000000 -7242010.1408707919 15708809.511181654 -12263401.095557157 -3.1265874550055028e-05 0.0051820302641815081 -0.00090771224918455122 2.0000000000000000 -4.5000000004804015 -7.0219986631000699 
0.0000000000000000 2000.0000000000000 -500.00000000000000 -7242010.1379624475 15708809.519549543 -12263401.090441447 -1.1178543749063374e-05 0.0073777127914447585 -0.00092561996981125358 2.0000000000000000 -4.0000000008349836 -7.0219986616470340 
0.0000000000000000 1000.0000000000000 -333.33333333330000 -6089135.4299018867 16861684.216811351 -8175936.2156000938 -2.7903542551464025e-05 0.0040009059162470642 -0.00069216766401046124 2.0000000000000000 -4.5000000006153345 -7.0733989843038669 
0.0000000000000000 2000.0000000000000 -333.33333333330000 -6089135.4268134739 16861684.227307163 -8175936.2118586395 2.9588943715495810e-06 0.0056005805697531205 -0.00071432138028653096 2.0000000000000000 -4.0000000010532890 -7.0733989828407253 
0.0000000000000000 1000.0000000000000 -166.66666666670000 -4936157.4942774028 18014662.146531422 -4088105.3577741603 -2.7109053418511538e-05 0.0024961838227576462 -0.00042636236547206446 2.0000000000000000 -4.5000000007669216 -7.1098811376709996 
0.0000000000000000 2000.0000000000000 -166.66666666670000 -4936157.4909777381 18014662.159533542 -4088105.3556632111 2.3565053681413521e-05 0.0034045105735167514 -0.00044639799949170150 2.0000000000000000 -4.0000000012948362 -7.1098811362081165 
0.0000000000000000 1000.0000000000000 0.0000000000000000 -4359642.7191449888 18591176.918562405 -2044098.4302950660 -2.7668511737279993e-05 0.0016557724514251111 -0.00028081169526239063 2.0000000000000000 -4.5000000009377228 -7.1314437874785410 
0.0000000000000000 2000.0000000000000 0.0000000000000000 -4359642.7157310350 18591176.932920620 -2044098.4290688997 3.6011647409874643e-05 0.0021938358843519483 -0.00029813293583072823 2.0000000000000000 -4.0000000015631327 -7.1314437860282682 
4000.0000000000000 7.4168059059999997e-30 -1333.3333333329999 -13004835.653577009 9945984.0186318345 -32695236.991274595 2.8511434491872208e-05 0.0044341987052935626 -0.0030453328618677113 1.2000000000304978 -5.0000000000000000 -6.5412712840081966 
4000.0000000000000 2.1239035100000000e-29 -1500.0000000000000 -14157091.209706377 8793728.4647550900 -36780506.693413883 3.3255860430447831e-05 0.0044487477319976113 -0.0031749420109796226 1.1999999999681668 -5.0000000000000000 -6.4003899991885076 
4000.0000000000000 2.3261800339999999e-29 -1166.6666666670001 -11852476.928501617 11098342.741274847 -28609601.507823419 2.2906950738754994e-05 0.0043537825636872649 -0.0028710027337243964 1.2000000000956648 -5.0000000000000000 -6.6672424128087417 
4000.0000000000000 -2.4273182999999999e-29 -1000.0000000000000 -10700015.025243727 12250804.641895298 -24523600.210228287 1.6341390077796600e-05 0.0041941743402839548 -0.0026494543512485956 1.2000000001639042 -5.0000000000000000 -6.7783020505855776 
4000.0000000000000 -4.5191771299999999e-29 -833.33333333329995 -9547449.9345744587 13403369.729693569 -20437233.065668516 8.7584387037906377e-06 0.0039391633796812186 -0.0023778392120676235 1.2000000002354820 -5.0000000000000000 -6.8744488622117510 
4000.0000000000000 0.0000000000000000 -666.66666666670005 -8394781.6472705435 14556038.013860986 -16350500.041323651 2.3142745271170088e-07 0.0035690010948280361 -0.0020527253053086378 1.2000000003107039 -5.0000000000000000 -6.9556815124414868 
4000.0000000000000 -1.8204887200000001e-29 -500.00000000000000 -7242010.1541133644 15708809.503580645 -12263401.104364425 -8.8922629665638098e-06 0.0030597995458606581 -0.0016697348314413628 1.2000000003899236 -5.0000000000000000 -7.0219986659089697 
4000.0000000000000 0.0000000000000000 -333.33333333330000 -6089135.4458942134 16861684.208021972 -8175936.2219643155 -1.7726087602660080e-05 0.0023826705213693300 -0.0012229727744117744 1.2000000004735554 -5.0000000000000000 -7.0733989871282148 
4000.0000000000000 -1.9553397400000001e-29 -166.66666666670000 -4936157.5134162549 18014662.136338729 -4088105.3612972386 -2.4389654141351600e-05 0.0015030217512196275 -0.00070441145583409221 1.2000000005620801 -5.0000000000000000 -7.1098811404932398 
4000.0000000000000 0.0000000000000000 0.0000000000000000 -4359642.7399637401 18591176.907609176 -2044098.4322934949 -2.6864219239396981e-05 0.0010078794495117806 -0.00042602180268412409 1.2000000006560350 -5.0000000000000000 -7.1314437902780750 
3000.0000000000000 -3.7084029499999999e-30 -1333.3333333329999 -13004835.652521681 9945984.0194265693 -32695236.988238916 5.4181857992616396e-05 0.0046348102106938474 -0.0051108174549202075 1.4000000000145891 -5.0000000000000000 -6.5412712833502260 
3000.0000000000000 -1.0619517500000000e-29 -1500.0000000000000 -14157091.208987843 8793728.4655271564 -36780506.690077081 5.9501697018098091e-05 0.0046635151852712740 -0.0052341353987313544 1.3999999999513677 -5.0000000000000000 -6.4003899985439690 
3000.0000000000000 -1.1630900200000000e-29 -1166.6666666670001 -11852476.927076155 11098342.742098555 -28609601.505108383 4.7431907979090962e-05 0.0045395528299024849 -0.0049120892231347473 1.4000000000822659 -5.0000000000000000 -6.6672424121390907 
3000.0000000000000 1.2136591479999999e-29 -1000.0000000000000 -10700015.023409061 12250804.642755870 -24523600.207853474 3.9056314281673237e-05 0.0043644801176943625 -0.0046281913286145707 1.4000000001549469 -5.0000000000000000 -6.7783020499061424 
3000.0000000000000 2.2595885659999999e-29 -833.33333333329995 -9547449.9322835319 13403369.730601102 -20437233.063652322 2.8932354323513509e-05 0.0040934797300320926 -0.0042476343665189716 1.4000000002332618 -5.0000000000000000 -6.8744488615245869 
3000.0000000000000 0.0000000000000000 -666.66666666670005 -8394781.6444651503 14556038.014828380 -16350500.039682018 1.7155673398721405e-05 0.0037068657880743243 -0.0037567749966513062 1.4000000003179425 -5.0000000000000000 -6.9556815117488275 
3000.0000000000000 9.1024436120000003e-30 -500.00000000000000 -7242010.1507197311 15708809.504624022 -12263401.103109639 4.3057323008279993e-06 0.0031804303123611063 -0.0031392269917307194 1.4000000004098483 -5.0000000000000000 -7.0219986652132347 
3000.0000000000000 0.0000000000000000 -333.33333333330000 -6089135.4418168636 16861684.209160838 -8175936.2211033627 -8.0448898175520059e-06 0.0024840152085795313 -0.0023749855164109661 1.4000000005099997 -5.0000000000000000 -7.0733989864320277 
3000.0000000000000 9.7766986949999993e-30 -166.66666666670000 -4936157.5085300263 18014662.137594946 -4088105.3608309655 -1.6419636482022469e-05 0.0015797386083437593 -0.0014393777784308427 1.4000000006196276 -5.0000000000000000 -7.1098811397994384 
3000.0000000000000 0.0000000000000000 0.0000000000000000 -4359642.7346375193 18591176.908929706 -2044098.4320240114 -1.9023138046161776e-05 0.0010703546001480709 -0.00092531617658469546 1.4000000007402398 -5.0000000000000000 -7.1314437895896932 
0.0000000000000000 10000.000000000000 -1333.3333333329999 -13004835.642259073 9945984.0304355025 -32695236.948768009 6.5472175376252276e-07 -0.00077209074912674069 -0.0021272517074595976 2.0000000000000000 0.0000000000000000 -6.5412712743518950 
0.0000000000000000 10000.000000000000 -1500.0000000000000 -14157091.199568314 8793728.4733148031 -36780506.647123039 2.3816830753538354e-06 -0.00080130644291400376 -0.0021470527827817756 2.0000000000000000 0.0000000000000000 -6.4003899897131804 
0.0000000000000000 10000.000000000000 -1166.6666666670001 -11852476.915801328 11098342.756576903 -28609601.469264910 -1.0662270224818864e-06 -0.00073228942076770638 -0.0020798746830497528 2.0000000000000000 0.0000000000000000 -6.6672424029925974 
0.0000000000000000 10000.000000000000 -1000.0000000000000 -10700015.010937717 12250804.660976330 -24523600.175849266 -2.7270364594712410e-06 -0.00068059208398171215 -0.0019991552203336219 2.0000000000000000 0.0000000000000000 -6.7783020406322612 
0.0000000000000000 10000.000000000000 -833.33333333329995 -9547449.9184110612 13403369.752867810 -20437233.035769239 -4.2685392229719246e-06 -0.00061555506136777224 -0.0018778859298488047 2.0000000000000000 0.0000000000000000 -6.8744488521458775 
0.0000000000000000 10000.000000000000 -666.66666666670005 -8394781.6289602071 14556038.041485317 -16350500.016274676 -5.6291935093408032e-06 -0.00053559603983727156 -0.0017069733991324425 2.0000000000000000 0.0000000000000000 -6.9556815022900507 
0.0000000000000000 10000.000000000000 -500.00000000000000 -7242010.1333160447 15708809.536065418 -12263401.084608521 -6.7470895416052010e-06 -0.00043900356849160382 -0.0014747121882849219 2.0000000000000000 0.0000000000000000 -7.0219986557018066 
0.0000000000000000 10000.000000000000 -333.33333333330000 -6089135.4222022109 16861684.245844647 -8175936.2080175616 -7.5607688308381115e-06 -0.00032390789847152820 -0.0011655585484348263 2.0000000000000000 0.0000000000000000 -7.0733989768985328 
0.0000000000000000 10000.000000000000 -166.66666666670000 -4936157.4863324203 18014662.180059440 -4088105.3537549195 -8.0300806267610754e-06 -0.00018830375564624335 -0.00075837892423344399 2.0000000000000000 0.0000000000000000 -7.1098811302781755 
0.0000000000000000 10000.000000000000 0.0000000000000000 -4359642.7110470543 18591176.954430252 -2044098.4281128992 -8.1759091515490211e-06 -0.00011511755401884400 -0.00052722441053176263 2.0000000000000000 0.0000000000000000 -7.1314437801193540 
9000.0000000000000 0.0000000000000000 -1333.3333333329999 -13004835.654721271 9945984.0181401558 -32695236.992376223 5.0637906855769450e-05 0.0044355381837562500 -0.00093075554792768881 0.20000000000886792 -5.0000000000000000 -6.5412712852164692 
10000.000000000000 1000.0000000000000 -1333.3333333329999 -13004835.653811688 9945984.0186324250 -32695236.988419648 4.3477834944956955e-05 0.0077538582393216256 -0.00043400779246882345 0.0000000000000000 -4.4999999999834293 -6.5412712847794330 
10000.000000000000 0.0000000000000000 -1333.3333333329999 -13004835.654767133 9945984.0181494206 -32695236.992557187 2.7764844377797643e-05 0.0043604281897904182 -0.00043480802684574195 0.0000000000000000 -5.0000000000000000 -6.5412712852803940 
9000.0000000000000 0.0000000000000000 -1500.0000000000000 -14157091.210697619 8793728.4642249160 -36780506.695037767 5.4877737216143861e-05 0.0044519405185488910 -0.00092259971415127899 0.19999999999649623 -5.0000000000000000 -6.4003900003948209 
10000.000000000000 1000.0000000000000 -1500.0000000000000 -14157091.209815321 8793728.4643919319 -36780506.690952100 4.9887624858336669e-05 0.0078143610529115542 -0.00042838655204342584 0.0000000000000000 -4.4999999999087557 -6.4003899999766167 
10000.000000000000 0.0000000000000000 -1500.0000000000000 -14157091.210719258 8793728.4642451834 -36780506.695223287 3.0739665745912803e-05 0.0043713725219866727 -0.00042766606720706993 0.0000000000000000 -5.0000000000000000 -6.4003900004574108 
9000.0000000000000 0.0000000000000000 -1166.6666666670001 -11852476.929752389 11098342.740810558 -28609601.508485693 4.5134737268904773e-05 0.0043530939953300768 -0.00092880776442245895 0.20000000002156806 -5.0000000000000000 -6.6672424140169619 
10000.000000000000 1000.0000000000000 -1166.6666666670001 -11852476.928821063 11098342.741684416 -28609601.504708789 3.5589049133848107e-05 0.0075748009175001865 -0.00043541389493283758 0.0000000000000000 -4.5000000000654765 -6.6672424135621293 
10000.000000000000 0.0000000000000000 -1166.6666666670001 -11852476.929832190 11098342.740804771 -28609601.508662835 2.4011096371412530e-05 0.0042834187313832602 -0.00043693757876142738 0.0000000000000000 -5.0000000000000000 -6.6672424140822724 
9000.0000000000000 0.0000000000000000 -1000.0000000000000 -10700015.026542788 12250804.641450258 -24523600.210533611 3.8312598525304929e-05 0.0041913629129599434 -0.00091285002819807104 0.20000000003474538 -5.0000000000000000 -6.7783020517921715 
10000.000000000000 1000.0000000000000 -1000.0000000000000 -10700015.025599334 12250804.642772645 -24523600.206998400 2.6206911257988131e-05 0.0072557082763617256 -0.00043012555928439007 0.0000000000000000 -4.5000000001559837 -6.7783020513209271 
10000.000000000000 0.0000000000000000 -1000.0000000000000 -10700015.026670136 12250804.641424669 -24523600.210706681 1.9500586912692789e-05 0.0041270661138271877 -0.00043151290899438345 0.0000000000000000 -5.0000000000000000 -6.7783020518588959 
9000.0000000000000 0.0000000000000000 -833.33333333329995 -9547449.9358502422 13403369.729263000 -20437233.065699026 3.0221087181188884e-05 0.0039343019104522755 -0.00087753576661950706 0.20000000004859966 -5.0000000000000000 -6.8744488634156005 
10000.000000000000 1000.0000000000000 -833.33333333329995 -9547449.9349092208 13403369.731113683 -20437233.062480040 1.5381996821510417e-05 0.0067711298363131696 -0.00041452763501881340 0.0000000000000000 -4.5000000002561915 -6.8744488629297535 
10000.000000000000 0.0000000000000000 -833.33333333329995 -9547449.9360436108 13403369.729212157 -20437233.065866493 1.4340483026698624e-05 0.0038753504724197071 -0.00041496834209553402 0.0000000000000000 -5.0000000000000000 -6.8744488634837264 
9000.0000000000000 0.0000000000000000 -666.66666666670005 -8394781.6484362669 14556038.013443872 -16350500.041161941 2.1119652205457832e-05 0.0035624461151360252 -0.00081572836954715963 0.20000000006339297 -5.0000000000000000 -6.9556815136419621 
10000.000000000000 1000.0000000000000 -666.66666666670005 -8394781.6475179642 14556038.015918149 -16350500.038347151 3.2599399481986229e-06 0.0060908142461026989 -0.00038365719294015889 0.0000000000000000 -4.5000000003675238 -6.9556815131438379 
10000.000000000000 0.0000000000000000 -666.66666666670005 -8394781.6487197783 14556038.013361840 -16350500.041320127 8.7674401645784707e-06 0.0035088744749529758 -0.00038257416411659217 0.0000000000000000 -5.0000000000000000 -6.9556815137114061 
9000.0000000000000 0.0000000000000000 -500.00000000000000 -7242010.1550646899 15708809.503180301 -12263401.104094027 1.1661008855794316e-05 0.0030521939675983317 -0.00071816080012121648 0.20000000007945753 -5.0000000000000000 -7.0219986671059562 
10000.000000000000 1000.0000000000000 -500.00000000000000 -7242010.1541952342 15708809.506392447 -12263401.101784989 -9.8547406030698132e-06 0.0051789126275041709 -0.00033114294147678898 0.0000000000000000 -4.5000000004916121 -7.0219986665984822 
10000.000000000000 0.0000000000000000 -500.00000000000000 -7242010.1554683149 15708809.503061265 -12263401.104235904 3.2242135564909687e-06 0.0030043765415990586 -0.00032845017513721646 0.0000000000000000 -5.0000000000000000 -7.0219986671765247 
9000.0000000000000 0.0000000000000000 -333.33333333330000 -6089135.4465069063 16861684.207646489 -8175936.2216709564 3.1858818441812067e-06 0.0023750165650285081 -0.00057313549168273761 0.20000000009719510 -5.0000000000000000 -7.0733989883221611 
10000.000000000000 1000.0000000000000 -333.33333333330000 -6089135.4457165599 16861684.211734384 -8175936.2199813118 -2.3444030377628060e-05 0.0039928556595732146 -0.00024950471878571476 0.0000000000000000 -4.5000000006303322 -7.0733989878089680 
10000.000000000000 0.0000000000000000 -333.33333333330000 -6089135.4470651932 16861684.207485989 -8175936.2217848767 -1.5759152127061414e-06 0.0023340621054551824 -0.00024593446102725186 0.0000000000000000 -5.0000000000000000 -7.0733989883934960 
9000.0000000000000 0.0000000000000000 -166.66666666670000 -4936157.5135440044 18014662.136001412 -4088105.3610697510 -1.8269493952788771e-06 0.0014966735031098910 -0.00036662034715530847 0.20000000011705690 -5.0000000000000000 -7.1098811416852046 
10000.000000000000 1000.0000000000000 -166.66666666670000 -4936157.5128615834 18014662.141132731 -4088105.3601215128 -3.6722498982178783e-05 0.0024821104119963741 -0.00013166225977555364 0.0000000000000000 -4.5000000007858478 -7.1098811411707139 
10000.000000000000 0.0000000000000000 -166.66666666670000 -4936157.5142911375 18014662.135798957 -4088105.3611372556 -4.6489438024517328e-06 0.0014651574900104614 -0.00012910505342200691 0.0000000000000000 -5.0000000000000000 -7.1098811417567234 
9000.0000000000000 0.0000000000000000 0.0000000000000000 -4359642.7398095783 18591176.907294925 -2044098.4321216529 -3.0693141419850908e-06 0.0010025500848370884 -0.00024610389538827471 0.20000000013948116 -5.0000000000000000 -7.1314437914697670 
10000.000000000000 1000.0000000000000 0.0000000000000000 -4359642.7391876355 18591176.912994042 -2044098.4315753882 -4.3166788130926589e-05 0.0016387233722627763 -6.2905832175503998e-05 0.0000000000000000 -4.5000000009606680 -7.1314437909592803 
10000.000000000000 0.0000000000000000 0.0000000000000000 -4359642.7406591708 18591176.907072090 -2044098.4321603288 -5.6147175774143655e-06 0.00097664420700568607 -6.1492939562125774e-05 0.0000000000000000 -5.0000000000000000 -7.1314437915406170 
0.0000000000000000 0.0000000000000000 -1333.3333333329999 -13004835.650705907 9945984.0219284855 -32695236.978660695 -3.0264098403387578e-05 0.0044747440896107226 -0.0014647877948434499 2.0000000000000000 -5.0000000000000000 -6.5412712819486725 
0.0000000000000000 0.0000000000000000 -1500.0000000000000 -14157091.208067112 8793728.4679146353 -36780506.680037528 -2.9714498992693716e-05 0.0044967589480265861 -0.0014769116412474352 2.0000000000000000 -5.0000000000000000 -6.4003899971846696 
0.0000000000000000 0.0000000000000000 -1166.6666666670001 -11852476.924235318 11098342.744723976 -28609601.496093184 -3.0553367097767932e-05 0.0043873236242767894 -0.0014285576684763277 2.0000000000000000 -5.0000000000000000 -6.6672424106986075 
0.0000000000000000 0.0000000000000000 -1000.0000000000000 -10700015.019394238 12250804.645513289 -24523600.199525543 -3.0504461359403505e-05 0.0042214098098983964 -0.0013641034045300988 2.0000000000000000 -5.0000000000000000 -6.7783020484307670 
0.0000000000000000 0.0000000000000000 -833.33333333329995 -9547449.9269249495 13403369.733498499 -20437233.056160606 -3.0107438965503596e-05 0.0039610829816049808 -0.0012667809296417582 2.0000000000000000 -5.0000000000000000 -6.8744488600192080 
0.0000000000000000 0.0000000000000000 -666.66666666670005 -8394781.6375706084 14556038.017873261 -16350500.033202622 -2.9530595642637393e-05 0.0035867690689042261 -0.0011315238759238432 2.0000000000000000 -5.0000000000000000 -6.9556815102193266 
0.0000000000000000 0.0000000000000000 -500.00000000000000 -7242010.1420735931 15708809.507823549 -12263401.097848415 -2.9371742250562155e-05 0.0030746060705806712 -0.00095315017911976844 2.0000000000000000 -5.0000000000000000 -7.0219986636666505 
0.0000000000000000 0.0000000000000000 -333.33333333330000 -6089135.4311799221 16861684.212522190 -8175936.2172984155 -3.1084109611045862e-05 0.0023956562307400394 -0.00072674188262305942 2.0000000000000000 -5.0000000000000000 -7.0733989848767402 
0.0000000000000000 0.0000000000000000 -166.66666666670000 -4936157.4956375975 18014662.141129293 -4088105.3587450301 -3.7897559324043332e-05 0.0015148221698956220 -0.00044825116872243380 2.0000000000000000 -5.0000000000000000 -7.1098811382453508 
0.0000000000000000 0.0000000000000000 0.0000000000000000 -4359642.7205477376 18591176.912554298 -2044098.4308652878 -4.3134972323706986e-05 0.0010191278248787411 -0.00029555762241221064 2.0000000000000000 -5.0000000000000000 -7.1314437880483021 
9000.0000000000000 10000.000000000000 -1333.3333333329999 -13004835.645566911 9945984.0272772387 -32695236.960439689 -6.2423360125880036e-06 -0.00071962294561760945 0.00043597590476478735 0.20000000000634571 0.0000000000000000 -6.5412712772166657 
9000.0000000000000 10000.000000000000 -1500.0000000000000 -14157091.201664489 8793728.4701199681 -36780506.659928016 -5.1287723455620215e-06 -0.00074686821859698289 0.00045260100922255611 0.19999999999756699 0.0000000000000000 -6.4003899925292478 
9000.0000000000000 10000.000000000000 -1166.6666666670001 -11852476.920417698 11098342.753442196 -28609601.479777932 -7.5506669215081522e-06 -0.00068267250798645666 0.00041395509628961357 0.20000000001474988 0.0000000000000000 -6.6672424058999544 
9000.0000000000000 10000.000000000000 -1000.0000000000000 -10700015.016970288 12250804.657854330 -24523600.185160715 -9.1394855008739007e-06 -0.00063476449111918569 0.00038564352685882829 0.20000000002272625 0.0000000000000000 -6.7783020435757804 
9000.0000000000000 10000.000000000000 -833.33333333329995 -9547449.9259813987 13403369.749749336 -20437233.043817900 -1.1098433178064243e-05 -0.00057450315134815371 0.00035002761740764670 0.20000000003021792 0.0000000000000000 -6.8744488551187333 
9000.0000000000000 10000.000000000000 -666.66666666670005 -8394781.6382080633 14556038.038361995 -16350500.022980744 -1.3521405638150222e-05 -0.00050036174650039985 0.00030595131376381977 0.20000000003716253 0.0000000000000000 -6.9556815052849155 
9000.0000000000000 10000.000000000000 -500.00000000000000 -7242010.1444051731 15708809.532928463 -12263401.089873292 -1.6505294424536812e-05 -0.00041067131618254091 0.00025212486940729263 0.20000000004349092 0.0000000000000000 -7.0219986587107428 
9000.0000000000000 10000.000000000000 -333.33333333330000 -6089135.4353283327 16861684.242683280 -8175936.2117226310 -2.0148667789290984e-05 -0.00030363134606443433 0.00018711532676388750 0.20000000004912610 0.0000000000000000 -7.0733989799128709 
9000.0000000000000 10000.000000000000 -166.66666666670000 -4936157.5017328961 18014662.176860195 -4088105.3557554823 -2.4554724894117547e-05 -0.00017729971457010034 0.00010933281887739386 0.20000000005398158 0.0000000000000000 -7.1098811332883711 
9000.0000000000000 10000.000000000000 0.0000000000000000 -4359642.7276498610 18591176.951208413 -2044098.4292208664 -2.6961843258014551e-05 -0.00010905799140047489 6.7040408277842559e-05 0.20000000005795956 0.0000000000000000 -7.1314437831147552 
5000.0000000000000 10000.000000000000 -1333.3333333329999 -13004835.645436868 9945984.0270426422 -32695236.961392768 -6.2636628441923359e-06 -0.00073660964982913977 -0.00091447977860317884 1.0000000000304334 0.0000000000000000 -6.5412712766236503 
5000.0000000000000 10000.000000000000 -1500.0000000000000 -14157091.201478427 8793728.4699703436 -36780506.660674594 -3.1189627699016116e-06 -0.00076446473098739211 -0.00099969755558645674 0.99999999998017519 0.0000000000000000 -6.4003899919315499 
5000.0000000000000 10000.000000000000 -1166.6666666670001 -11852476.920386843 11098342.753128201 -28609601.480863538 -9.4491107575603994e-06 -0.00069866685061424150 -0.00081587799236297761 1.0000000000817180 0.0000000000000000 -6.6672424053120114 
5000.0000000000000 10000.000000000000 -1000.0000000000000 -10700015.017088559 12250804.657464741 -24523600.186305366 -1.2654095971859394e-05 -0.00064938014182456085 -0.00070601343119571240 1.0000000001340270 0.0000000000000000 -6.7783020429929364 
5000.0000000000000 10000.000000000000 -833.33333333329995 -9547449.9263058603 13403369.749286015 -20437233.044949047 -1.5853113769616055e-05 -0.00058738013501432229 -0.00058750677338282968 1.0000000001873539 0.0000000000000000 -6.8744488545406535 
5000.0000000000000 10000.000000000000 -666.66666666670005 -8394781.6388033181 14556038.037824616 -16350500.024027470 -1.9016757527485332e-05 -0.00051115750078623457 -0.00046346349165311243 1.0000000002416845 0.0000000000000000 -6.9556815047109017 
5000.0000000000000 10000.000000000000 -500.00000000000000 -7242010.1453435514 15708809.532314533 -12263401.090766128 -2.2112676835485818e-05 -0.00041906527383197081 -0.00033739378774048429 1.0000000002969958 0.0000000000000000 -7.0219986581397436 
5000.0000000000000 10000.000000000000 -333.33333333330000 -6089135.4366903212 16861684.241987977 -8175936.2123938808 -2.5107684665028372e-05 -0.00030934776313866323 -0.00021311528079557860 1.0000000003532554 0.0000000000000000 -7.0733989793434784 
5000.0000000000000 10000.000000000000 -166.66666666670000 -4936157.5036078151 18014662.176076092 -4088105.3561398932 -2.7969395891666542e-05 -0.00018012469442126760 -9.4614552213326768e-05 1.0000000004104213 0.0000000000000000 -7.1098811327188249 
5000.0000000000000 10000.000000000000 0.0000000000000000 -4359642.7298047254 18591176.950377725 -2044098.4294458672 -2.9363008091155231e-05 -0.00011039269315277133 -3.7312884417861522e-05 1.0000000004684406 0.0000000000000000 -7.1314437825429406 
10000.000000000000 10000.000000000000 -1333.3333333329999 -13004835.645512361 9945984.0273250025 -32695236.960317664 -3.8455781807855961e-06 -0.00071259026711491952 0.00023873865231039217 0.0000000000000000 0.0000000000000000 -6.5412712772276072 
10000.000000000000 10000.000000000000 -1500.0000000000000 -14157091.201624192 8793728.4701631367 -36780506.659806699 -3.2359991173759209e-06 -0.00073972653667403140 0.00024842582098348913 0.0000000000000000 0.0000000000000000 -6.4003899925406449 
10000.000000000000 10000.000000000000 -1166.6666666670001 -11852476.920346621 11098342.753494509 -28609601.479658842 -4.5762239410620484e-06 -0.00067589874384990601 0.00022608654894882673 0.0000000000000000 0.0000000000000000 -6.6672424059104669 
10000.000000000000 10000.000000000000 -1000.0000000000000 -10700015.016880095 12250804.657911344 -24523600.185048088 -5.4791332912630913e-06 -0.00062840913348700652 0.00021002343002288218 0.0000000000000000 0.0000000000000000 -6.7783020435859136 
10000.000000000000 10000.000000000000 -833.33333333329995 -9547449.9258692339 13403369.749811396 -20437233.043715283 -6.6087211553568039e-06 -0.00056875224198144969 0.00019004703276640883 0.0000000000000000 0.0000000000000000 -6.8744488551285494 
10000.000000000000 10000.000000000000 -666.66666666670005 -8394781.6380707640 14556038.038429642 -16350500.022891644 -8.0237035795311340e-06 -0.00049541440757070582 0.00016556457297418875 0.0000000000000000 0.0000000000000000 -6.9556815052944980 
10000.000000000000 10000.000000000000 -500.00000000000000 -7242010.1442392655 15708809.533002451 -12263401.089801185 -9.7839942590183013e-06 -0.00040673322395239330 0.00013592203012465358 0.0000000000000000 0.0000000000000000 -7.0219986587201957 
10000.000000000000 10000.000000000000 -333.33333333330000 -6089135.4351300243 16861684.242764566 -8175936.2116709705 -1.1952669376816712e-05 -0.00030091531409038441 0.00010041367302909424 0.0000000000000000 0.0000000000000000 -7.0733989799223123 
10000.000000000000 10000.000000000000 -166.66666666670000 -4936157.5014980473 18014662.176949956 -4088105.3557276744 -1.4600435355343068e-05 -0.00017601561262206282 5.8253552312960828e-05 0.0000000000000000 0.0000000000000000 -7.1098811332979412 
10000.000000000000 10000.000000000000 0.0000000000000000 -4359642.7273956677 18591176.951302726 -2044098.4292058374 -1.6053516904911317e-05 -0.00010854230107924322 3.5408115606276922e-05 0.0000000000000000 0.0000000000000000 -7.1314437831246114 
6000.0000000000000 9000.0000000000000 -4833.3333333330002 -37180551.056170486 -14229731.401769863 -118409137.05681629 3.2223717805476665e-05 -0.00016756121708897843 6.4343977826483877e-05 0.79999999937488431 -0.49999999957757890 -0.45368638641359016 
6000.0000000000000 10000.000000000000 -4833.3333333330002 -37180551.055719763 -14229731.401275260 -118409137.05526084 2.2458887666889992e-05 -8.8696694041297529e-05 6.3147528166977910e-05 0.79999999937553290 0.0000000000000000 -0.45368638640789938 
7000.0000000000000 10000.000000000000 -4833.3333333330002 -37180551.056187451 -14229731.402757186 -118409137.06126302 3.2122596304505172e-05 -8.6661982044132499e-05 0.00011464991372441325 0.59999999951419836 0.0000000000000000 -0.45368638643179326 
7000.0000000000000 9000.0000000000000 -4833.3333333330002 -37180551.056654610 -14229731.403233157 -118409137.06278943 6.2640460918865043e-05 -0.00016790932680162092 0.00011572376404342041 0.59999999951320715 -0.49999999957662411 -0.45368638643761244 
6000.0000000000000 9000.0000000000000 -5000.0000000000000 -37755622.369223952 -14804802.714897638 -120448026.25765289 3.1361676059257391e-05 -8.5580355684953811e-05 3.5598161680924095e-05 0.79999999937202915 -0.49999999957570213 0.0000000000000000 
6000.0000000000000 10000.000000000000 -5000.0000000000000 -37755622.368750051 -14804802.714380754 -120448026.25601417 2.2312479410535686e-05 -4.5236905410997558e-05 3.5039736117490918e-05 0.79999999937267674 0.0000000000000000 0.0000000000000000 
7000.0000000000000 10000.000000000000 -5000.0000000000000 -37755622.369289912 -14804802.715940263 -120448026.26229882 3.2134770667398700e-05 -4.4111379139314858e-05 5.9879796557098494e-05 0.59999999951196004 0.0000000000000000 0.0000000000000000 
7000.0000000000000 9000.0000000000000 -5000.0000000000000 -37755622.369779944 -14804802.716436962 -120448026.26390480 6.2564016195375329e-05 -8.5630254257018697e-05 6.0425934935626725e-05 0.59999999951096572 -0.49999999957477426 0.0000000000000000 
6000.0000000000000 9000.0000000000000 -4666.6666666669998 -36030356.940266341 -13079537.285649253 -114331176.10040325 3.4561752648198116e-05 -0.00032454904686945557 0.00010952226178821075 0.79999999938310418 -0.49999999958302593 -0.89249062429898174 
6000.0000000000000 10000.000000000000 -4666.6666666669998 -36030356.939860940 -13079537.285197513 -114331176.09901148 2.2896644014081232e-05 -0.00017222486246737943 0.00010691533998140225 0.79999999938376021 0.0000000000000000 -0.89249062428823733 
7000.0000000000000 10000.000000000000 -4666.6666666669998 -36030356.940195069 -13079537.286529476 -114331176.10446018 3.2065553495532704e-05 -0.00016879074095506211 0.00021455729190224200 0.59999999952067073 0.0000000000000000 -0.89249062433398418 
7000.0000000000000 9000.0000000000000 -4666.6666666669998 -36030356.940616906 -13079537.286965892 -114331176.10583022 6.2759842228453564e-05 -0.00032590069622359013 0.00021662925078468396 0.59999999951968574 -0.49999999958199737 -0.89249062434491233 
6000.0000000000000 9000.0000000000000 -4500.0000000000000 -34880059.840143368 -11929240.185182111 -110252850.01812163 3.7827743327655195e-05 -0.00046804440898984940 0.00013269482591699844 0.79999999939602884 -0.49999999959168756 -1.3164113811679850 
6000.0000000000000 10000.000000000000 -4500.0000000000000 -34880059.839781344 -11929240.184770118 -110252850.01688772 2.3587819427594236e-05 -0.00024924140262540685 0.00012848266472099322 0.79999999939670341 0.0000000000000000 -1.3164113811528062 
7000.0000000000000 10000.000000000000 -4500.0000000000000 -34880059.840003408 -11929240.185962485 -110252850.02180648 3.1913302794710249e-05 -0.00024517463775909968 0.00029637219733464183 0.59999999953090544 0.0000000000000000 -1.3164113812184162 
7000.0000000000000 9000.0000000000000 -4500.0000000000000 -34880059.840380833 -11929240.186362622 -110252850.02302572 6.2703623888026079e-05 -0.00047101555756756214 0.00029929631996227266 0.59999999952992811 -0.49999999959055430 -1.3164113812337861 
6000.0000000000000 9000.0000000000000 -4333.3333333330002 -33729659.746558905 -10778840.091140708 -106174158.77721156 4.1474004935901639e-05 -0.00059891341893885297 0.00013878862741224774 0.79999999941306021 -0.49999999960322988 -1.7254473244048929 
6000.0000000000000 10000.000000000000 -4333.3333333330002 -33729659.746238351 -10778840.090765752 -106174158.77612942 2.4431873873747121e-05 -0.00032022179854318875 0.00013292549833009528 0.79999999941376210 0.0000000000000000 -1.7254473243858763 
7000.0000000000000 10000.000000000000 -4333.3333333330002 -33729659.746369228 -10778840.091828680 -106174158.78054293 3.1610318415188073e-05 -0.00031611533421464885 0.00036247407227824757 0.59999999954445993 0.0000000000000000 -1.7254473244694151 
7000.0000000000000 9000.0000000000000 -4333.3333333330002 -33729659.746703401 -10778840.092195034 -106174158.78161702 6.2299934581113028e-05 -0.00060376052679360424 0.00036605879381857413 0.59999999954349281 -0.49999999960197827 -1.7254473244886026 
6000.0000000000000 9000.0000000000000 -4166.6666666669998 -32579156.650271736 -9628336.9942970444 -102095102.34491289 4.5063232413791885e-05 -0.00071796101837484562 0.00013215420193124361 0.79999999943366107 -0.49999999961733727 -2.1195971212747549 
6000.0000000000000 10000.000000000000 -4166.6666666669998 -32579156.649990760 -9628336.9939566534 -102095102.34397623 2.5297347144836733e-05 -0.00038553748805388228 0.00012473957752682548 0.79999999943439504 0.0000000000000000 -2.1195971212524722 
7000.0000000000000 10000.000000000000 -4166.6666666669998 -32579156.650049992 -9628336.9948998764 -102095102.34791003 3.1113689806716168e-05 -0.00038179240824942043 0.00041528178594337612 0.59999999956092165 0.0000000000000000 -2.1195971213520690 
7000.0000000000000 9000.0000000000000 -4166.6666666669998 -32579156.650342345 -9628336.9952345565 -102095102.34884465 6.1454847379624854e-05 -0.00072466721427662012 0.00041930903533411522 0.59999999955996863 -0.49999999961596731 -2.1195971213744929 
6000.0000000000000 9000.0000000000000 -4000.0000000000000 -31428550.542036559 -8477730.8854175918 -98015680.688447088 4.8268439800667204e-05 -0.00082595661522978018 0.00011656599424443484 0.79999999945735545 -0.49999999963371133 -2.4988594389300762 
6000.0000000000000 10000.000000000000 -4000.0000000000000 -31428550.541793264 -8477730.8851094618 -98015680.687649399 2.6060072542267188e-05 -0.00044549046617475564 0.00010781111724475850 0.79999999945812050 0.0000000000000000 -2.4988594389050713 
7000.0000000000000 10000.000000000000 -4000.0000000000000 -31428550.541798633 -8477730.8859422021 -98015680.691129565 3.0397335991701381e-05 -0.00044234380820463602 0.00045711609751921604 0.59999999957990990 0.0000000000000000 -2.4988594390189269 
7000.0000000000000 9000.0000000000000 -4000.0000000000000 -31428550.542050835 -8477730.8862471096 -98015680.691930518 6.0127890424481383e-05 -0.00083431239391054657 0.00046136497446918294 0.59999999957897687 -0.49999999963223457 -2.4988594390440428 
6000.0000000000000 9000.0000000000000 -3833.3333333330002 -30277841.412614021 -7327021.7552735368 -93935893.775053859 5.0857935813881530e-05 -0.00092364360588694655 9.5245716731105442e-05 0.79999999948371969 -0.49999999965206948 -2.8632329443966387 
6000.0000000000000 10000.000000000000 -3833.3333333330002 -30277841.412406478 -7327021.7549955025 -93935893.774388388 2.6619392003175434e-05 -0.00050034548624496987 8.5423578217888648e-05 0.79999999948451139 0.0000000000000000 -2.8632329443694253 
7000.0000000000000 10000.000000000000 -3833.3333333330002 -30277841.412373856 -7327021.7557264371 -93935893.777441204 2.9451588991626901e-05 -0.00049790754490755377 0.00049012363843825828 0.59999999960107431 0.0000000000000000 -2.8632329444958193 
7000.0000000000000 9000.0000000000000 -3833.3333333330002 -30277841.412587792 -7327021.7560033398 -93935893.778114498 5.8312700554238670e-05 -0.00093331668743012585 0.00049438829658403740 0.59999999960016748 -0.49999999965050496 -2.8632329445231166 
6000.0000000000000 9000.0000000000000 -3666.6666666669998 -29127029.252765290 -6176209.5946354959 -89855741.571972713 5.2676878317796296e-05 -0.0010117240765162238 7.0961948651053654e-05 0.79999999951238199 -0.49999999967214459 -3.2127163045809728 
6000.0000000000000 10000.000000000000 -3666.6666666669998 -29127029.252591558 -6176209.5943855718 -89855741.571432501 2.6898958004573920e-05 -0.00055034085612420979 6.0382104452052834e-05 0.79999999951319167 0.0000000000000000 -3.2127163045520364 
7000.0000000000000 10000.000000000000 -3666.6666666669998 -29127029.252534829 -6176209.5950228395 -89855741.574084252 2.8278271315907931e-05 -0.00054862976625604009 0.00051626301270448881 0.59999999962409556 0.0000000000000000 -3.2127163046893346 
7000.0000000000000 9000.0000000000000 -3666.6666666669998 -29127029.252712552 -6176209.5952733643 -89855741.574636087 5.6024076545348135e-05 -0.0010223233608156535 0.00052035384858086257 0.59999999962322181 -0.49999999967051684 -3.2127163047183376 
6000.0000000000000 9000.0000000000000 -3500.0000000000000 -27976114.053246744 -5025294.3942683320 -85775224.046424687 5.3633058750341973e-05 -0.0010908441327411483 4.6070573289207045e-05 0.79999999954301426 -0.49999999969368414 -3.5473081862762603 
6000.0000000000000 10000.000000000000 -3500.0000000000000 -27976114.053104851 -5025294.3940447746 -85775224.046002552 2.6846830763852730e-05 -0.00059568202990243583 3.5048307118912096e-05 0.79999999954383161 0.0000000000000000 -3.5473081862460547 
7000.0000000000000 10000.000000000000 -3500.0000000000000 -27976114.053035967 -5025294.3945959900 -85775224.048279449 2.6887234929726059e-05 -0.00059465789764027532 0.00053725212116412084 0.59999999964868400 0.0000000000000000 -3.5473081863927103 
7000.0000000000000 9000.0000000000000 -3500.0000000000000 -27976114.053179629 -5025294.3948215581 -85775224.048716277 5.3290480787705424e-05 -0.0011019634952701919 0.00054100409526134188 0.59999999964785022 -0.49999999969202058 -3.5473081864229745 
6000.0000000000000 9000.0000000000000 -3333.3333333330002 -26825095.804820199 -3874276.1449414925 -81694341.165649161 5.3683349595861944e-05 -0.0011615629273931955 2.2545066326380093e-05 0.79999999957532986 -0.49999999971644993 -3.8670072561497508 
6000.0000000000000 10000.000000000000 -3333.3333333330002 -26825095.804708164 -3874276.1447428362 -81694341.165337533 2.6432520566357212e-05 -0.00063653437340536654 1.1375291451188669e-05 0.79999999957614276 0.0000000000000000 -3.8670072561187001 
7000.0000000000000 10000.000000000000 -3333.3333333330002 -26825095.804637153 -3874276.1452151220 -81694341.167265594 2.5292671106394301e-05 -0.00063612529814920083 0.00055454936709421483 0.59999999967457873 0.0000000000000000 -3.8670072562732609 
7000.0000000000000 9000.0000000000000 -3333.3333333330002 -26825095.804749001 -3874276.1454169243 -81694341.167594224 5.0148044096536056e-05 -0.0011728103307551351 0.00055782546489017168 0.59999999967379136 -0.49999999971477965 -3.8670072563043751 
6000.0000000000000 9000.0000000000000 -3166.6666666669998 -25673974.498247646 -2723154.8374238051 -77613092.896885231 5.2818034275588317e-05 -0.0012243321234342575 2.0098425544021770e-06 0.79999999960907830 -0.49999999974021747 -4.1718121807494555 
6000.0000000000000 10000.000000000000 -3166.6666666669998 -25673974.498163521 -2723154.8372489712 -77613092.896676391 2.5641891681918434e-05 -0.00067301394403256217 -9.0488390897317097e-06 0.79999999960987367 0.0000000000000000 -4.1718121807179482 
7000.0000000000000 10000.000000000000 -3166.6666666669998 -25673974.498098545 -2723154.8376489738 -77613092.898281351 2.3510888701593808e-05 -0.00067313416716792819 0.00056934585933382867 0.59999999970154472 0.0000000000000000 -4.1718121808790585 
7000.0000000000000 9000.0000000000000 -3166.6666666669998 -25673974.498180822 -2723154.8378278473 -77613092.898508772 4.6634221643907222e-05 -0.0012353654912904757 0.00057204029196772377 0.59999999970081042 -0.49999999973856990 -4.1718121809106394 
6000.0000000000000 9000.0000000000000 -3000.0000000000000 -24522750.124286000 -1571930.4624782905 -73531479.207353354 5.1051552271259238e-05 -0.0012794746070466693 -1.4219162914237019e-05 0.79999999964404112 -0.49999999976477522 -4.4617216265092248 
6000.0000000000000 10000.000000000000 -3000.0000000000000 -24522750.124227867 -1571930.4623266384 -73531479.207239389 2.4473534703255313e-05 -0.00070518089500906352 -2.4951341128776416e-05 0.79999999964480584 0.0000000000000000 -4.4617216264776154 
7000.0000000000000 10000.000000000000 -3000.0000000000000 -24522750.124175262 -1571930.4626605655 -73531479.208546668 2.1559612921179828e-05 -0.00070574754616499068 0.00058258430389589849 0.59999999972937157 0.0000000000000000 -4.4617216266440192 
7000.0000000000000 9000.0000000000000 -3000.0000000000000 -24522750.124230202 -1571930.4628169383 -73531479.208680138 4.2785208466804790e-05 -0.0012900185287172349 0.00058461734959874118 0.59999999972869589 -0.49999999976317921 -4.4617216266757191 
6000.0000000000000 9000.0000000000000 -2833.3333333330002 -23371422.673697405 -420603.01087257772 -69449500.064292163 4.8418104273843333e-05 -0.0013271607012817596 -2.5146033734570699e-05 0.79999999968002911 -0.49999999978992365 -4.7367342597377791 
6000.0000000000000 10000.000000000000 -2833.3333333330002 -23371422.673663381 -420603.01074394304 -69449500.064264759 2.2936822535931726e-05 -0.00073303044962447954 -3.5394493650190773e-05 0.79999999968075053 0.0000000000000000 -4.7367342597063882 
7000.0000000000000 10000.000000000000 -2833.3333333330002 -23371422.673627749 -420603.01101761800 -69449500.065299690 1.9455638623344232e-05 -0.00073396410210493012 0.00059492435198822387 0.59999999975787155 0.0000000000000000 -4.7367342598769291 
7000.0000000000000 9000.0000000000000 -2833.3333333330002 -23371422.673657548 -420603.01115146396 -69449500.065346852 3.8634684539221629e-05 -0.0013369972532408655 0.00059624987870740716 0.59999999975726004 -0.49999999978840709 -4.7367342599084337 
6000.0000000000000 9000.0000000000000 -2666.6666666669998 -22219992.137244083 730827.52662622987 -65367155.434940070 4.4964155594811908e-05 -0.0013673789503660615 -3.0084541304355708e-05 0.79999999971687796 -0.49999999981547433 -4.9968487466245994 
6000.0000000000000 10000.000000000000 -2666.6666666669998 -22219992.137232363 730827.52673144243 -65367155.434990741 2.1047925177768614e-05 -0.00075647768241150868 -3.9751422844076545e-05 0.79999999971754376 0.0000000000000000 -4.9968487465937104 
7000.0000000000000 10000.000000000000 -2666.6666666669998 -22219992.137216501 730827.52651263145 -65367155.435778208 1.7213004337753802e-05 -0.00075771682218441167 0.00060675951290084149 0.59999999978687646 0.0000000000000000 -4.9968487467673359 
7000.0000000000000 9000.0000000000000 -2666.6666666669998 -22219992.137223281 730827.52640187740 -65367155.435747012 3.4211301444887906e-05 -0.0013763688165225637 0.00060736491928555197 0.59999999978633367 -0.49999999981406335 -4.9968487467983635 
6000.0000000000000 9000.0000000000000 -2500.0000000000000 -21068458.505683064 1882361.1592567286 -61284445.286516741 4.0745124406173057e-05 -0.0013999151105070634 -2.8660755291844293e-05 0.79999999975444580 -0.49999999984124832 -5.2420637532442003 
6000.0000000000000 10000.000000000000 -2500.0000000000000 -21068458.505691923 1882361.1593375057 -61284445.286636755 1.8828483626279029e-05 -0.00077533763470035691 -3.7689036475372538e-05 0.79999999975504388 0.0000000000000000 -5.2420637532140590 
7000.0000000000000 10000.000000000000 -2500.0000000000000 -21068458.505696900 1882361.1591685466 -61284445.287201479 1.4842641649453227e-05 -0.00077683266173804661 0.00061823506666999176 0.59999999981623597 0.0000000000000000 -5.2420637533898207 
7000.0000000000000 9000.0000000000000 -2500.0000000000000 -21068458.505682692 1882361.1590820390 -61284445.287100159 2.9537486463950101e-05 -0.0014079908753698322 0.00061813180502224977 0.59999999981576657 -0.49999999983996724 -5.2420637534201271 
6000.0000000000000 9000.0000000000000 -2333.3333333330002 -19916821.769776575 3033997.8962527532 -57201369.586259969 3.5824013990548548e-05 -0.0014243478730711161 -2.0810558080086591e-05 0.79999999979260850 -0.49999999986707477 -5.4723779455467740 
6000.0000000000000 10000.000000000000 -2333.3333333330002 -19916821.769804370 3033997.8963074242 -57201369.586440347 1.6306460383061876e-05 -0.00078932095448192756 -2.9196947976135331e-05 0.79999999979312897 0.0000000000000000 -5.4723779455175858 
7000.0000000000000 10000.000000000000 -2333.3333333330002 -19916821.769829579 3033997.8961836342 -57201369.586807005 1.2354437238089155e-05 -0.00079102912833503287 0.00062923880225884232 0.59999999984581498 0.0000000000000000 -5.4723779456946406 
7000.0000000000000 9000.0000000000000 -2333.3333333330002 -19916821.769796282 3033997.8961231774 -57201369.586644076 2.4629772360388927e-05 -0.0014315036074095202 0.00062846454471612184 0.59999999984542296 -0.49999999986594595 -5.4723779457240198 
6000.0000000000000 9000.0000000000000 -2166.6666666669998 -18765081.920286845 4185737.7468484677 -53117928.301407397 3.0268613019567510e-05 -0.0014400215928996858 -6.7650508058228129e-06 0.79999999983125936 -0.49999999989278926 -5.6877899893632664 
6000.0000000000000 10000.000000000000 -2166.6666666669998 -18765081.920332089 4185737.7468746249 -53117928.301639043 1.3510529596249617e-05 -0.00079803464624026690 -1.4555136449897590e-05 0.79999999983169234 0.0000000000000000 -5.6877899893351964 
7000.0000000000000 10000.000000000000 -2166.6666666669998 -18765081.920375139 4185737.7467917353 -53117928.301831953 9.7544175347945046e-06 -0.00079993658235150329 0.00063940406548752013 0.59999999987549213 0.0000000000000000 -5.6877899895128099 
7000.0000000000000 9000.0000000000000 -2166.6666666669998 -18765081.920324471 4185737.7467598654 -53117928.301616080 1.9498547437871024e-05 -0.0014463190051468013 0.00063801890973171809 0.59999999987518127 -0.49999999989183308 -5.6877899895410948 
6000.0000000000000 9000.0000000000000 -2000.0000000000000 -17613238.947970875 5337580.7202835660 -49034121.399177775 2.4154599027042026e-05 -0.0014460399425051461 1.2908941802694757e-05 0.79999999987030346 -0.49999999991823202 -5.8882985504088561 
6000.0000000000000 10000.000000000000 -2000.0000000000000 -17613238.948032167 5337580.7202780806 -49034121.399451323 1.0473576278585445e-05 -0.00080097893276492285 5.6408506267049719e-06 0.79999999987064097 0.0000000000000000 -5.8882985503820278 
7000.0000000000000 10000.000000000000 -2000.0000000000000 -17613238.948088929 5337580.7202322027 -49034121.399494559 7.0458561136236196e-06 -0.00080306410570848660 0.00064810546832523119 0.59999999990515562 0.0000000000000000 -5.8882985505595729 
7000.0000000000000 9000.0000000000000 -2000.0000000000000 -17613238.948022477 5337580.7202321561 -49034121.399234787 1.4148595349680473e-05 -0.0014515800239826996 0.00064618849390773460 0.59999999990492980 -0.49999999991746596 -5.8882985505866348 
6000.0000000000000 9000.0000000000000 -1833.3333333329999 -16461292.843590818 6489526.8257927429 -44949948.846807986 1.7566038297263832e-05 -0.0014412374739810043 3.7325728769930564e-05 0.79999999990965631 -0.49999999994324634 -6.0739022942751992 
6000.0000000000000 10000.000000000000 -1833.3333333329999 -16461292.843666930 6489526.8257516958 -44949948.847113937 7.2347652895403599e-06 -0.00079752573218261325 3.0479911289719118e-05 0.79999999990989201 0.0000000000000000 -6.0739022942496916 
7000.0000000000000 10000.000000000000 -1833.3333333329999 -16461292.843731578 6489526.8257392719 -44949948.847031496 4.2302526394667277e-06 -0.00079977697912698303 0.00065447094869541941 0.59999999993470277 0.0000000000000000 -6.0739022944266461 
7000.0000000000000 9000.0000000000000 -1833.3333333329999 -16461292.843650743 6489526.8257750487 -44949948.846737154 8.5794439790925823e-06 -0.0014461556111026973 0.00065211923808919099 0.59999999993456488 -0.49999999994268540 -6.0739022944524059 
6000.0000000000000 9000.0000000000000 -1666.6666666670001 -15309243.597908901 7641576.0726107499 -40865410.611534856 1.0594424274322398e-05 -0.0014241859370345443 6.5282190051918921e-05 0.79999999994924120 -0.49999999996767558 -6.2445998864346999 
6000.0000000000000 10000.000000000000 -1666.6666666670001 -15309243.597998761 7641576.0725294007 -40865410.611863576 3.8351221839121126e-06 -0.00078692296255089252 5.8743776102630679e-05 0.79999999994936966 0.0000000000000000 -6.2445998864105539 
7000.0000000000000 10000.000000000000 -1666.6666666670001 -15309243.598063711 7641576.0725472486 -40865410.611679211 1.3048542552452497e-06 -0.00078931492805079458 0.00065737445960942589 0.59999999996403586 0.0000000000000000 -6.2445998865865047 
7000.0000000000000 9000.0000000000000 -1666.6666666670001 -15309243.597969634 7641576.0726237008 -40865410.611359656 2.7848256294423156e-06 -0.0014286364703119945 0.00065469560682744610 0.59999999996398945 -0.49999999996733197 -6.2445998866109216 
9000.0000000000000 4000.0000000000000 -4833.3333333330002 -37180551.075079270 -14229731.409262082 -118409137.15036209 0.00036973100709303139 0.00038250263148990719 -4.3749301193797311e-05 0.19999999977770044 -2.9999999978972274 -0.45368638679819545 
9000.0000000000000 5000.0000000000000 -4833.3333333330002 -37180551.069444619 -14229731.410405833 -118409137.12185615 0.00044100631454148777 8.3373567555975459e-05 -7.2019635915132897e-06 0.19999999979338140 -2.4999999980165950 -0.45368638667410049 
10000.000000000000 5000.0000000000000 -4833.3333333330002 -37180551.069429256 -14229731.410866050 -118409137.12398325 0.00025074144937474305 0.00010153377690133587 4.4313235074972516e-05 0.0000000000000000 -2.4999999980084553 -0.45368638668044597 
10000.000000000000 4000.0000000000000 -4833.3333333330002 -37180551.075024389 -14229731.409762343 -118409137.15311545 0.00021029179193068529 0.00040075629564663255 4.0693597725697251e-05 0.0000000000000000 -2.9999999978902259 -0.45368638680672790 
9000.0000000000000 4000.0000000000000 -5000.0000000000000 -37755622.389246225 -14804802.723478960 -120448026.35536999 0.00037818907454865666 0.00017789611602257653 -1.7498463119594765e-05 0.19999999977577781 -2.9999999978877478 0.0000000000000000 
9000.0000000000000 5000.0000000000000 -5000.0000000000000 -37755622.383285135 -14804802.724319218 -120448026.32564081 0.00045012531590439645 3.0556453213711003e-05 -3.4027986505014484e-07 0.19999999979180214 -2.4999999980076844 0.0000000000000000 
10000.000000000000 5000.0000000000000 -5000.0000000000000 -37755622.383305162 -14804802.724821243 -120448026.32792090 0.00025532904577455596 3.9189791399795883e-05 2.5067412414122237e-05 0.0000000000000000 -2.4999999979994096 0.0000000000000000 
10000.000000000000 4000.0000000000000 -5000.0000000000000 -37755622.389240608 -14804802.724035610 -120448026.35833636 0.00021476359302514947 0.00018651303079524561 2.4107494969413775e-05 0.0000000000000000 -2.9999999978805909 0.0000000000000000 
9000.0000000000000 4000.0000000000000 -4666.6666666669998 -36030356.957060248 -13079537.291108698 -114331176.18581760 0.00034718188785285651 0.00083823764526007175 -0.00010990670452783768 0.19999999978307817 -2.9999999979242387 -0.89249062503647980 
9000.0000000000000 5000.0000000000000 -4666.6666666669998 -36030356.952039413 -13079537.292795967 -114331176.15967153 0.00041610323172630267 0.00022884712131726091 -3.1411709149874363e-05 0.19999999979783362 -2.4999999980421532 -0.89249062479773322 
10000.000000000000 5000.0000000000000 -4666.6666666669998 -36030356.951963775 -13079537.293176100 -114331176.16149840 0.00023793107408839203 0.00026742534972196944 7.2053105866612171e-05 0.0000000000000000 -2.4999999980343945 -0.89249062481013341 
10000.000000000000 4000.0000000000000 -4666.6666666669998 -36030356.956922121 -13079537.291503472 -114331176.18815611 0.00019820984415029391 0.00087720776699646880 6.0109318185678871e-05 0.0000000000000000 -2.9999999979176493 -0.89249062505308219 
9000.0000000000000 4000.0000000000000 -4500.0000000000000 -34880059.855034828 -11929240.188895926 -110252850.09582579 0.00031641007043727476 0.0013740921238753114 -0.00019640973597939281 0.19999999979114810 -2.9999999979661243 -1.3164113822279804 
9000.0000000000000 5000.0000000000000 -4500.0000000000000 -34880059.850554526 -11929240.191004166 -110252850.07186821 0.00038065634787331804 0.00044500242592493752 -7.1923018616001802e-05 0.19999999980459887 -2.4999999980821497 -1.3164113818835215 
10000.000000000000 5000.0000000000000 -4500.0000000000000 -34880059.850439921 -11929240.191312170 -110252850.07340868 0.00021908881923382714 0.00050586581519190962 8.0532015019192644e-05 0.0000000000000000 -2.4999999980749643 -1.3164113819015315 
10000.000000000000 4000.0000000000000 -4500.0000000000000 -34880059.854844160 -11929240.189200537 -110252850.09777494 0.00018137679657542077 0.0014355313809886819 5.5186053737497921e-05 0.0000000000000000 -2.9999999979600989 -1.3164113822519796 
9000.0000000000000 4000.0000000000000 -4333.3333333330002 -33729659.759739302 -10778840.093386473 -106174158.84762378 0.00028253179093065640 0.0019659314221830960 -0.00029084260830414981 0.19999999980121499 -2.9999999980206016 -1.7254473257583263 
9000.0000000000000 5000.0000000000000 -4333.3333333330002 -33729659.755734965 -10778840.095802605 -106174158.82568839 0.00033954701318561156 0.00071460304304161862 -0.00012031712825160161 0.19999999981316011 -2.4999999981346384 -1.7254473253165838 
10000.000000000000 5000.0000000000000 -4333.3333333330002 -33729659.755601309 -10778840.096047502 -106174158.82696030 0.00019654868583293079 0.00079801092237485091 7.4633235917155632e-05 0.0000000000000000 -2.4999999981281547 -1.7254473253396336 
10000.000000000000 4000.0000000000000 -4333.3333333330002 -33729659.759524323 -10778840.093616586 -106174158.84921438 0.00016245528165425048 0.0020496361692071080 3.2770371693810916e-05 0.0000000000000000 -2.9999999980152103 -1.7254473257888907 
9000.0000000000000 4000.0000000000000 -4166.6666666669998 -32579156.661915373 -9628336.9953389820 -102095102.40844667 0.00024892063315757717 0.0025929531504169652 -0.00038382845848921330 0.19999999981269448 -2.9999999980857450 -2.1195971228939174 
9000.0000000000000 5000.0000000000000 -4166.6666666669998 -32579156.658329591 -9628336.9979603197 -102095102.38837411 0.00029637030539629653 0.0010219404324945643 -0.00017005190879176344 0.19999999982307151 -2.4999999981979122 -2.1195971223628081 
10000.000000000000 5000.0000000000000 -4166.6666666669998 -32579156.658192936 -9628336.9981510770 -102095102.38939771 0.00017227693416495656 0.0011268530168796044 5.9402410176604567e-05 0.0000000000000000 -2.4999999981922003 -2.1195971223902439 
10000.000000000000 4000.0000000000000 -4166.6666666669998 -32579156.661698487 -9628336.9955089986 -102095102.40971227 0.00014334836198241039 0.0026974226185414105 -1.7821712068090152e-07 0.0000000000000000 -2.9999999980809950 -2.1195971229301200 
9000.0000000000000 4000.0000000000000 -4000.0000000000000 -31428550.552303012 -8477730.8855036106 -98015680.745509028 0.00021759564594857101 0.0032372869129430404 -0.00046887790156001027 0.19999999982511973 -2.9999999981599497 -2.4988594407886140 
9000.0000000000000 5000.0000000000000 -4000.0000000000000 -31428550.549084499 -8477730.8882380109 -98015680.727148503 0.00025363746022857533 0.0013528261328424292 -0.00021642041029865794 0.19999999983396410 -2.4999999982704852 -2.4988594401755431 
10000.000000000000 5000.0000000000000 -4000.0000000000000 -31428550.548956554 -8477730.8883829936 -98015680.727945596 0.00014778296132040222 0.0014772590636136698 3.9163352863212734e-05 0.0000000000000000 -2.4999999982655661 -2.4988594402066719 
10000.000000000000 4000.0000000000000 -4000.0000000000000 -31428550.552100271 -8477730.8856259994 -98015680.746484146 0.00012528143734753610 0.0033602695289075774 -3.7806749754915376e-05 0.0000000000000000 -2.9999999981558090 -2.4988594408294933 
9000.0000000000000 4000.0000000000000 -3833.3333333330002 -30277841.421649639 -7327021.7546331408 -93935893.826042116 0.00018957447690372677 0.0038835521883045752 -0.00054193280440196904 0.19999999983812786 -2.9999999982419001 -2.8632329464695521 
9000.0000000000000 5000.0000000000000 -3833.3333333330002 -30277841.418752443 -7327021.7573986519 -93935893.809252709 0.00021298700043287415 0.0016945221606085572 -0.00025630469581482574 0.19999999984553751 -2.4999999983510723 -2.8632329457814332 
10000.000000000000 5000.0000000000000 -3833.3333333330002 -30277841.418640923 -7327021.7575053489 -93935893.809845656 0.00012413665669781262 0.0018358842459511656 1.7256393947621549e-05 0.0000000000000000 -2.4999999983469325 -2.8632329458155543 
10000.000000000000 4000.0000000000000 -3833.3333333330002 -30277841.421471354 -7327021.7547183009 -93935893.826760754 0.00010893143113951373 0.0040224435479689737 -7.5705576156933084e-05 0.0000000000000000 -2.9999999982383132 -2.8632329465141604 
9000.0000000000000 4000.0000000000000 -3666.6666666669998 -29127029.260704163 -6176209.5934784319 -89855741.617275596 0.00016517334095305942 0.0045184589462444347 -0.00060084177449371673 0.19999999985144534 -2.9999999983305377 -3.2127163068446185 
9000.0000000000000 5000.0000000000000 -3666.6666666669998 -29127029.258087039 -6176209.5962025560 -89855741.601927027 0.00017538310118304020 0.0020356870987167570 -0.00028787387758892792 0.19999999985755215 -2.4999999984385819 -3.2127163060878914 
10000.000000000000 5000.0000000000000 -3666.6666666669998 -29127029.257996358 -6176209.5962774903 -89855741.602338150 0.00010203440461618174 0.0021910647535789687 -3.9462536008811862e-06 0.0000000000000000 -2.4999999984351784 -3.2127163061243240 
10000.000000000000 4000.0000000000000 -3666.6666666669998 -29127029.260555968 -6176209.5935347863 -89855741.617770448 9.4574804150842940e-05 0.0046706090723187431 -0.00011085473921115902 0.0000000000000000 -2.9999999983274392 -3.2127163068920557 
9000.0000000000000 4000.0000000000000 -3500.0000000000000 -27976114.060211375 -5025294.3927837349 -85775224.086419687 0.00014424637138586943 0.0051304859487574612 -0.00064489280079981653 0.19999999986486955 -2.9999999984250314 -3.5473081887083344 
9000.0000000000000 5000.0000000000000 -3500.0000000000000 -27976114.057837326 -5025294.3954025805 -85775224.072392717 0.00014128816783217437 0.0023663496961406297 -0.00031031173002572001 0.19999999986981851 -2.4999999985320893 -3.5473081878889974 
10000.000000000000 5000.0000000000000 -3500.0000000000000 -27976114.057769317 -5025294.3954513548 -85775224.072643951 8.1864911619306425e-05 0.0025327332944316693 -2.2923412338082377e-05 0.0000000000000000 -2.4999999985293644 -3.5473081879271051 
10000.000000000000 4000.0000000000000 -3500.0000000000000 -27976114.060095381 -5025294.3928180011 -85775224.086721539 8.2205877095041334e-05 0.0052933817708589997 -0.00014142381460436273 0.0000000000000000 -2.9999999984223544 -3.5473081887577758 
9000.0000000000000 4000.0000000000000 -3333.3333333330002 -26825095.810922042 -3874276.1432974585 -81694341.200702295 0.00012636679898315428 0.0057094972177376916 -0.00067440283680052714 0.19999999987825309 -2.9999999985247454 -3.8670072587292839 
9000.0000000000000 5000.0000000000000 -3333.3333333330002 -26825095.808757905 -3874276.1457548402 -81694341.187888801 0.00011081257155046109 0.0026777791052332071 -0.00032356027649711966 0.19999999988218731 -2.4999999986308254 -3.8670072578529262 
10000.000000000000 5000.0000000000000 -3333.3333333330002 -26825095.808712486 -3874276.1457821922 -81694341.188001320 6.3785559205943704e-05 0.0028522348719684362 -3.8837932524927849e-05 0.0000000000000000 -2.4999999986287147 -3.8670072578921286 
10000.000000000000 4000.0000000000000 -3333.3333333330002 -26825095.810837805 -3874276.1433149013 -81694341.200839639 7.1633657928289062e-05 0.0058808540519493533 -0.00016651683587935338 0.0000000000000000 -2.9999999985224299 -3.8670072587799953 
9000.0000000000000 4000.0000000000000 -3166.6666666669998 -25673974.503587481 -2723154.8357672165 -77613092.927350640 0.00011095589542659557 0.0062464441362679738 -0.00069039613452291388 0.19999999989149042 -2.9999999986292210 -4.1718121834567947 
9000.0000000000000 5000.0000000000000 -3166.6666666669998 -25673974.501603600 -2723154.8380137933 -77613092.915653616 8.3829042166128933e-05 0.0029624168760899175 -0.00032811830658704830 0.19999999989454198 -2.4999999987341646 -4.1718121825286305 
10000.000000000000 5000.0000000000000 -3166.6666666669998 -25673974.501579337 -2723154.8380237101 -77613092.915647775 4.7798131699597265e-05 0.0031421981333655388 -5.1375481623270151e-05 0.0000000000000000 -2.4999999987325987 -4.1718121825684129 
10000.000000000000 4000.0000000000000 -3166.6666666669998 -25673974.503532819 -2723154.8357719174 -77613092.927349702 6.2566017484285541e-05 0.0064242435447338098 -0.00018593970404768905 0.0000000000000000 -2.9999999986272150 -4.1718121835081385 
9000.0000000000000 4000.0000000000000 -3000.0000000000000 -24522750.128954273 -1571930.4609348611 -73531479.233573377 9.7377946867769616e-05 0.0067332284167406116 -0.00069433454091897011 0.19999999990450718 -2.9999999987381512 -4.4617216293260222 
9000.0000000000000 5000.0000000000000 -3000.0000000000000 -24522750.127124123 -1571930.4629272483 -73531479.222906306 6.0060500969200325e-05 0.0032138042436300860 -0.00032486864559195134 0.19999999990679168 -2.4999999988416040 -4.4617216283509284 
10000.000000000000 5000.0000000000000 -3000.0000000000000 -24522750.127118681 -1571930.4629230546 -73531479.222801432 3.3792308266056959e-05 0.0033964314066364078 -6.0602690577328964e-05 0.0000000000000000 -2.4999999988405159 -4.4617216283908494 
10000.000000000000 4000.0000000000000 -3000.0000000000000 -24522750.128925897 -1571930.4609299598 -73531479.233458102 5.4659836254739433e-05 0.0069157229704904372 -0.00019998846753877471 0.0000000000000000 -2.9999999987364143 -4.4617216293774611 
9000.0000000000000 4000.0000000000000 -2833.3333333330002 -23371422.677774698 -420603.00954704755 -69449500.086597890 8.5008663988701231e-05 0.0071623862131111916 -0.00068793974591876939 0.19999999991725187 -2.9999999988513619 -4.7367342626469728 
9000.0000000000000 5000.0000000000000 -2833.3333333330002 -23371422.676074605 -420603.01124711131 -69449500.076884240 3.9150333203095204e-05 0.0034264406592089598 -0.00031495205249077623 0.19999999991886658 -2.4999999989527519 -4.7367342616295227 
10000.000000000000 5000.0000000000000 -2833.3333333330002 -23371422.676085088 -420603.01123160007 -69449500.076698661 2.1592787799706203e-05 0.0036097250781249924 -6.6863489478154569e-05 0.0000000000000000 -2.4999999989520796 -4.7367342616692190 
10000.000000000000 4000.0000000000000 -2833.3333333330002 -23371422.677768704 -420603.00953496061 -69449500.086390138 4.7574341429196861e-05 0.0073480652497122561 -0.00020929168034261711 0.0000000000000000 -2.9999999988498645 -4.7367342626980715 
9000.0000000000000 4000.0000000000000 -2666.6666666669998 -22219992.140801318 730827.52765000926 -65367155.453651786 7.3269979781631145e-05 0.0075270116379891772 -0.00067306361001771126 0.19999999992968934 -2.9999999989688000 -4.9968487496104066 
9000.0000000000000 5000.0000000000000 -2666.6666666669998 -22219992.139210224 730827.52627574932 -65367155.444824278 2.0708025436110790e-05 0.0035957683357378651 -0.00029966363545270492 0.19999999993071266 -2.4999999990673163 -4.9968487485549078 
10000.000000000000 5000.0000000000000 -2666.6666666669998 -22219992.139233433 730827.52630024496 -65367155.444575235 1.0991457082561833e-05 0.0037778406227348049 -7.0665212875240739e-05 0.0000000000000000 -2.4999999990670019 -4.9968487485940889 
10000.000000000000 4000.0000000000000 -2666.6666666669998 -22219992.140813552 730827.52766740462 -65367155.453371488 4.0990307465661376e-05 0.0077145756839283198 -0.00021467418939185608 0.0000000000000000 -2.9999999989675206 -4.9968487496608267 
9000.0000000000000 4000.0000000000000 -2500.0000000000000 -21068458.508781780 1882361.1599156957 -61284445.301944569 6.1651461431059753e-05 0.0078206533413036280 -0.00065156894265347280 0.19999999994179707 -2.9999999990905097 -5.2420637562921035 
9000.0000000000000 5000.0000000000000 -2500.0000000000000 -21068458.507280979 1882361.1588965997 -61284445.293944351 4.3392491168351319e-06 0.0037181192456389686 -0.00028036108588451415 0.19999999994228995 -2.4999999991850879 -5.2420637552026257 
10000.000000000000 5000.0000000000000 -2500.0000000000000 -21068458.507313646 1882361.1589280772 -61284445.293648094 1.7632657091420738e-06 0.0038974195964873392 -7.2598999508161809e-05 0.0000000000000000 -2.4999999991850816 -5.2420637552410740 
10000.000000000000 4000.0000000000000 -2500.0000000000000 -21068458.508808125 1882361.1599369026 -61284445.301610030 3.4617717573030737e-05 0.0080089717047967662 -0.00021706126362363242 0.0000000000000000 -2.9999999990894390 -5.2420637563416008 
9000.0000000000000 4000.0000000000000 -2333.3333333330002 -19916821.772469301 3033997.8965045610 -57201369.598705135 4.9720561495276779e-05 0.0080371417572393227 -0.00062525557080978834 0.19999999995356205 -2.9999999992166333 -5.4723779486435129 
9000.0000000000000 5000.0000000000000 -2333.3333333330002 -19916821.771042176 3033997.8958662557 -57201369.591480784 -1.0340248432662511e-05 0.0037906115328815624 -0.00025840472134226169 0.19999999995357018 -2.4999999993059325 -5.4723779475239169 
10000.000000000000 5000.0000000000000 -2333.3333333330002 -19916821.771081153 3033997.8959029564 -57201369.591152608 -6.3215214430935119e-06 0.0039658704951375783 -7.3294212213960278e-05 0.0000000000000000 -2.4999999993061919 -5.4723779475614860 
10000.000000000000 4000.0000000000000 -2333.3333333330002 -19916821.772505872 3033997.8965283446 -57201369.598333202 2.8212058680992134e-05 0.0082252065523939384 -0.00021740064959120746 0.0000000000000000 -2.9999999992157664 -5.4723779486919337 
9000.0000000000000 4000.0000000000000 -2166.6666666669998 -18765081.922617353 4185737.7466716296 -53117928.311163150 3.7122926865100242e-05 0.0081706070307865017 -0.00059580441748469776 0.19999999996497991 -2.9999999993473874 -5.6877899924968442 
9000.0000000000000 5000.0000000000000 -2166.6666666669998 -18765081.921249159 4185737.7464363026 -53117928.304669604 -2.3697488497723006e-05 0.0038111773123256781 -0.00023510541556943297 0.19999999996453482 -2.4999999994297792 -5.6877899913507983 
10000.000000000000 5000.0000000000000 -2166.6666666669998 -18765081.921291512 4185737.7464766731 -53117928.304323711 -1.3492552710522745e-05 0.0039813868890105353 -7.3354459168057000e-05 0.0000000000000000 -2.4999999994302682 -5.6877899913874073 
10000.000000000000 4000.0000000000000 -2166.6666666669998 -18765081.922660694 4185737.7466969127 -53117928.310769364 2.1566718972175855e-05 0.0083574991296543229 -0.00021658274208013128 0.0000000000000000 -2.9999999993467288 -5.6877899925441140 
9000.0000000000000 4000.0000000000000 -2000.0000000000000 -17613238.949974470 5337580.7196777146 -49034121.406530686 2.3564510400035462e-05 0.0082153937173573555 -0.00056471588698652755 0.19999999997605380 -2.9999999994830628 -5.8882985535685330 
9000.0000000000000 5000.0000000000000 -2000.0000000000000 -17613238.948652107 5337580.7198642604 -49034121.400728256 -3.6096157171457409e-05 0.0037785283579448311 -0.00021167028077347436 0.19999999997517473 -2.4999999995566093 -5.8882985523995366 
10000.000000000000 5000.0000000000000 -2000.0000000000000 -17613238.948695280 5337580.7199068442 -49034121.400377870 -1.9991012046260018e-05 0.0039428951569026724 -7.3305324314223253e-05 0.0000000000000000 -2.4999999995573012 -5.8882985524351605 
10000.000000000000 4000.0000000000000 -2000.0000000000000 -17613238.950021733 5337580.7197034489 -49034121.406129546 1.4496349239056187e-05 0.0084002286925693725 -0.00021537932696321277 0.0000000000000000 -2.9999999994826223 -5.8882985536146570 
9000.0000000000000 4000.0000000000000 -1833.3333333329999 -16461292.845294645 6489526.8247791063 -44949948.852039307 8.7868663792212355e-06 0.0081660299979984061 -0.00053325699133217051 0.19999999998679627 -2.9999999996240159 -6.0739022974515073 
9000.0000000000000 5000.0000000000000 -1833.3333333329999 -16461292.844006395 6489526.8254032256 -44949948.846892402 -4.7916145259262775e-05 0.0036921230546552893 -0.00018915248786656189 0.19999999998549023 -2.4999999996864477 -6.0739022962628972 
10000.000000000000 5000.0000000000000 -1833.3333333329999 -16461292.844048340 6489526.8254466392 -44949948.846549645 -2.6080243382185304e-05 0.0038500222432867603 -7.3556448754405108e-05 0.0000000000000000 -2.4999999996873248 -6.0739022962975673 
10000.000000000000 4000.0000000000000 -1833.3333333329999 -16461292.845343802 6489526.8248041887 -44949948.851644352 6.8291059367356540e-06 0.0083479313231978585 -0.00021438894757542167 0.0000000000000000 -2.9999999996238076 -6.0739022974965557 
9000.0000000000000 4000.0000000000000 -1666.6666666670001 -15309243.599332092 7641576.0712329671 -40865410.614921451 -7.4588992331447587e-06 0.0080172496605897814 -0.00050239696359303144 0.19999999999722973 -2.9999999997706572 -6.2445998896194617 
9000.0000000000000 5000.0000000000000 -1666.6666666670001 -15309243.598067405 7641576.0723070884 -40865410.610397555 -5.9574783117094076e-05 0.0035522146236509223 -0.00016841600698344850 0.19999999999549095 -2.4999999998193538 -6.2445998884144140 
10000.000000000000 5000.0000000000000 -1666.6666666670001 -15309243.598106664 7641576.0723500261 -40865410.610073194 -3.2059282327421166e-05 0.0037031520623746973 -7.4370020428796358e-05 0.0000000000000000 -2.4999999998204099 -6.2445998884482048 
10000.000000000000 4000.0000000000000 -1666.6666666670001 -15309243.599382080 7641576.0712562073 -40865410.614545122 -1.6170726824710888e-06 0.0081953500295818254 -0.00021397208239329839 0.0000000000000000 -2.9999999997707030 -6.2445998896635615 
3000.0000000000000 2000.0000000000000 -4833.3333333330002 -37180551.086770080 -14229731.393099753 -118409137.16252401 -3.4751321398950815e-05 0.00060790939136975768 -0.00038896508324676984 1.3999999992028298 -3.9999999984854782 -0.45368638685860485 
3000.0000000000000 3000.0000000000000 -4833.3333333330002 -37180551.081232496 -14229731.396638721 -118409137.13379033 0.00027322244668442431 0.00056239541939884544 -0.00040923784136283364 1.3999999992062406 -3.4999999980738794 -0.45368638672795919 
4000.0000000000000 3000.0000000000000 -4833.3333333330002 -37180551.079627417 -14229731.399393054 -118409137.14948803 0.00025253164309442554 0.00058326459632461784 -0.00024510272240543752 1.1999999991735530 -3.4999999980639136 -0.45368638680486523 
4000.0000000000000 2000.0000000000000 -4833.3333333330002 -37180551.085209683 -14229731.395872837 -118409137.17807825 4.4016219847715973e-05 0.00056400922545015526 -0.00023667675454778369 1.1999999991690784 -3.9999999984895642 -0.45368638693529167 
3000.0000000000000 2000.0000000000000 -5000.0000000000000 -37755622.401114397 -14804802.707343942 -120448026.36787531 -3.9676467371137557e-05 0.00029217758256499691 -0.00018689568313633742 1.3999999991979137 -3.9999999984785606 0.0000000000000000 
3000.0000000000000 3000.0000000000000 -5000.0000000000000 -37755622.395222485 -14804802.710568126 -120448026.33784571 0.00027891574392492906 0.00026811499769902009 -0.00019766786630040205 1.3999999992014571 -3.4999999980653698 0.0000000000000000 
4000.0000000000000 3000.0000000000000 -5000.0000000000000 -37755622.393818922 -14804802.713575637 -120448026.35453680 0.00025686943420372854 0.00027799425539303251 -0.00011655843169822340 1.1999999991690486 -3.4999999980551229 0.0000000000000000 
4000.0000000000000 2000.0000000000000 -5000.0000000000000 -37755622.399770722 -14804802.710383002 -120448026.38447782 4.1474426716652047e-05 0.00027031546432391257 -0.00011210917591308685 1.1999999991644636 -3.9999999984829149 0.0000000000000000 
3000.0000000000000 2000.0000000000000 -4666.6666666669998 -36030356.968367621 -13079537.274987102 -114331176.19741717 -2.1028283733442526e-05 0.0012791024766599345 -0.00081464035138710327 1.3999999992162133 -3.9999999985048413 -0.89249062515497346 
3000.0000000000000 3000.0000000000000 -4666.6666666669998 -36030356.963482872 -13079537.279067805 -114331176.17111115 0.00025919116192649205 0.0011965422117412462 -0.00085196698620457179 1.3999999992193946 -3.4999999980980081 -0.89249062490396724 
4000.0000000000000 3000.0000000000000 -4666.6666666669998 -36030356.961565293 -13079537.281368779 -114331176.18494080 0.00024167925910175263 0.0012402051112351154 -0.00051987380307234573 1.1999999991861008 -3.4999999980886964 -0.89249062504982746 
4000.0000000000000 2000.0000000000000 -4666.6666666669998 -36030356.966472685 -13079537.277290801 -114331176.21103054 5.1152555743049542e-05 0.0011916198151546915 -0.00050410092484580297 1.1999999991818393 -3.9999999985081947 -0.89249062529959466 
3000.0000000000000 2000.0000000000000 -4500.0000000000000 -34880059.865914218 -11929240.172989186 -110252850.10709307 -9.0438124351923206e-07 0.0020166071678057711 -0.0012690091886673710 1.3999999992357195 -3.9999999985341708 -1.3164113824032733 
3000.0000000000000 3000.0000000000000 -4500.0000000000000 -34880059.861577615 -11929240.177451424 -110252850.08290386 0.00024262520397427790 0.0019091846338684586 -0.0013201547563886054 1.3999999992388070 -3.4999999981351739 -1.3164113820409709 
4000.0000000000000 3000.0000000000000 -4500.0000000000000 -34880059.859502718 -11929240.179394823 -110252850.09509668 0.00022844933694085305 0.0019753512061605810 -0.00081950726471202793 1.1999999992049732 -3.4999999981265937 -1.3164113822482639 
4000.0000000000000 2000.0000000000000 -4500.0000000000000 -34880059.863851815 -11929240.174932713 -110252850.11905950 6.1703316163230296e-05 0.0018880996405849083 -0.00079725554950111830 1.1999999992008588 -3.9999999985364707 -1.3164113826079491 
3000.0000000000000 2000.0000000000000 -4333.3333333330002 -33729659.770167045 -10778840.077837786 -106174158.85875310 2.3096821505353649e-05 0.0027970792003307516 -0.0017286225128874183 1.3999999992596750 -3.9999999985715218 -1.7254473259899865 
3000.0000000000000 3000.0000000000000 -4333.3333333330002 -33729659.766287230 -10778840.082549678 -106174158.83640364 0.00022755725503230151 0.0026766323302374671 -0.0017909262261380516 1.3999999992628811 -3.4999999981832244 -1.7254473255243479 
4000.0000000000000 3000.0000000000000 -4333.3333333330002 -33729659.764164343 -10778840.084212244 -106174158.84717540 0.00021575866580861552 0.0027625343813986059 -0.0011264766357066242 1.1999999992288386 -3.4999999981752881 -1.7254473257861265 
4000.0000000000000 2000.0000000000000 -4333.3333333330002 -33729659.768050909 -10778840.079502804 -106174158.86933118 7.4308752869427127e-05 0.0026327561901991264 -0.0010984110911611052 1.1999999992247472 -3.9999999985725800 -1.7254473262477605 
3000.0000000000000 2000.0000000000000 -4166.6666666669998 -32579156.671880610 -9628336.9802653454 -102095102.41959964 4.8839041462717155e-05 0.0036023324106197198 -0.0021789261778274627 1.3999999992869059 -3.9999999986153871 -2.1195971231821971 
3000.0000000000000 3000.0000000000000 -4166.6666666669998 -32579156.668378279 -9628336.9851181395 -102095102.39884436 0.00021565754604336725 0.0034784347213564284 -0.0022492785231149805 1.3999999992904337 -3.4999999982403809 -2.1195971226201933 
4000.0000000000000 3000.0000000000000 -4166.6666666669998 -32579156.666282255 -9628336.9865606427 -102095102.40839119 0.00020486150015602630 0.0035808699704291112 -0.0014291295302734589 1.1999999992566810 -3.4999999982329331 -2.1195971229301684 
4000.0000000000000 2000.0000000000000 -4166.6666666669998 -32579156.669785999 -9628336.9817134477 -102095102.42901252 8.7727882750642897e-05 0.0034091012768611866 -0.0013963760089809841 1.1999999992524890 -3.9999999986151242 -2.1195971234870261 
3000.0000000000000 2000.0000000000000 -4000.0000000000000 -31428550.561802179 -8477730.8710006904 -98015680.756817222 7.4642830995295831e-05 0.0044180722255260062 -0.0026112303683382275 1.3999999993166041 -3.9999999986646100 -2.4988594411343019 
3000.0000000000000 3000.0000000000000 -4000.0000000000000 -31428550.558608796 -8477730.8759040311 -98015680.737439781 0.00020723448725788474 0.0042970546287985972 -0.0026857936025366071 1.3999999993206131 -3.4999999983052024 -2.4988594404820259 
4000.0000000000000 3000.0000000000000 -4000.0000000000000 -31428550.556589678 -8477730.8771743719 -98015680.745936289 0.00019603597921997033 0.0044134504874498159 -0.0017198673165146629 1.1999999992877350 -3.4999999982980716 -2.4988594408345937 
4000.0000000000000 2000.0000000000000 -4000.0000000000000 -31428550.559777841 -8477730.8722788896 -98015680.765254825 0.00010094933458206995 0.0042037319823450521 -0.0016841789649178120 1.1999999992833470 -3.9999999986630317 -2.4988594414810028 
3000.0000000000000 2000.0000000000000 -3833.3333333330002 -30277841.430682987 -7327021.7407799708 -93935893.837609619 9.9257841029421658e-05 0.0052327453968362301 -0.0030205589116553476 1.3999999993482288 -3.9999999987183266 -2.8632329468738460 
3000.0000000000000 3000.0000000000000 -3833.3333333330002 -30277841.427739508 -7327021.7456577895 -93935893.819420516 0.00020186562793630397 0.0051174260615178303 -0.0030948502482776585 1.3999999993528203 -3.4999999983765409 -2.8632329461366162 
4000.0000000000000 3000.0000000000000 -3833.3333333330002 -30277841.425830208 -7327021.7467937265 -93935893.827019662 0.00018902832984658231 0.0052462362225021179 -0.0019937945779259190 1.1999999993214303 -3.4999999983695753 -2.8632329465268458 
4000.0000000000000 2000.0000000000000 -3833.3333333330002 -30277841.428760096 -7327021.7419246156 -93935893.845231369 0.00011320995944980420 0.0050053903049626022 -0.0019574787484874781 1.1999999993167874 -3.9999999987154982 -2.8632329472580116 
3000.0000000000000 2000.0000000000000 -3666.6666666669998 -29127029.269273620 -6176209.5803416623 -89855741.629181296 0.00012179523893047192 0.0060367877631127597 -0.0034042104183661312 1.3999999993814347 -3.9999999987759134 -3.2127163073090057 
3000.0000000000000 3000.0000000000000 -3666.6666666669998 -29127029.266529270 -6176209.5851286538 -89855741.612015814 0.00019876969474251746 0.0059265253186328616 -0.0034732991189398671 1.3999999993866523 -3.4999999984535100 -3.2127163064914646 
4000.0000000000000 3000.0000000000000 -3666.6666666669998 -29127029.264751334 -6176209.5861600395 -89855741.618849531 0.00018332485432492448 0.0060672005505128549 -0.0022477477679498600 1.1999999993573480 -3.4999999984465968 -3.2127163069150564 
4000.0000000000000 2000.0000000000000 -3666.6666666669998 -29127029.267472334 -6176209.5813812735 -89855741.636119530 0.00012396118896276380 0.0058042974506816855 -0.0022135027813238095 1.1999999993524282 -3.9999999987719415 -3.2127163077269070 
3000.0000000000000 2000.0000000000000 -3500.0000000000000 -27976114.068319444 -5025294.3804214280 -85775224.098719105 0.00014166167811889498 0.0068220741330374830 -0.0037607194763430237 1.3999999994160175 -3.9999999988369548 -3.5473081892344953 
3000.0000000000000 3000.0000000000000 -3500.0000000000000 -27976114.065730572 -5025294.3850600859 -85775224.082435280 0.00019704192110244395 0.0067129839821565840 -0.0038195211284017877 1.3999999994218553 -3.4999999985354515 -3.5473081883406996 
4000.0000000000000 3000.0000000000000 -3500.0000000000000 -27976114.064098336 -5025294.3860106273 -85775224.088615924 0.00017831882017772143 0.0068658157614666414 -0.0024796355344681434 1.1999999993951869 -3.4999999985285188 -3.5473081887939264 
4000.0000000000000 2000.0000000000000 -3500.0000000000000 -27976114.066653304 -5025294.3813787159 -85775224.105082318 0.00013283442145958641 0.0065917964234082829 -0.0024503344986399980 1.1999999993900001 -3.9999999988319703 -3.5473081896829801 
3000.0000000000000 2000.0000000000000 -3333.3333333330002 -26825095.818571229 -3874276.1317624291 -81694341.213429183 0.00015848726208378207 0.0075813045336697070 -0.0040891926463418899 1.3999999994518797 -3.9999999989012016 -3.8670072593189895 
3000.0000000000000 3000.0000000000000 -3333.3333333330002 -26825095.816100318 -3874276.1362005454 -81694341.197906062 0.00019578596911411662 0.0074667141535171341 -0.0041327332988470803 1.3999999994582917 -3.4999999986219126 -3.8670072583525008 
4000.0000000000000 3000.0000000000000 -3333.3333333330002 -26825095.814623903 -3874276.1370891994 -81694341.203528002 0.00017340372404316712 0.0076325917537655840 -0.0026879730426100177 1.1999999994347370 -3.4999999986149284 -3.8670072588321380 
4000.0000000000000 2000.0000000000000 -3333.3333333330002 -26825095.817050260 -3874276.1326557212 -81694341.219305053 0.00013960105524501556 0.0073599080755787577 -0.0026664730413682239 1.1999999994293216 -3.9999999988953538 -3.8670072597953893 
3000.0000000000000 2000.0000000000000 -3166.6666666669998 -25673974.510780208 -2723154.8251099437 -77613092.940518379 0.00017204991197785984 0.0083076385629857700 -0.0043888871568398113 1.3999999994890031 -3.9999999989685611 -4.1718121841118210 
3000.0000000000000 3000.0000000000000 -3166.6666666669998 -25673974.508395001 -2723154.8292984958 -77613092.925654531 0.00019417091681351152 0.0081784953236522066 -0.0044125123151460156 1.3999999994959111 -3.4999999987126107 -4.1718121830757839 
4000.0000000000000 3000.0000000000000 -3166.6666666669998 -25673974.507082392 -2723154.8301405576 -77613092.930796146 0.00016802147535241598 0.0083586417354428108 -0.0028715766263177327 1.1999999994758621 -3.4999999987055839 -4.1718121835790365 
4000.0000000000000 2000.0000000000000 -3166.6666666669998 -25673974.509412959 -2723154.8259542547 -77613092.945976853 0.00014412988005549642 0.0081009821583571551 -0.0028605754179419386 1.1999999994702761 -3.9999999989620032 -4.1718121846138478 
3000.0000000000000 2000.0000000000000 -3000.0000000000000 -24522750.135693081 -1571930.4512061062 -73531479.247176185 0.00018222482929926853 0.0089943832165806196 -0.0046589231836058464 1.3999999995274328 -3.9999999990390722 -4.4617216300480544 
3000.0000000000000 3000.0000000000000 -3000.0000000000000 -24522750.133365836 -1571930.4550974474 -73531479.232888520 0.00019145778696873984 0.0088396952270526890 -0.0046584830597321391 1.3999999995347325 -3.4999999988074260 -4.4617216289452850 
4000.0000000000000 3000.0000000000000 -3000.0000000000000 -24522750.132224195 -1571930.4559053062 -73531479.237613872 0.00016169089690539057 0.0090354251010627291 -0.0030293936110959638 1.1999999995184838 -3.4999999988004040 -4.4617216294697251 
4000.0000000000000 2000.0000000000000 -3000.0000000000000 -24522750.134487886 -1571930.4520138535 -73531479.252271786 0.00014635531679510038 0.0088074646930619994 -0.0030312907218965576 1.1999999995128012 -3.9999999990319610 -4.4617216305737282 
3000.0000000000000 2000.0000000000000 -2833.3333333330002 -23371422.684062395 -420603.00079999660 -69449500.100611329 0.00018895387426194003 0.0096346911356517892 -0.0048981378198323447 1.3999999995672623 -3.9999999991128941 -4.7367342634375325 
3000.0000000000000 3000.0000000000000 -2833.3333333330002 -23371422.681769170 -420603.00434623164 -69449500.086833745 0.00018701611282277052 0.0094420564450030907 -0.0048701141652318031 1.3999999995748309 -3.4999999989063824 -4.7367342622705877 
4000.0000000000000 3000.0000000000000 -2833.3333333330002 -23371422.680805780 -420603.00512996974 -69449500.091194242 0.00015401052979955733 0.0096545392699027895 -0.0031603856595234479 1.1999999995625703 -3.4999999988994337 -4.7367342628140783 
4000.0000000000000 2000.0000000000000 -2833.3333333330002 -23371422.683028165 -420603.00158153835 -69449500.105385303 0.00014625352009778363 0.0094716409591528439 -0.0031771901613937099 1.1999999995568764 -3.9999999991053872 -4.7367342639850998 
3000.0000000000000 2000.0000000000000 -2666.6666666669998 -22219992.146641400 730827.53535771975 -65367155.468033306 0.00019220316207653763 0.010221295527344286 -0.0051049601387752278 1.3999999996086265 -3.9999999991902970 -4.9968487504707513 
3000.0000000000000 3000.0000000000000 -2666.6666666669998 -22219992.144361544 730827.53220614488 -65367155.454716079 0.00018031594335212882 0.0099773511910552868 -0.0050465827113651768 1.3999999996163266 -3.4999999990096242 -4.9968487492420079 
4000.0000000000000 3000.0000000000000 -2666.6666666669998 -22219992.143584393 730827.53143825603 -65367155.458752222 0.00014465027071529601 0.010207459008092525 -0.0032634728670784762 1.1999999996081294 -3.4999999990028487 -4.9968487498026528 
4000.0000000000000 2000.0000000000000 -2666.6666666669998 -22219992.145788118 730827.53459366609 -65367155.472515680 0.00014381853296134336 0.010085408586600906 -0.0032967345039959092 1.1999999996025184 -3.9999999991825481 -4.9968487510386259 
3000.0000000000000 2000.0000000000000 -2500.0000000000000 -21068458.514178928 1882361.1665201262 -61284445.316634119 0.00019193809283574463 0.010746275744910976 -0.0052773429312299117 1.3999999996516961 -3.9999999992716537 -5.2420637572231508 
3000.0000000000000 3000.0000000000000 -2500.0000000000000 -21068458.511894617 1882361.1638157081 -61284445.303743243 0.00017091860921919261 0.010437224235017062 -0.0051866732544532035 1.3999999996593770 -3.4999999991174198 -5.2420637559348782 
4000.0000000000000 3000.0000000000000 -2500.0000000000000 -21068458.511312801 1882361.1630568383 -61284445.307486370 0.00013335568345245881 0.010685361898169054 -0.0033374961177729816 1.1999999996552007 -3.4999999991109303 -5.2420637565109649 
4000.0000000000000 2000.0000000000000 -2500.0000000000000 -21068458.513517935 1882361.1657661516 -61284445.320845470 0.00013905225426701789 0.010640011143198472 -0.0033882616002878147 1.1999999996497726 -3.9999999992638169 -5.2420637578098486 
3000.0000000000000 2000.0000000000000 -2333.3333333330002 -19916821.777429763 3033997.9019338945 -57201369.613624997 0.00018811201029853182 0.011200875953232952 -0.0054127554224365406 1.3999999996966732 -3.9999999993574415 -5.4723779496457539 
3000.0000000000000 3000.0000000000000 -2333.3333333330002 -19916821.775125571 3033997.8997333301 -57201369.601141654 0.00015846653754814636 0.010813038617983627 -0.0052887403635669102 1.3999999997041757 -3.4999999992301385 -5.4723779483001787 
4000.0000000000000 3000.0000000000000 -2333.3333333330002 -19916821.774749480 3033997.8989778287 -57201369.604615182 0.00011993720967463252 0.011079030597029286 -0.0033812288592990876 1.1999999997038520 -3.4999999992240696 -5.4723779488901396 
4000.0000000000000 2000.0000000000000 -2333.3333333330002 -19916821.776973885 3033997.9011836806 -57201369.617577828 0.00013195181312854743 0.011125868422482166 -0.0034500184392132613 1.1999999996987107 -3.9999999993496691 -5.4723779502498466 
3000.0000000000000 2000.0000000000000 -2166.6666666669998 -18765081.927149497 4185737.7508446090 -53117928.326217994 0.00018065470098788645 0.011575233272900805 -0.0055081471412647591 1.3999999997437909 -3.9999999994482356 -5.6877899935702398 
3000.0000000000000 3000.0000000000000 -2166.6666666669998 -18765081.924812030 4185737.7492100140 -53117928.314138338 0.00014267738865183404 0.011095625472130886 -0.0053506667618254539 1.3999999997509462 -3.4999999993482591 -5.6877899921696322 
4000.0000000000000 3000.0000000000000 -2166.6666666669998 -18765081.924653485 4185737.7484532050 -53117928.317359008 0.00010426151459300118 0.011378675806043939 -0.0033934199962221286 1.1999999997541730 -3.4999999993427489 -5.6877899927720001 
4000.0000000000000 2000.0000000000000 -2166.6666666669998 -18765081.926913112 4185737.7500927309 -53117928.329918049 0.00012250352163236224 0.011532328499137746 -0.0034802005351073045 1.1999999997494266 -3.9999999994406825 -5.6877899941903189 
3000.0000000000000 2000.0000000000000 -2000.0000000000000 -17613238.954089299 5337580.7225021943 -49034121.421607360 0.00016946420504850590 0.011858088400433980 -0.0055599164758512697 1.3999999997933104 -3.9999999995447166 -5.8882985547124287 
3000.0000000000000 3000.0000000000000 -2000.0000000000000 -17613238.951706901 5337580.7215023078 -49034121.409942411 0.00012333859197495982 0.011275154799590736 -0.0053698222036408193 1.3999999997999433 -3.4999999994723519 -5.8882985532591698 
4000.0000000000000 3000.0000000000000 -2000.0000000000000 -17613238.951779373 5337580.7207401898 -49034121.412921846 8.6253063003059464e-05 0.011573784346672703 -0.0033727750955692671 1.1999999998062769 -3.4999999994675486 -5.8882985538725539 
4000.0000000000000 2000.0000000000000 -2000.0000000000000 -17613238.954088494 5337580.7217438556 -49034121.425055228 0.00011068416968712894 0.011847346745170481 -0.0034769634251270469 1.1999999998020339 -3.9999999995375393 -5.8882985553470766 
3000.0000000000000 2000.0000000000000 -1833.3333333329999 -16461292.849006407 6489526.8261506278 -44949948.867006622 0.00015441058623770276 0.012036630309649909 -0.0055638945174877989 1.3999999998455248 -3.9999999996476694 -6.0739022986645343 
3000.0000000000000 3000.0000000000000 -1833.3333333329999 -16461292.846568890 6489526.8258620258 -44949948.855782419 0.00010029663668161993 0.011341054212831268 -0.0053430337035925935 1.3999999998514527 -3.4999999996030833 -6.0739022971611938 
4000.0000000000000 3000.0000000000000 -1833.3333333329999 -16461292.846887570 6489526.8250911403 -44949948.858528033 6.5882531596178458e-05 0.011653059576556407 -0.0033179979608728423 1.1999999998602926 -3.4999999995991393 -6.0739022977842545 
4000.0000000000000 2000.0000000000000 -1833.3333333329999 -16461292.849259034 6489526.8253815398 -44949948.870198630 9.6457723678124196e-05 0.012057303912222475 -0.0034384738036586588 1.1999999998566633 -3.9999999996410258 -6.0739022993122926 
3000.0000000000000 2000.0000000000000 -1666.6666666670001 -15309243.602658929 7641576.0710333688 -40865410.629629955 0.00013533417537347307 0.012096147621234388 -0.0055152868652918819 1.3999999999007591 -3.9999999997579887 -6.2445998908994369 
3000.0000000000000 3000.0000000000000 -1666.6666666670001 -15309243.600157252 7641576.0715418207 -40865410.618887581 7.3447483520055242e-05 0.011281793482800877 -0.0052665321733522813 1.3999999999057944 -3.4999999997412101 -6.2445998893488444 
4000.0000000000000 3000.0000000000000 -1666.6666666670001 -15309243.600739317 7641576.0707590058 -40865410.621403687 4.3158224072398408e-05 0.011604258148216574 -0.0032278147378948996 1.1999999999163682 -3.4999999997382756 -6.2445998899802797 
4000.0000000000000 2000.0000000000000 -1666.6666666670001 -15309243.603184855 7641576.0702494839 -40865410.632559560 7.9776194328860895e-05 0.012146632062383060 -0.0033629397239019728 1.1999999999134621 -3.9999999997520455 -6.2445998915587859 
5000.0000000000000 8000.0000000000000 -4833.3333333330002 -37180551.057429783 -14229731.401333217 -118409137.05368261 9.6859508896629157e-05 -0.00028412800108749313 -3.2001022776448642e-05 0.99999999927417149 -0.99999999915309679 -0.45368638639763204 
5000.0000000000000 9000.0000000000000 -4833.3333333330002 -37180551.056117721 -14229731.399917785 -118409137.04860975 6.4322994668083560e-05 -0.00016814528102057530 -3.5414913566395612e-05 0.99999999927680494 -0.49999999957870045 -0.45368638637902603 
6000.0000000000000 8000.0000000000000 -4833.3333333330002 -37180551.057554998 -14229731.403110508 -118409137.06172405 2.9029254545534752e-05 -0.00029130456584065161 7.3982000363545901e-05 0.79999999937407318 -0.99999999915264426 -0.45368638643176296 
5000.0000000000000 8000.0000000000000 -5000.0000000000000 -37755622.370464019 -14804802.714432474 -120448026.25440571 9.6062520322192968e-05 -0.00014602437685687231 -1.2482007689983311e-05 0.99999999927095373 -0.99999999914931292 0.0000000000000000 
5000.0000000000000 9000.0000000000000 -5000.0000000000000 -37755622.369081900 -14804802.712944597 -120448026.24907120 6.4375507239366808e-05 -8.5991972039961350e-05 -1.4136837560367563e-05 0.99999999927357930 -0.49999999957681368 0.0000000000000000 
6000.0000000000000 8000.0000000000000 -5000.0000000000000 -37755622.370676279 -14804802.716304235 -120448026.26280235 2.6004984157677110e-05 -0.00014933987209921596 4.0308064084006095e-05 0.79999999937128707 -0.99999999914895232 0.0000000000000000 
5000.0000000000000 8000.0000000000000 -4666.6666666669998 -36030356.941548824 -13079537.285263225 -114331176.09748171 9.8911206681543857e-05 -0.00054522499408820040 -8.3140283747245135e-05 0.99999999928337657 -0.99999999916407123 -0.89249062426803139 
5000.0000000000000 9000.0000000000000 -4666.6666666669998 -36030356.940371551 -13079537.283988623 -114331176.09292370 6.4136074631014256e-05 -0.00032504889698028430 -9.0193615620917574e-05 0.99999999928603056 -0.49999999958417929 -0.89249062423269643 
6000.0000000000000 8000.0000000000000 -4666.6666666669998 -36030356.941517457 -13079537.286862094 -114331176.10483463 3.7079188374858723e-05 -0.00056084332872350403 0.00012919048224905192 0.79999999938211119 -0.99999999916337312 -0.89249062433346282 
5000.0000000000000 8000.0000000000000 -4500.0000000000000 -34880059.841420949 -11929240.184835650 -110252850.01538353 0.00010150437027799085 -0.00077759150952973091 -0.00015503651060698185 0.99999999929774497 -0.99999999918150173 -1.3164113811229414 
5000.0000000000000 9000.0000000000000 -4500.0000000000000 -34880059.840368658 -11929240.183693260 -110252850.01132293 6.3749041324432892e-05 -0.00046773127062929972 -0.00016577262717758134 0.99999999930042371 -0.49999999959289620 -1.3164113810727189 
6000.0000000000000 8000.0000000000000 -4500.0000000000000 -34880059.841265678 -11929240.186275413 -110252850.02209096 4.8031346947259111e-05 -0.00080247622665718054 0.00016228788850377259 0.79999999939478783 -0.99999999918045812 -1.3164113812169793 
5000.0000000000000 8000.0000000000000 -4333.3333333330002 -33729659.747808002 -10778840.090825982 -106174158.77463099 0.00010399382441009678 -0.00098412476806502376 -0.00024160406930617457 0.99999999931658146 -0.99999999920469151 -1.7254473243465822 
5000.0000000000000 9000.0000000000000 -4333.3333333330002 -33729659.746872269 -10778840.089806389 -106174158.77104913 6.3092937934961305e-05 -0.00059731872320055392 -0.00025574357467318134 0.99999999931928030 -0.49999999960451008 -1.7254473242832673 
6000.0000000000000 8000.0000000000000 -4333.3333333330002 -33729659.747557297 -10778840.092122905 -106174158.78073406 6.0016854472291191e-05 -0.0010180446988546725 0.00017745202428551339 0.79999999941154276 -0.99999999920325267 -1.7254473244666753 
5000.0000000000000 8000.0000000000000 -4166.6666666669998 -32579156.651472583 -9628336.9940087199 -102095102.34246722 0.00010592595169158841 -0.0011675517558175760 -0.00033801656871495296 0.99999999933929495 -0.99999999923298499 -2.1195971212039315 
5000.0000000000000 9000.0000000000000 -4166.6666666669998 -32579156.650646076 -9628336.9931021146 -102095102.33934432 6.2110669581929507e-05 -0.00071485902403546099 -0.00035506859166392391 0.99999999934200090 -0.49999999961869651 -2.1195971211292615 
6000.0000000000000 8000.0000000000000 -4166.6666666669998 -32579156.651151419 -9628336.9951766916 -102095102.34800473 7.1748271206102787e-05 -0.0012095686029935492 0.00017853829891156244 0.79999999943186983 -0.99999999923114125 -2.1195971213476721 
5000.0000000000000 8000.0000000000000 -4000.0000000000000 -31428550.543172464 -8477730.8851521146 -98015680.686116904 0.00010700172172051292 -0.0013304255411767001 -0.00044026985844762328 0.99999999936538231 -0.99999999926576577 -2.4988594388474286 
5000.0000000000000 9000.0000000000000 -4000.0000000000000 -31428550.542448647 -8477730.8843486663 -98015680.683432281 6.0760750743877764e-05 -0.00082132671925430199 -0.00045961418861022678 0.99999999936807693 -0.49999999963514774 -2.4988594387630747 
6000.0000000000000 8000.0000000000000 -4000.0000000000000 -31428550.542803064 -8477730.8862032071 -98015680.691125348 8.2368076961547522e-05 -0.0013791726136071567 0.00016904056360280456 0.79999999945531286 -0.99999999926353855 -2.4988594390125436 
5000.0000000000000 8000.0000000000000 -3833.3333333330002 -30277841.413670834 -7327021.7550285300 -93935893.772823125 0.00010703775186378976 -0.0014750957275805959 -0.00054491303081229256 0.99999999939441164 -0.99999999930245831 -2.8632329443027911 
5000.0000000000000 9000.0000000000000 -3833.3333333330002 -30277841.413043745 -7327021.7543186946 -93935893.770555094 5.9015595571153013e-05 -0.00091761087755006226 -0.00056588620880391256 0.99999999939707329 -0.49999999965357306 -2.8632329442103521 
6000.0000000000000 8000.0000000000000 -3833.3333333330002 -30277841.413273148 -7327021.7559733791 -93935893.777336597 9.1328909675204105e-05 -0.0015289947251690807 0.00015208968819065396 0.79999999948146372 -0.99999999929989059 -2.8632329444871427 
5000.0000000000000 8000.0000000000000 -3666.6666666669998 -29127029.253730983 -6176209.5944092218 -89855741.569828540 0.00010593592515739767 -0.0016036971296578511 -0.00064883954040320831 0.99999999942601447 -0.99999999934252581 -3.2127163044765039 
5000.0000000000000 9000.0000000000000 -3666.6666666669998 -29127029.253195077 -6176209.5937840538 -89855741.567954659 5.6859910606176853e-05 -0.0010045086749552890 -0.00067078374793979960 0.99999999942861817 -0.49999999967369890 -3.2127163043774969 
6000.0000000000000 8000.0000000000000 -3666.6666666669998 -29127029.253323004 -6176209.5952573344 -89855741.573878899 9.8304941113823332e-05 -0.0016611088006501715 0.00013047440021042467 0.79999999950995970 -0.99999999933967587 -3.2127163046780760 
5000.0000000000000 8000.0000000000000 -3500.0000000000000 -27976114.054111145 -5025294.3940592557 -85775224.044357240 0.00010365826744801687 -0.0017181194917995760 -0.00074922744835634141 0.99999999945987550 -0.99999999938546935 -3.5473081861617031 
5000.0000000000000 9000.0000000000000 -3500.0000000000000 -27976114.053661175 -5025294.3935106630 -85775224.042854220 5.4289271490378459e-05 -0.0010827147965159121 -0.00077153203369752449 0.99999999946239648 -0.49999999969526809 -3.5473081860575602 
6000.0000000000000 8000.0000000000000 -3500.0000000000000 -27976114.053709112 -5025294.3948191963 -85775224.047974333 0.00010313157264136392 -0.0017774613564776843 0.00010666002029811891 0.79999999954047807 -0.99999999938240447 -3.5473081863786002 
5000.0000000000000 8000.0000000000000 -3333.3333333330002 -26825095.805574842 -3874276.1447478877 -81694341.163651317 0.00010020770169360472 -0.0018199587351646852 -0.00084349784830604153 0.99999999949572871 -0.99999999943082585 -3.8670072560256115 
5000.0000000000000 9000.0000000000000 -3333.3333333330002 -26825095.805205792 -3874276.1442688736 -81694341.162495151 5.1307781473526910e-05 -0.0011528028987669056 -0.00086562232111675181 0.99999999949814178 -0.49999999971803882 -3.8670072559176742 
6000.0000000000000 8000.0000000000000 -3333.3333333330002 -26825095.805193312 -3874276.1454274403 -81694341.166863129 0.00010575652253773526 -0.0018797908930613936 8.2796720761662754e-05 0.79999999957273460 -0.99999999942761808 -3.8670072562560480 
5000.0000000000000 8000.0000000000000 -3166.6666666669998 -25673974.498885702 -2723154.8372434620 -77613092.894952476 9.5612922870972695e-05 -0.0019105192071772344 -0.00092931420681020090 0.99999999953335095 -0.99999999947816509 -4.1718121806162154 
5000.0000000000000 9000.0000000000000 -3166.6666666669998 -25673974.498592723 -2723154.8368283305 -77613092.894118473 4.7924580874270265e-05 -0.0012152105505973498 -0.00095079935026095241 0.99999999953563090 -0.49999999974178511 -4.1718121805057287 
6000.0000000000000 8000.0000000000000 -3166.6666666669998 -25673974.498537533 -2723154.8378496706 -77613092.897785172 0.00010619847933519770 -0.0019695926734973517 6.0723778102874763e-05 0.79999999960647883 -0.99999999947488927 -4.1718121808585105 
5000.0000000000000 8000.0000000000000 -3000.0000000000000 -24522750.124802217 -1571930.4623082187 -73531479.205483556 8.9918882740915875e-05 -0.0019907726073713711 -0.0010045468053237014 0.99999999957255725 -0.99999999952708918 -4.4617216263673569 
5000.0000000000000 9000.0000000000000 -3000.0000000000000 -24522750.124580637 -1571930.4619527822 -73531479.204946324 4.4152982689955722e-05 -0.0012702193418619558 -0.0010250435793541885 0.99999999957468044 -0.49999999976629450 -4.4617216262554633 
6000.0000000000000 8000.0000000000000 -3000.0000000000000 -24522750.124498572 -1571930.4628475024 -73531479.207961872 0.00010452551636399389 -0.0020480590563453581 4.1992783108799589e-05 0.79999999964149116 -0.99999999952381835 -4.4617216266199273 
5000.0000000000000 8000.0000000000000 -2833.3333333330002 -23371422.674088117 -420603.01070875319 -69449500.062485188 8.3180194099853106e-05 -0.0020613282579234628 -0.0010673022197221378 0.99999999961319830 -0.99999999957722807 -4.7367342595877515 
5000.0000000000000 9000.0000000000000 -2833.3333333330002 -23371422.673933420 -420603.01041050482 -69449500.062218696 4.0009016324820764e-05 -0.0013179539252618300 -0.0010865699836606238 0.99999999961514152 -0.49999999979136767 -4.7367342594754875 
6000.0000000000000 8000.0000000000000 -2833.3333333330002 -23371422.673838448 -420603.01118697936 -69449500.064632699 0.00010084042315514094 -0.0021160252438629772 2.7845208364391620e-05 0.79999999967758029 -0.99999999957403340 -4.7367342598491122 
5000.0000000000000 8000.0000000000000 -2666.6666666669998 -22219992.137507223 730827.52678905940 -65367155.433197603 7.5455180720517288e-05 -0.0021223891412535589 -0.0011159657066636436 0.99999999965515485 -0.99999999962823849 -4.9968487464668847 
5000.0000000000000 9000.0000000000000 -2666.6666666669998 -22219992.137415089 730827.52703076869 -65367155.433175318 3.5509021877565096e-05 -0.0013583441359202105 -0.0011338492729655626 0.99999999965689568 -0.49999999981681681 -4.9968487463551767 
6000.0000000000000 8000.0000000000000 -2666.6666666669998 -22219992.137319125 730827.52636659471 -65367155.435036741 9.5265365118324535e-05 -0.0021739372058398321 1.9204687755487599e-05 0.79999999971457847 -0.99999999962518804 -4.9968487467356439 
5000.0000000000000 8000.0000000000000 -2500.0000000000000 -21068458.505818211 1882361.1594252351 -61284445.284842066 6.6806547341130736e-05 -0.0021737498171574845 -0.0011491858320237674 0.99999999969833397 -0.99999999967979836 -5.2420637530792815 
5000.0000000000000 9000.0000000000000 -2500.0000000000000 -21068458.505784493 1882361.1596090812 -61284445.285036869 3.0672035025099656e-05 -0.0013911245470373142 -0.0011656273872190231 0.99999999969985276 -0.49999999984246463 -5.2420637529689422 
6000.0000000000000 8000.0000000000000 -2500.0000000000000 -21068458.505697377 1882361.1590537282 -61284445.286394484 8.7935029170774402e-05 -0.0022218073839401970 1.6668969655807718e-05 0.79999999975234026 -0.99999999967695608 -5.2420637533541390 
5000.0000000000000 8000.0000000000000 -2333.3333333330002 -19916821.769784957 3033997.8964352161 -57201369.584657647 5.7298612922540730e-05 -0.0022147632357782544 -0.0011658961118929862 0.99999999974266796 -0.99999999973160592 -5.4723779453751442 
5000.0000000000000 9000.0000000000000 -2333.3333333330002 -19916821.769805714 3033997.8965577679 -57201369.585041873 2.5519401691984557e-05 -0.0014158265133349473 -0.0011809335364058428 0.99999999974394527 -0.49999999986814198 -5.4723779452668699 
6000.0000000000000 8000.0000000000000 -2333.3333333330002 -19916821.769735113 3033997.8961103242 -57201369.585944459 7.8992990868496620e-05 -0.0022591893362577252 2.0515971129660468e-05 0.79999999979073855 -0.99999999972902998 -5.4723779456548973 
5000.0000000000000 8000.0000000000000 -2166.6666666669998 -18765081.920171414 4185737.7470549713 -53117928.299882792 4.6997390491489009e-05 -0.0022443000105956705 -0.0011653409373392051 0.99999999978810661 -0.99999999978337495 -5.6877899891854407 
5000.0000000000000 9000.0000000000000 -2166.6666666669998 -18765081.920242943 4185737.7471105396 -53117928.300428398 2.0072932976611580e-05 -0.0014317374718176784 -0.0011790798672868140 0.99999999978912524 -0.49999999989368693 -5.6877899890798016 
6000.0000000000000 8000.0000000000000 -2166.6666666669998 -18765081.920194153 4185737.7467728076 -53117928.300924726 6.8591377675962750e-05 -0.0022851482439059391 3.0695057658321778e-05 0.79999999982966097 -0.99999999978111742 -5.6877899894689756 
5000.0000000000000 8000.0000000000000 -2000.0000000000000 -17613238.947736394 5337580.7205260824 -49034121.397737056 3.5975113906854537e-05 -0.0022607682612145511 -0.0011471109762192170 0.99999999983461751 -0.99999999983482990 -5.8882985502253664 
5000.0000000000000 9000.0000000000000 -2000.0000000000000 -17613238.947855242 5337580.7205066225 -49034121.398415647 1.4355649776479585e-05 -0.0014379280884845099 -0.0011597256990448150 0.99999999983536203 -0.49999999991894251 -5.8882985501228085 
6000.0000000000000 8000.0000000000000 -2000.0000000000000 -17613238.947831132 5337580.7202831376 -49034121.398554832 5.6896470145045730e-05 -0.0022982297929717626 4.6788142110498696e-05 0.79999999986900872 -0.99999999983293730 -5.8882985505116707 
5000.0000000000000 8000.0000000000000 -1833.3333333329999 -16461292.843243901 6489526.8260853384 -44949948.845457628 2.4311213336121448e-05 -0.0022620441566630505 -0.0011111692020845977 0.99999999988217969 -0.99999999988570398 -6.0739022940865990 
5000.0000000000000 9000.0000000000000 -1833.3333333329999 -16461292.843406878 6489526.8259803448 -44949948.846240491 8.3945564739520481e-06 -0.0014332152527091310 -0.0011228783078317207 0.99999999988263699 -0.49999999994375466 -6.0739022939874383 
6000.0000000000000 8000.0000000000000 -1833.3333333329999 -16461292.843407756 6489526.8258784413 -44949948.846072249 4.4086910648623374e-05 -0.0022964262098829099 6.8030950823619421e-05 0.79999999990869231 -0.99999999988421451 -6.0739022943747614 
5000.0000000000000 8000.0000000000000 -1666.6666666670001 -15309243.597458061 7641576.0729697291 -40865410.610281304 1.2095682558488988e-05 -0.0022454750674660885 -0.0010578564762676872 0.99999999993078259 -0.99999999993573208 -6.2445998862415610 
5000.0000000000000 9000.0000000000000 -1666.6666666670001 -15309243.597662251 7641576.0727661559 -40865410.611139424 2.2227845544740380e-06 -0.0014161617300952698 -0.0010689047088578408 0.99999999993094080 -0.49999999996797040 -6.2445998861459877 
6000.0000000000000 8000.0000000000000 -1666.6666666670001 -15309243.597685711 7641576.0727960337 -40865410.610714182 3.0356048342692488e-05 -0.0022771629449390941 9.3297304894058227e-05 0.79999999994862825 -0.99999999993467648 -6.2445998865307795 
8000.0000000000000 1000.0000000000000 -4833.3333333330002 -37180551.090909451 -14229731.398634497 -118409137.22392385 -0.00020380828324718407 0.00040365763343512692 -7.3529029534184242e-05 0.39999999958995536 -4.4999999991519175 -0.45368638712432408 
8000.0000000000000 0.0000000000000000 -4833.3333333330002 -37180551.092302844 -14229731.397489673 -118409137.23181424 -0.00017137480589021913 0.00023149913113913972 -1.9997028063053433e-05 0.39999999959866844 -5.0000000000000000 -0.45368638716171761 
7000.0000000000000 1.0774409110000000e-29 -4833.3333333330002 -37180551.092125796 -14229731.395909777 -118409137.22554401 3.1073806357818603e-05 0.00028117528415499949 9.9914275942034446e-05 0.59999999946961036 -5.0000000000000000 -0.45368638713296500 
7000.0000000000000 1000.0000000000000 -4833.3333333330002 -37180551.090762757 -14229731.397094127 -118409137.21709967 6.3525546126985444e-05 0.00045651690675947303 0.00010090885578009675 0.59999999947059424 -4.4999999991434949 -0.45368638708548786 
8000.0000000000000 1000.0000000000000 -5000.0000000000000 -37755622.405944385 -14804802.713568538 -120448026.43191692 -0.00021448419191746001 0.00019475770235916843 -3.2430763553659508e-05 0.39999999958662447 -4.4999999991479314 0.0000000000000000 
8000.0000000000000 0.0000000000000000 -5000.0000000000000 -37755622.407449581 -14804802.712523714 -120448026.44022888 -0.00018076139242477547 0.00011194384653755632 -5.4671186149088076e-06 0.39999999959593213 -5.0000000000000000 0.0000000000000000 
7000.0000000000000 0.0000000000000000 -5000.0000000000000 -37755622.407170244 -14804802.710801728 -120448026.43346195 3.1448125491574883e-05 0.00013737870462135466 5.1651926794260522e-05 0.59999999946721239 -5.0000000000000000 0.0000000000000000 
7000.0000000000000 1000.0000000000000 -5000.0000000000000 -37755622.405683897 -14804802.711875150 -120448026.42451926 6.4205465375205507e-05 0.00022146215868750580 5.2165312075012770e-05 0.59999999946821247 -4.4999999991389075 0.0000000000000000 
8000.0000000000000 1000.0000000000000 -4666.6666666669998 -36030356.971248314 -13079537.279257670 -114331176.25379439 -0.00017595820531120734 0.00084462702306800121 -0.00016722229108806524 0.39999999959887944 -4.4999999991629513 -0.89249062566584658 
8000.0000000000000 0.0000000000000000 -4666.6666666669998 -36030356.972445093 -13079537.277947357 -114331176.26092048 -0.00014738411294564058 0.00048285221467362353 -6.2655332595693054e-05 0.39999999960619836 -5.0000000000000000 -0.89249062573704419 
7000.0000000000000 4.7197855770000003e-30 -4666.6666666669998 -36030356.972425319 -13079537.276626904 -114331176.25555171 3.0142913677339628e-05 0.00057768144461027473 0.00018953620247028435 0.59999999947647353 -5.0000000000000000 -0.89249062568443838 
7000.0000000000000 1000.0000000000000 -4666.6666666669998 -36030356.971272983 -13079537.277989598 -114331176.24801251 6.1830018753498167e-05 0.00094746243792939516 0.00019140290339949358 0.59999999947742133 -4.4999999991559534 -0.89249062559604497 
8000.0000000000000 1000.0000000000000 -4500.0000000000000 -34880059.867767163 -11929240.176204760 -110252850.15894045 -0.00013914798895087502 0.0013232216439894836 -0.00027492096991624552 0.39999999961162702 -4.4999999991794191 -1.3164113831407214 
8000.0000000000000 0.0000000000000000 -4500.0000000000000 -34880059.868814804 -11929240.174787490 -110252850.16544564 -0.00011678552678569669 0.00075373460786918364 -0.00012529526585468930 0.39999999961732924 -5.0000000000000000 -1.3164113832428221 
7000.0000000000000 7.0796783649999997e-30 -4500.0000000000000 -34880059.868878588 -11929240.173682239 -110252850.16081583 2.9027898945674503e-05 0.00088610613276598853 0.00026516124801119121 0.59999999948723226 -5.0000000000000000 -1.3164113831701527 
7000.0000000000000 1000.0000000000000 -4500.0000000000000 -34880059.867876194 -11929240.175151685 -110252850.15401421 5.9761743075798171e-05 0.0014698700966703710 0.00026769517137302794 0.59999999948814209 -4.4999999991741086 -1.3164113830460504 
8000.0000000000000 1000.0000000000000 -4333.3333333330002 -33729659.771197431 -10778840.080169732 -106174158.90650916 -9.9712599653733444e-05 0.0018246421157164677 -0.00038291185775399597 0.39999999962703525 -4.4999999992001243 -1.7254473269371859 
8000.0000000000000 0.0000000000000000 -4333.3333333330002 -33729659.772132233 -10778840.078686699 -106174158.91251113 -8.5347036293896810e-05 0.0010359326738936532 -0.00019646606019893867 0.39999999963117028 -5.0000000000000000 -1.7254473270678505 
7000.0000000000000 0.0000000000000000 -4333.3333333330002 -33729659.772238560 -10778840.077761671 -106174158.90849555 2.7980171261618510e-05 0.0011973648924912667 0.00032661078060621667 0.59999999950145000 -5.0000000000000000 -1.7254473269780768 
7000.0000000000000 1000.0000000000000 -4333.3333333330002 -33729659.771343544 -10778840.079291079 -106174158.90229222 5.7736428284322562e-05 0.0020069963466556617 0.00032960280993465777 0.59999999950232652 -4.4999999991964872 -1.7254473268223376 
8000.0000000000000 1000.0000000000000 -4166.6666666669998 -32579156.672272291 -9628336.9818574283 -102095102.46365581 -6.1219718497077045e-05 0.0023383001376062668 -0.00048427071193738434 0.39999999964433458 -4.4999999992241824 -2.1195971243238780 
8000.0000000000000 0.0000000000000000 -4166.6666666669998 -32579156.673122358 -9628336.9803384412 -102095102.46925150 -5.5920865233580543e-05 0.0013239221471797557 -0.00026958942864459501 0.39999999964706817 -5.0000000000000000 -2.1195971244812291 
7000.0000000000000 0.0000000000000000 -4166.6666666669998 -32579156.673248611 -9628336.9795657583 -102095102.46575402 2.7086242543526256e-05 0.0015066101021572753 0.00037422845263069074 0.59999999951874960 -5.0000000000000000 -2.1195971243766909 
7000.0000000000000 1000.0000000000000 -4166.6666666669998 -32579156.672430292 -9628336.9811234567 -102095102.46003331 5.5892482686954513e-05 0.0025480336324170396 0.00037750754281353491 0.59999999951959804 -4.4999999992220765 -2.1195971241924663 
8000.0000000000000 1000.0000000000000 -4000.0000000000000 -31428550.561720662 -8477730.8719763551 -98015680.797524139 -2.5591460242815006e-05 0.0028564511242641483 -0.00057605570546160364 0.39999999966300942 -4.4999999992509521 -2.4988594424565735 
8000.0000000000000 0.0000000000000000 -4000.0000000000000 -31428550.562508035 -8477730.8704437427 -98015680.802793682 -2.9770911734125509e-05 0.0016139230251711880 -0.00034115064269149152 0.39999999966454580 -5.0000000000000000 -2.4988594426391129 
7000.0000000000000 -6.0354824400000000e-30 -4000.0000000000000 -31428550.562641785 -8477730.8698009253 -98015680.799739659 2.6343519620858421e-05 0.0018112541802535471 0.00040897382049888517 0.59999999953878225 -5.0000000000000000 -2.4988594425216943 
7000.0000000000000 1000.0000000000000 -4000.0000000000000 -31428550.561877459 -8477730.8713645358 -98015680.794405609 5.4226368879705311e-05 0.0030858471489670792 0.00041241411424308862 0.59999999953960736 -4.4999999992501820 -2.4988594423113919 
8000.0000000000000 1000.0000000000000 -3833.3333333330002 -30277841.430277422 -7327021.7412475534 -93935893.875281930 6.2454828788449150e-06 0.0033732477191251563 -0.00065757492870220484 0.39999999968270938 -4.4999999992799724 -2.8632329483640397 
8000.0000000000000 0.0000000000000000 -3833.3333333330002 -30277841.431019641 -7327021.7397187678 -93935893.880291700 -7.2948994216256589e-06 0.0019031948716249684 -0.00040950223367155819 0.39999999968325289 -5.0000000000000000 -2.8632329485705865 
7000.0000000000000 -1.8821719000000001e-29 -3833.3333333330002 -30277841.431153905 -7327021.7391874120 -93935893.877622515 2.5704537405550202e-05 0.0021097916923457703 0.00043230795355877669 0.59999999956122096 -5.0000000000000000 -2.8632329484418300 
7000.0000000000000 1000.0000000000000 -3833.3333333330002 -30277841.430426355 -7327021.7407402378 -93935893.872595623 5.2669341807433635e-05 0.0036155001209878003 0.00043582570221740286 0.59999999956202554 -4.4999999992803348 -2.8632329482072731 
8000.0000000000000 1000.0000000000000 -3666.6666666669998 -29127029.268678319 -6176209.5803982001 -89855741.664101705 3.3957684506115350e-05 0.0038839563965927405 -0.00072931347985809324 0.39999999970319161 -4.4999999993109405 -3.2127163089555455 
8000.0000000000000 0.0000000000000000 -3666.6666666669998 -29127029.269389547 -6176209.5788876330 -89855741.668906718 1.1565670784700387e-05 0.0021895437878929926 -0.00047406602869791734 0.39999999970292888 -5.0000000000000000 -3.2127163091851751 
7000.0000000000000 -2.6904576700000000e-29 -3666.6666666669998 -29127029.269520208 -6176209.5784524735 -89855741.666575640 2.5108076938483454e-05 0.0024012124613867350 0.00044602683243137180 0.59999999958575645 -5.0000000000000000 -3.2127163090463728 
7000.0000000000000 1000.0000000000000 -3666.6666666669998 -29127029.268816069 -6176209.5799811501 -89855741.661790222 5.1127707128965748e-05 0.0041333100796839099 0.00044956332690112579 0.59999999958654116 -4.4999999993122382 -3.2127163087889232 
8000.0000000000000 1000.0000000000000 -3500.0000000000000 -27976114.067654986 -5025294.3801555531 -85775224.131141692 5.7546659057534168e-05 0.0043846527349930917 -0.00079230013945829963 0.39999999972428291 -4.4999999993436655 -3.5473081910267692 
8000.0000000000000 0.0000000000000000 -3500.0000000000000 -27976114.068346821 -5025294.3786757970 -85775224.135787338 2.7084272497634592e-05 0.0024711932959407203 -0.00053484638790737935 0.39999999972337674 -5.0000000000000000 -3.5473081912787716 
7000.0000000000000 0.0000000000000000 -3500.0000000000000 -27976114.068471164 -5025294.3783239573 -85775224.133756459 2.4488954868631152e-05 0.0026847144166043217 0.00045208292360323580 0.59999999961209960 -5.0000000000000000 -3.5473081911310325 
7000.0000000000000 1000.0000000000000 -3500.0000000000000 -27976114.067779806 -5025294.3798169531 -85775224.129158482 4.9505455048308999e-05 0.0046363262469257859 0.00045559406262771625 0.59999999961286299 -4.4999999993457216 -3.5473081908516875 
8000.0000000000000 1000.0000000000000 -3333.3333333330002 -26825095.817945454 -3874276.1312566143 -81694341.243581951 7.7198903053697049e-05 0.0048717905336920272 -0.00084772042037011583 0.39999999974585571 -4.4999999993780584 -3.8670072612472519 
8000.0000000000000 0.0000000000000000 -3333.3333333330002 -26825095.818627536 -3874276.1298194006 -81694341.248105571 3.9624701160852915e-05 0.0027464936671884057 -0.00059211117505517412 0.39999999974444417 -5.0000000000000000 -3.8670072615210893 
7000.0000000000000 0.0000000000000000 -3333.3333333330002 -26825095.818743534 -3874276.1295398590 -81694341.246343389 2.3789465340738336e-05 0.0029594532744369080 0.00045244262100431248 0.59999999963998218 -5.0000000000000000 -3.8670072613653796 
7000.0000000000000 1000.0000000000000 -3333.3333333330002 -26825095.818056311 -3874276.1309864135 -81694341.241888806 4.7718232886834952e-05 0.0051218705267067890 0.00045589260008426549 0.59999999964072159 -4.4999999993807158 -3.8670072610648600 
8000.0000000000000 1000.0000000000000 -3166.6666666669998 -25673974.510289028 -2723154.8244423456 -77613092.968605354 9.3194942350961128e-05 0.0053418837522232997 -0.00089669571784388295 0.39999999976781331 -4.4999999994141175 -4.1718121861670818 
8000.0000000000000 0.0000000000000000 -3166.6666666669998 -25673974.510969501 -2723154.8230592757 -77613092.973037228 4.9573745343958131e-05 0.0030137380330468293 -0.00064618632078222249 0.39999999976601075 -5.0000000000000000 -4.1718121864623576 
7000.0000000000000 4.6309918630000001e-29 -3166.6666666669998 -25673974.511075471 -2723154.8228425044 -77613092.971517146 2.2961244162095394e-05 0.0032243994316226402 0.00044898998973922982 0.59999999966915918 -5.0000000000000000 -4.1718121862995412 
7000.0000000000000 1000.0000000000000 -3166.6666666669998 -25673974.510385193 -2723154.8242318239 -77613092.967170373 4.5693636684785905e-05 0.0055872632122690958 0.00045234212262798871 0.59999999966987028 -4.4999999994172413 -4.1718121859783510 
8000.0000000000000 1000.0000000000000 -3000.0000000000000 -24522750.135421176 -1571930.4504520511 -73531479.273378864 0.00010584476410431106 0.0057913950699128858 -0.00094019138560953665 0.39999999979007983 -4.4999999994519166 -4.4617216322220044 
8000.0000000000000 0.0000000000000000 -3000.0000000000000 -24522750.136106990 -1571930.4491352038 -73531479.277743042 5.7298873281028633e-05 0.0032711677309449154 -0.00069737457688113093 0.39999999978797929 -5.0000000000000000 -4.4617216325384286 
7000.0000000000000 0.0000000000000000 -3000.0000000000000 -24522750.136201460 -1571930.4489728429 -73531479.276442021 2.1961314824968682e-05 0.0034782352103828844 0.00044340807038839602 0.59999999969940943 -5.0000000000000000 -4.4617216323692848 
7000.0000000000000 1000.0000000000000 -3000.0000000000000 -24522750.135502052 -1571930.4502935107 -73531479.272175029 4.3366071724723957e-05 0.0060295894271828439 0.00044662021372538857 0.59999999970008699 -4.4999999994553903 -4.4617216320277713 
8000.0000000000000 1000.0000000000000 -2833.3333333330002 -23371422.684083845 -420603.00003337674 -69449500.125089794 0.00011544702119589224 0.0062165104362571595 -0.00097894977861641549 0.39999999981259343 -4.4999999994915996 -4.7367342657224398 
8000.0000000000000 0.0000000000000000 -2833.3333333330002 -23371422.684781067 -420602.99879585393 -69449500.129404753 6.3126605758891431e-05 0.0035168059526132045 -0.00074588262633392246 0.39999999981027040 -5.0000000000000000 -4.7367342660598082 
7000.0000000000000 0.0000000000000000 -2833.3333333330002 -23371422.684862789 -420602.99868052028 -69449500.128302529 2.0756667344540816e-05 0.0037193439164228382 0.00043714606689563315 0.59999999973053431 -5.0000000000000000 -4.7367342658850529 
7000.0000000000000 1000.0000000000000 -2833.3333333330002 -23371422.684148982 -420602.99991994444 -69449500.124093845 4.0684589322016417e-05 0.0064455720287466779 0.00044017411248156496 0.59999999973117191 -4.4999999994953237 -4.7367342655234514 
8000.0000000000000 1000.0000000000000 -2666.6666666669998 -22219992.147020377 730827.53606304224 -65367155.490927465 0.00012226657284398411 0.0066130002686058302 -0.0010134793006195365 0.39999999983530365 -4.4999999995333724 -4.9968487528593961 
8000.0000000000000 0.0000000000000000 -2666.6666666669998 -22219992.147734307 730827.53720664326 -65367155.495206393 6.7331423109814989e-05 0.0037483953969046219 -0.00079178611543139052 0.39999999983281820 -5.0000000000000000 -4.9968487532175567 
7000.0000000000000 9.6621616689999997e-29 -2666.6666666669998 -22219992.147802241 730827.53728157957 -65367155.494284742 1.9322637093392780e-05 0.0039457515186302455 0.00043137793915426362 0.59999999976235829 -5.0000000000000000 -4.9968487530378551 
7000.0000000000000 1000.0000000000000 -2666.6666666669998 -22219992.147069439 730827.53613760695 -65367155.490119047 3.7611102501332146e-05 0.0068314370963785702 0.00043417275907819416 0.59999999976294882 -4.4999999995372635 -4.9968487526563257 
8000.0000000000000 1000.0000000000000 -2500.0000000000000 -21068458.514970087 1882361.1670890911 -61284445.338064164 0.00012652177043017516 0.0069760673611476576 -0.0010440582505423241 0.39999999985816798 -4.4999999995775051 -5.2420637597087358 
8000.0000000000000 0.0000000000000000 -2500.0000000000000 -21068458.515705429 1882361.1681221756 -61284445.342315152 7.0141454912331117e-05 0.0039633143718753421 -0.00083501366081904999 0.39999999985556872 -5.0000000000000000 -5.2420637600875706 
7000.0000000000000 1.0352316070000000e-28 -2500.0000000000000 -21068458.515758835 1882361.1681626716 -61284445.341557540 1.7642359784402596e-05 0.0041549635466328026 0.00042697636715832157 0.59999999979472640 -5.0000000000000000 -5.2420637599035427 
7000.0000000000000 1000.0000000000000 -2500.0000000000000 -21068458.515002958 1882361.1671304915 -61284445.337425202 3.4111570258241723e-05 0.0071827072833482684 0.00042947571144152073 0.59999999979526242 -4.4999999995814903 -5.2420637595022095 
8000.0000000000000 1000.0000000000000 -2333.3333333330002 -19916821.778678596 3033997.9022889407 -57201369.633691736 0.00012837775847546952 0.0073001795473031207 -0.0010707405763991913 0.39999999988115198 -4.4999999996243352 -5.4723779522218230 
8000.0000000000000 0.0000000000000000 -2333.3333333330002 -19916821.779439569 3033997.9031923646 -57201369.637917846 7.1734867951146422e-05 0.0041584595154360556 -0.00087534440559879729 0.39999999987847779 -5.0000000000000000 -5.4723779526212191 
7000.0000000000000 1.1042470480000000e-28 -2333.3333333330002 -19916821.779478028 3033997.9032038241 -57201369.637309134 1.5705070461957828e-05 0.0043439718392901576 0.00042450422512993675 0.59999999982750307 -5.0000000000000000 -5.4723779524334493 
7000.0000000000000 1000.0000000000000 -2333.3333333330002 -19916821.778695412 3033997.9023024463 -57201369.633205958 3.0162730429714214e-05 0.0074941230982563320 0.00042663876204280366 0.59999999982797647 -4.4999999996283480 -5.4723779520124332 
8000.0000000000000 1000.0000000000000 -2166.6666666669998 -18765081.928892490 4185737.7509043217 -53117928.345002890 0.00012794039787317988 0.0075788623710533404 -0.0010933703529631899 0.39999999990422858 -4.4999999996742552 -5.6877899962306069 
8000.0000000000000 0.0000000000000000 -2166.6666666669998 -18765081.929682925 4185737.7516557872 -53117928.349202089 7.2232984074445801e-05 0.0043301538992200914 -0.00091240776938476256 0.39999999990151169 -5.0000000000000000 -5.6877899966504302 
7000.0000000000000 1.0097419590000000e-28 -2166.6666666669998 -18765081.929706328 4185737.7516432172 -53117928.348728135 1.3499493867809775e-05 0.0045091663421811118 0.00042419712708630602 0.59999999986056862 -5.0000000000000000 -5.6877899964594718 
7000.0000000000000 1000.0000000000000 -2166.6666666669998 -18765081.928893685 4185737.7508948445 -53117928.344655491 2.5744875613939932e-05 0.0077594555163517983 0.00042589762209974222 0.59999999986097141 -4.4999999996782405 -5.6877899960189247 
8000.0000000000000 1000.0000000000000 -2000.0000000000000 -17613238.956354078 5337580.7221796997 -49034121.439172842 0.00012524916764868592 0.0078045546331081137 -0.0011115776125587577 0.39999999992737811 -4.4999999997277387 -5.8882985574510931 
8000.0000000000000 0.0000000000000000 -2000.0000000000000 -17613238.957177468 5337580.7227530936 -49034121.443337664 7.1703027843801281e-05 0.0044740297492346813 -0.00094564375578396853 0.39999999992464658 -5.0000000000000000 -5.8882985578911606 
7000.0000000000000 0.0000000000000000 -2000.0000000000000 -17613238.957186013 5337580.7227211660 -49034121.442985296 1.1022807715949755e-05 0.0046461526761468839 0.00042598233928025357 0.59999999989381803 -5.0000000000000000 -5.8882985576975377 
7000.0000000000000 1000.0000000000000 -2000.0000000000000 -17613238.956340380 5337580.7221518876 -49034121.438950121 2.0845689118718633e-05 0.0079713148139160320 0.00042716951149897472 0.59999999989414221 -4.4999999997316387 -5.8882985572376763 
8000.0000000000000 1000.0000000000000 -1833.3333333329999 -16461292.851811593 6489526.8253519461 -44949948.883395769 0.00012027575208070682 0.0079683768037666566 -0.0011247581047928708 0.39999999995058971 -4.4999999997853228 -6.0739023014755951 
8000.0000000000000 0.0000000000000000 -1833.3333333329999 -16461292.852671111 6489526.8257165905 -44949948.887512848 7.0157392323236221e-05 0.0045848631494641735 -0.00097428260624836524 0.39999999994786983 -5.0000000000000000 -6.0739023019356440 
7000.0000000000000 3.2286888359999998e-30 -1833.3333333329999 -16461292.852665251 6489526.8256697655 -44949948.887269586 8.2846313846435144e-06 0.0047496770985034492 0.00042944334367430679 0.59999999992715691 -5.0000000000000000 -6.0739023017398557 
7000.0000000000000 1000.0000000000000 -1833.3333333329999 -16461292.851783942 6489526.8253102954 -44949948.883284748 1.5468998213822244e-05 0.0081209824808229410 0.00043004048801633510 0.59999999992739472 -4.4999999997890834 -6.0739023012609969 
8000.0000000000000 1000.0000000000000 -1666.6666666670001 -15309243.606013751 7641576.0696555441 -40865410.644866042 0.00011293708466154434 0.0080598239248739767 -0.0011320399897615486 0.39999999997386371 -4.4999999998476321 -6.2445998937770009 
8000.0000000000000 0.0000000000000000 -1666.6666666670001 -15309243.606912361 7641576.0697752209 -40865410.648915559 6.7562869655482462e-05 0.0046563934988801932 -0.00099728999982030006 0.39999999997118230 -5.0000000000000000 -6.2445998942566545 
7000.0000000000000 0.0000000000000000 -1666.6666666670001 -15309243.606892651 7641576.0697178673 -40865410.648769438 5.2944766373151493e-06 0.0048134455712496946 0.00043380872931187916 0.59999999996049846 -5.0000000000000000 -6.2445998940591778 
7000.0000000000000 1000.0000000000000 -1666.6666666670001 -15309243.605973233 7641576.0696044704 -40865410.644854188 9.6188662273850230e-06 0.0081981337686485110 0.00043375016600933735 0.59999999996064257 -4.4999999998511981 -6.2445998935617757 
2000.0000000000000 1000.0000000000000 -4833.3333333330002 -37180551.092305735 -14229731.387689315 -118409137.17090577 4.4602526333755162e-05 0.00045064919710365703 -0.00025311742886348896 1.5999999993956260 -4.4999999991544755 -0.45368638689330704 
2000.0000000000000 0.0000000000000000 -4833.3333333330002 -37180551.093686111 -14229731.386491386 -118409137.17926513 1.8645347465900320e-05 0.00027797018091151927 -0.00025407147088498750 1.5999999993949925 -5.0000000000000000 -0.45368638694036928 
1000.0000000000000 0.0000000000000000 -4833.3333333330002 -37180551.094626412 -14229731.385285985 -118409137.17179257 0.00015542481099153761 0.00022591653832768391 -9.4679287747754666e-05 1.7999999996751281 -5.0000000000000000 -0.45368638690270907 
1000.0000000000000 1000.0000000000000 -4833.3333333330002 -37180551.093165368 -14229731.386478849 -118409137.16402876 0.00020968513756095621 0.00039271699138650732 -3.4612827172766622e-05 1.7999999996837543 -4.4999999991653032 -0.45368638686581658 
2000.0000000000000 1000.0000000000000 -5000.0000000000000 -37755622.406768501 -14804802.701984135 -120448026.37656778 4.5175405264712488e-05 0.00021859166122976308 -0.00012308876585577088 1.5999999993928309 -4.4999999991499262 0.0000000000000000 
2000.0000000000000 0.0000000000000000 -5000.0000000000000 -37755622.408271812 -14804802.700896489 -120448026.38542372 1.8989090098839336e-05 0.00013582560722652677 -0.00012344415519173463 1.5999999993921992 -5.0000000000000000 0.0000000000000000 
1000.0000000000000 0.0000000000000000 -5000.0000000000000 -37755622.409139976 -14804802.699635331 -120448026.37772024 0.00016408341783673343 0.00010921771265417638 -4.4616599577887001e-05 1.7999999996741614 -5.0000000000000000 0.0000000000000000 
1000.0000000000000 1000.0000000000000 -5000.0000000000000 -37755622.407569371 -14804802.700732900 -120448026.36955464 0.00021927884795124172 0.00018932115677363040 -1.4217703170981563e-05 1.7999999996834286 -4.4999999991613944 0.0000000000000000 
2000.0000000000000 1000.0000000000000 -4666.6666666669998 -36030356.973658800 -13079537.269514654 -114331176.20521972 4.3288521345522372e-05 0.00093550781759964275 -0.00052528830150112957 1.5999999994033538 -4.4999999991668309 -0.89249062522361311 
2000.0000000000000 -4.7197855800000003e-30 -4666.6666666669998 -36030356.974828959 -13079537.268139850 -114331176.21267761 1.7886600346164757e-05 0.00057110235919373225 -0.00052774616894148520 1.5999999994027252 -5.0000000000000000 -0.89249062531120704 
1000.0000000000000 1.1799463940000000e-30 -4666.6666666669998 -36030356.975910015 -13079537.267035097 -114331176.20564677 0.00013377866185187764 0.00047159402552739268 -0.00020578591164588017 1.7999999996780236 -5.0000000000000000 -0.89249062523900569 
1000.0000000000000 1000.0000000000000 -4666.6666666669998 -36030356.974645019 -13079537.268385764 -114331176.19861384 0.00018516290193468032 0.00082287644413885032 -8.9372029244407552e-05 1.7999999996851810 -4.4999999991761479 -0.89249062516874134 
2000.0000000000000 1000.0000000000000 -4500.0000000000000 -34880059.870955184 -11929240.167521767 -110252850.11439675 4.1994484117587142e-05 0.0014516806751026698 -0.00081860827809637771 1.5999999994149161 -4.4999999991848272 -1.3164113825048709 
2000.0000000000000 -7.0796783699999993e-30 -4500.0000000000000 -34880059.871975243 -11929240.166041970 -110252850.12112114 1.7225748017874179e-05 0.00087604877598047664 -0.00082289244577151582 1.5999999994143028 -5.0000000000000000 -1.3164113826278110 
1000.0000000000000 1.7699195909999999e-30 -4500.0000000000000 -34880059.873184912 -11929240.165019739 -110252850.11449148 0.00010727815300571727 0.00073735941284532004 -0.00033836705636845153 1.7999999996827798 -5.0000000000000000 -1.3164113825237225 
1000.0000000000000 1000.0000000000000 -4500.0000000000000 -34880059.872074582 -11929240.166472012 -110252850.10805722 0.00015392699985375063 0.0012916201708199906 -0.00017354106835269648 1.7999999996882985 -4.4999999991923874 -1.3164113824229313 
2000.0000000000000 1000.0000000000000 -4333.3333333330002 -33729659.774966002 -10778840.072422937 -106174158.86563046 4.1209291518375409e-05 0.0019825650420991414 -0.0011274898988697774 1.5999999994295511 -4.4999999992069979 -1.7254473261234511 
2000.0000000000000 0.0000000000000000 -4333.3333333330002 -33729659.775877729 -10778840.070885103 -106174158.87176076 1.6989384168232168e-05 0.0011838376027512904 -0.0011334834102754931 1.5999999994289531 -5.0000000000000000 -1.7254473262776817 
1000.0000000000000 0.0000000000000000 -4333.3333333330002 -33729659.777195781 -10778840.069932520 -106174158.86549191 8.1461699636287827e-05 0.0010155252132388504 -0.00049033940966723168 1.7999999996892391 -5.0000000000000000 -1.7254473261439278 
1000.0000000000000 1000.0000000000000 -4333.3333333330002 -33729659.776207179 -10778840.071445955 -106174158.85954742 0.00012199013635161002 0.0017847604268422855 -0.00028738010598092971 1.7999999996932436 -4.4999999992128572 -1.7254473260149068 
2000.0000000000000 1000.0000000000000 -4166.6666666669998 -32579156.676452234 -9628336.9749371633 -102095102.42611608 4.1070669716532128e-05 0.0025174961367726931 -0.0014471505866856609 1.5999999994467000 -4.4999999992323358 -2.1195971233464177 
2000.0000000000000 0.0000000000000000 -4166.6666666669998 -32579156.677285500 -9628336.9733730499 -102095102.43176788 1.7258629559170864e-05 0.0014897077540958199 -0.0014545290386174955 1.5999999994461089 -5.0000000000000000 -2.1195971235288056 
1000.0000000000000 0.0000000000000000 -4166.6666666669998 -32579156.678687405 -9628336.9724795744 -102095102.42582011 5.8712991315023175e-05 0.0013005968315939872 -0.00065810068621830137 1.7999999996972094 -5.0000000000000000 -2.1195971233672326 
1000.0000000000000 1000.0000000000000 -4166.6666666669998 -32579156.677793920 -9628336.9740244057 -102095102.42027499 9.2370984108626483e-05 0.0022917379311201080 -0.00042728936666101115 1.7999999996999347 -4.4999999992366861 -2.1195971232118320 
2000.0000000000000 1000.0000000000000 -4000.0000000000000 -31428550.566163462 -8477730.8657844085 -98015680.763031647 4.1524040630103480e-05 0.0030495010762866840 -0.0017732132779604134 1.5999999994659428 -4.4999999992601518 -2.4988594413282157 
2000.0000000000000 6.0354824430000000e-30 -4000.0000000000000 -31428550.566940274 -8477730.8642164208 -98015680.768300712 1.7977996589752116e-05 0.0017911599065595452 -0.0017816087491605195 1.5999999994653462 -5.0000000000000000 -2.4988594415363674 
1000.0000000000000 -1.5088706100000000e-30 -4000.0000000000000 -31428550.568400033 -8477730.8633725792 -98015680.762635544 3.9788636750611669e-05 0.0015886024054489805 -0.00083753304229147686 1.7999999997064977 -5.0000000000000000 -2.4988594413485075 
1000.0000000000000 1000.0000000000000 -4000.0000000000000 -31428550.567579906 -8477730.8649262972 -98015680.757414415 6.6383638370641983e-05 0.0028046021824663812 -0.00058808438042392685 1.7999999997082001 -4.4999999992632285 -2.4988594411682072 
2000.0000000000000 1000.0000000000000 -3833.3333333330002 -30277841.434850853 -7327021.7356953369 -93935893.843574926 4.2423242475437031e-05 0.0035737648428378591 -0.0021016074586655020 1.5999999994869645 -4.4999999992899795 -2.8632329470964808 
2000.0000000000000 1.8821719040000001e-29 -3833.3333333330002 -30277841.435587883 -7327021.7341401335 -93935893.848540440 1.9028220243845302e-05 0.0020867769740217099 -0.0021106997116652269 1.5999999994863501 -5.0000000000000000 -2.8632329473285925 
1000.0000000000000 -4.7054297600000003e-30 -3833.3333333330002 -30277841.437079929 -7327021.7333370056 -93935893.843121186 2.4645353948027248e-05 0.0018765112370327688 -0.0010245614440348755 1.7999999997169305 -5.0000000000000000 -2.8632329471157156 
1000.0000000000000 1000.0000000000000 -3833.3333333330002 -30277841.436315231 -7327021.7348820185 -93935893.838160962 4.4399856343892037e-05 0.0033171776997210356 -0.00076423631675024675 1.7999999997178455 -4.4999999992920161 -2.8632329469116948 
2000.0000000000000 1000.0000000000000 -3666.6666666669998 -29127029.273263566 -6176209.5754054449 -89855741.634944737 4.3588815354003041e-05 0.0040866776250062745 -0.0024285440622977984 1.5999999995095355 -4.4999999993215196 -3.2127163075595115 
2000.0000000000000 2.6904576700000000e-29 -3666.6666666669998 -29127029.273973837 -6176209.5738762775 -89855741.639671966 2.0271886782990944e-05 0.0023755959077928577 -0.0024380903596717169 1.5999999995088947 -5.0000000000000000 -3.2127163078142402 
1000.0000000000000 -6.7261441700000003e-30 -3666.6666666669998 -29127029.275474053 -6176209.5731053241 -89855741.634464309 1.2872234727349419e-05 0.0021619253483001026 -0.0012154295988718242 1.7999999997283627 -5.0000000000000000 -3.2127163075773990 
1000.0000000000000 1000.0000000000000 -3666.6666666669998 -29127029.274749830 -6176209.5746272253 -89855741.629712090 2.6276989348587400e-05 0.0038244571226443034 -0.00095049881325121629 1.7999999997286911 -4.4999999993227284 -3.2127163073505862 
2000.0000000000000 1000.0000000000000 -3500.0000000000000 -27976114.072144717 -5025294.3756493498 -85775224.104322568 4.4839508100875083e-05 0.0045853538314847824 -0.0027504711256219213 1.5999999995335019 -4.4999999993546034 -3.5473081895121537 
2000.0000000000000 1.0097419590000000e-28 -3500.0000000000000 -27976114.072838683 -5025294.3741576234 -85775224.108865187 2.1577692214578602e-05 0.0026568337578282185 -0.0027603124404056325 1.5999999995328278 -5.0000000000000000 -3.5473081897885157 
1000.0000000000000 0.0000000000000000 -3500.0000000000000 -27976114.074324809 -5025294.3734106738 -85775224.103837639 3.9282888652170758e-06 0.0024428198583903195 -0.0014067673432204165 1.7999999997406846 -5.0000000000000000 -3.5473081895285863 
1000.0000000000000 1000.0000000000000 -3500.0000000000000 -27976114.073628504 -5025294.3748969939 -85775224.099249184 1.1618834252203360e-05 0.0043222298365695978 -0.0011421459051407746 1.7999999997405891 -4.4999999993551638 -3.5473081892796996 
2000.0000000000000 1000.0000000000000 -3333.3333333330002 -26825095.822242424 -3874276.1271706843 -81694341.218909532 4.6008087252114534e-05 0.0050671209691814005 -0.0030640314196656426 1.5999999995587724 -4.4999999993891615 -3.8670072596232150 
2000.0000000000000 0.0000000000000000 -3333.3333333330002 -26825095.822928663 -3874276.1257269918 -81694341.223311260 2.2826829753416348e-05 0.0029296114150148323 -0.0030740746060065206 1.5999999995580638 -5.0000000000000000 -3.8670072599205096 
1000.0000000000000 0.0000000000000000 -3333.3333333330002 -26825095.824380204 -3874276.1249962072 -81694341.218435332 -2.7398044397171478e-06 0.0027173638986450373 -0.0015956148245898664 1.7999999997538230 -5.0000000000000000 -3.8670072596382181 
1000.0000000000000 1000.0000000000000 -3333.3333333330002 -26825095.823701203 -3874276.1264355127 -81694341.213973954 -6.7200261446510837e-08 0.0048067271280846481 -0.0013350586169971765 1.7999999997534297 -4.4999999993892210 -3.8670072593678064 
2000.0000000000000 1000.0000000000000 -3166.6666666669998 -25673974.514304899 -2723154.8207163974 -77613092.945907682 4.6946946902322815e-05 0.0055293385309122464 -0.0033660089686150282 1.5999999995853162 -4.4999999994252127 -4.1718121844421541 
2000.0000000000000 -4.6309918600000000e-29 -3166.6666666669998 -25673974.514990661 -2723154.8193313330 -77613092.950203806 2.3922682100373104e-05 0.0031929213544906183 -0.0033762236444132600 1.5999999995845746 -5.0000000000000000 -4.1718121847598919 
1000.0000000000000 1.1577479659999999e-29 -3166.6666666669998 -25673974.516388629 -2723154.8186092866 -77613092.945454463 -7.6446945215463902e-06 0.0029838179133347426 -0.0017793649588832428 1.7999999997677403 -5.0000000000000000 -4.1718121844558445 
1000.0000000000000 1000.0000000000000 -3166.6666666669998 -25673974.515717860 -2723154.8199903909 -77613092.941089973 -9.2937912980274001e-06 0.0052744053723685815 -0.0015256847286980013 1.7999999997671432 -4.4999999994248867 -4.1718121841643176 
2000.0000000000000 1000.0000000000000 -3000.0000000000000 -24522750.139075607 -1571930.4470313098 -73531479.252501652 4.7534704453001177e-05 0.0059691297983874379 -0.0036532356817892348 1.5999999996131551 -4.4999999994628448 -4.4617216304041589 
2000.0000000000000 0.0000000000000000 -3000.0000000000000 -24522750.139767148 -1571930.4457160675 -73531479.256720081 2.4789405092204561e-05 0.0034454815016322976 -0.0036636331709033205 1.5999999996123848 -5.0000000000000000 -4.4617216307420060 
1000.0000000000000 0.0000000000000000 -3000.0000000000000 -24522750.141093541 -1571930.4449957695 -73531479.252075970 -1.1233587004848882e-05 0.0032403703072720496 -0.0019556702428874806 1.7999999997824341 -5.0000000000000000 -4.4617216304167142 
1000.0000000000000 1000.0000000000000 -3000.0000000000000 -24522750.140423179 -1571930.4463070768 -73531479.247784004 -1.6543567122255987e-05 0.0057216498771476701 -0.0017109346181392072 1.7999999997816991 -4.4999999994622231 -4.4617216301043756 
2000.0000000000000 1000.0000000000000 -2833.3333333330002 -23371422.687303733 -420602.99686820427 -69449500.105895489 4.7670917070969873e-05 0.0063831825672959197 -0.0039225360604405787 1.5999999996423582 -4.4999999995022177 -4.7367342638191667 
2000.0000000000000 0.0000000000000000 -2833.3333333330002 -23371422.688006520 -420602.99563511449 -69449500.110057473 2.5365429153695547e-05 0.0036856294501374891 -0.0039331462797964995 1.5999999996415679 -5.0000000000000000 -4.7367342641769064 
1000.0000000000000 0.0000000000000000 -2833.3333333330002 -23371422.689243719 -420602.99490996334 -69449500.105500996 -1.3885910992636486e-05 0.0034850327747566741 -0.0021223525522073945 1.7999999997979355 -5.0000000000000000 -4.7367342638308054 
1000.0000000000000 1000.0000000000000 -2833.3333333330002 -23371422.688566953 -420602.99613893009 -69449500.101262540 -2.2246022038641281e-05 0.0061446091280676005 -0.0018880663563558169 1.7999999997971086 -4.4999999995013651 -4.7367342634978735 
2000.0000000000000 1000.0000000000000 -2666.6666666669998 -22219992.149739038 730827.53901758674 -65367155.473294027 4.7264299598929744e-05 0.0067677263468448132 -0.0041706065094453369 1.5999999996730421 -4.4999999995435482 -4.9968487508777644 
2000.0000000000000 -9.6621616699999999e-29 -2666.6666666669998 -22219992.150457911 730827.54015458701 -65367155.477414705 2.5604653475257787e-05 0.0039113590094135130 -0.0041814740115875401 1.5999999996722416 -5.0000000000000000 -4.9968487512552482 
1000.0000000000000 2.4155404169999999e-29 -2666.6666666669998 -22219992.151588097 730827.54089076282 -65367155.472932428 -1.5906764975353001e-05 0.0037155534300980890 -0.0022773002892486241 1.7999999998143072 -5.0000000000000000 -4.9968487508887254 
1000.0000000000000 1000.0000000000000 -2666.6666666669998 -22219992.150898967 730827.53975811158 -65367155.468733735 -2.6768080999883618e-05 0.0065391221243752398 -0.0020545475925512601 1.7999999998134153 -4.4999999995425108 -4.9968487505353574 
2000.0000000000000 1000.0000000000000 -2500.0000000000000 -21068458.517126571 1882361.1698736425 -61284445.321883991 4.6232863413322379e-05 0.0071183252393751308 -0.0043939179632292756 1.5999999997053673 -4.4999999995871178 -5.2420637576554521 
2000.0000000000000 -1.0352316099999999e-28 -2500.0000000000000 -21068458.517865904 1882361.1708984841 -61284445.325972982 2.5464129320729695e-05 0.0041202096459490986 -0.0044050784485136192 1.5999999997045673 -5.0000000000000000 -5.2420637580525691 
1000.0000000000000 2.5880790180000000e-29 -2500.0000000000000 -21068458.518870339 1882361.1716514775 -61284445.321555704 -1.7539552896152861e-05 0.0039293740671661539 -0.0024183827773468156 1.7999999998316436 -5.0000000000000000 -5.2420637576659797 
1000.0000000000000 1000.0000000000000 -2500.0000000000000 -21068458.518163577 1882361.1706311209 -61284445.317387879 -3.0409003523405153e-05 0.0069004770856149469 -0.0022079572566181356 1.7999999998307010 -4.4999999995859250 -5.2420637572923061 
2000.0000000000000 1000.0000000000000 -2333.3333333330002 -19916821.780217212 3033997.9049400175 -57201369.618871287 4.4503645651502732e-05 0.0074297066036480789 -0.0045886088055287549 1.5999999997395340 -4.4999999996332614 -5.4723779501032874 
2000.0000000000000 -1.1042470500000000e-28 -2333.3333333330002 -19916821.780980997 3033997.9058339698 -57201369.622932807 2.4903643453795720e-05 0.0043091889173136697 -0.0046000842898689751 1.5999999997387488 -5.0000000000000000 -5.4723779505199293 
1000.0000000000000 2.7606176200000001e-29 -2333.3333333330002 -19916821.781839341 3033997.9066092363 -57201369.618575789 -1.8980328167860383e-05 0.0041234819702827040 -0.0025433261357263857 1.7999999998500686 -5.0000000000000000 -5.4723779501136223 
1000.0000000000000 1000.0000000000000 -2333.3333333330002 -19916821.781110197 3033997.9057197114 -57201369.614434794 -3.3406819753170372e-05 0.0072232135097488508 -0.0023458195337376568 1.7999999998490781 -4.4999999996319326 -5.4723779497197578 
2000.0000000000000 1000.0000000000000 -2166.6666666669998 -18765081.929762375 4185737.7534545814 -53117928.331462063 4.2006988267898645e-05 0.0076956475524301102 -0.0047503495176914939 1.5999999997757870 -4.4999999996823838 -5.6877899940529648 
2000.0000000000000 -6.0107537800000003e-29 -2166.6666666669998 -18765081.930554252 4185737.7541957274 -53117928.335494861 2.3892230571630007e-05 0.0044746544429761746 -0.0047621419520405264 1.5999999997750309 -5.0000000000000000 -5.6877899944889894 
1000.0000000000000 1.5026884460000000e-29 -2166.6666666669998 -18765081.931243859 4185737.7549983775 -53117928.331198141 -2.0362852567211649e-05 0.0042942661963362369 -0.0026495857940990663 1.7999999998697369 -5.0000000000000000 -5.6877899940633352 
1000.0000000000000 1000.0000000000000 -2166.6666666669998 -18765081.930488080 4185737.7542613335 -53117928.327085152 -3.5935081185757269e-05 0.0075009918828266211 -0.0024654498154695363 1.7999999998686944 -4.4999999996809281 -5.6877899936494112 
2000.0000000000000 1000.0000000000000 -2000.0000000000000 -17613238.956508655 5337580.7246583458 -49034121.426843733 3.8671094805890795e-05 0.0079087589313198165 -0.0048742896419168638 1.5999999998144132 -4.4999999997349498 -5.8882985552202820 
2000.0000000000000 0.0000000000000000 -2000.0000000000000 -17613238.957331948 5337580.7252209121 -49034121.430840954 2.2398286625249751e-05 0.0046122143709908837 -0.0048863669431661091 1.5999999998137018 -5.0000000000000000 -5.8882985556754850 
1000.0000000000000 0.0000000000000000 -2000.0000000000000 -17613238.957827210 5337580.7260556854 -49034121.426609896 -2.1772468135089034e-05 0.0044374037668796851 -0.0027342775636220993 1.7999999998908343 -5.0000000000000000 -5.8882985552308957 
1000.0000000000000 1000.0000000000000 -2000.0000000000000 -17613238.957040891 5337580.7254966106 -49034121.422531478 -3.8107776238608621e-05 0.0077263435543218802 -0.0025638941646678372 1.7999999998897311 -4.4999999997333697 -5.8882985547970907 
2000.0000000000000 1000.0000000000000 -1833.3333333329999 -16461292.851208348 6489526.8277848959 -44949948.872222140 3.4423016288620164e-05 0.0080602932644414718 -0.0049548995180097206 1.5999999998557444 -4.4999999997914983 -6.0739022991973863 
2000.0000000000000 -3.2286888400000000e-30 -1833.3333333329999 -16461292.852066100 6489526.8281384837 -44949948.876170948 2.0385194796918734e-05 0.0047166044332479697 -0.0049672028243122352 1.5999999998550942 -5.0000000000000000 -6.0739022996714684 
1000.0000000000000 8.0717220889999996e-31 -1833.3333333329999 -16461292.852337644 6489526.8290098030 -44949948.872016579 -2.3264412528282326e-05 0.0045477729930540819 -0.0027941129707927362 1.7999999999135785 -5.0000000000000000 -6.0739022992084282 
1000.0000000000000 1000.0000000000000 -1833.3333333329999 -16461292.851517208 6489526.8286587866 -44949948.867985182 -3.9993174378694550e-05 0.0078905095925854377 -0.0026377914573973492 1.7999999999124019 -4.4999999997897957 -6.0739022987549998 
2000.0000000000000 1000.0000000000000 -1666.6666666670001 -15309243.604614137 7641576.0720655937 -40865410.634802625 2.9186276749578523e-05 0.0081399511865879008 -0.0049857896154184879 1.5999999999001591 -4.4999999998526485 -6.2445998914570504 
2000.0000000000000 0.0000000000000000 -1666.6666666670001 -15309243.605509197 7641576.0721742241 -40865410.638683975 1.7816213296826545e-05 0.0047815417559182822 -0.0049982248922313417 1.5999999998995877 -5.0000000000000000 -6.2445998919495693 
1000.0000000000000 0.0000000000000000 -1666.6666666670001 -15309243.605523106 7641576.0730862245 -40865410.634623438 -2.4843212513034235e-05 0.0046192153621298750 -0.0028252138544332950 1.7999999999382210 -5.0000000000000000 -6.2445998914686669 
1000.0000000000000 1000.0000000000000 -1666.6666666670001 -15309243.604665205 7641576.0729788858 -40865410.630658031 -4.1606369455419397e-05 0.0079831509468336684 -0.0026831886047790237 1.7999999999369594 -4.4999999998508224 -6.2445998909959801 
2000.0000000000000 2000.0000000000000 -4833.3333333330002 -37180551.088455424 -14229731.390712621 -118409137.14896563 0.00010598217176773918 0.00063348650585989027 -0.00024803313182268920 1.5999999993980958 -3.9999999984831192 -0.45368638678320533 
1000.0000000000000 2000.0000000000000 -4833.3333333330002 -37180551.089164302 -14229731.389509236 -118409137.14304402 0.00019161182893595897 0.00059926929774877381 6.1261396683817760e-05 1.7999999996967835 -3.9999999984922670 -0.45368638676845185 
2000.0000000000000 2000.0000000000000 -5000.0000000000000 -37755622.402622618 -14804802.704741936 -120448026.35348217 0.00010667802321969458 0.00030489534833720697 -0.00012057203656847405 1.5999999993953522 -3.9999999984760439 0.0000000000000000 
1000.0000000000000 2000.0000000000000 -5000.0000000000000 -37755622.403286800 -14804802.703516459 -120448026.34754023 0.00019598008198834456 0.00028787342282943570 3.4193888669218125e-05 1.7999999996971034 -3.9999999984854324 0.0000000000000000 
2000.0000000000000 2000.0000000000000 -4666.6666666669998 -36030356.970331334 -13079537.272978917 -114331176.18539238 0.00010424596945555116 0.0013301558618549485 -0.00051513726686381472 1.5999999994057104 -3.9999999985029500 -0.89249062501449727 
1000.0000000000000 2000.0000000000000 -4666.6666666669998 -36030356.971153326 -13079537.271830903 -114331176.17952241 0.00017937461203200892 0.0012618644727001738 9.7477120887251735e-05 1.7999999996966205 -3.9999999985114445 -0.89249062498226905 
2000.0000000000000 2000.0000000000000 -4500.0000000000000 -34880059.868030109 -11929240.171271555 -110252850.09634963 0.00010213489952105906 0.0020917331790257783 -0.00080376572844025680 1.5999999994171548 -3.9999999985330064 -1.3164113822062544 
1000.0000000000000 2000.0000000000000 -4500.0000000000000 -34880059.868994683 -11929240.170193456 -110252850.09055273 0.00016132748505655344 0.0019912462966613373 9.3507705795288246e-05 1.7999999996977663 -3.9999999985405736 -1.3164113821543399 
2000.0000000000000 2000.0000000000000 -4333.3333333330002 -33729659.772350803 -10778840.076344626 -106174158.84907602 0.00010009994452263867 0.0028932981961041640 -0.0011086540384196747 1.5999999994316951 -3.9999999985712544 -1.7254473257433847 
1000.0000000000000 2000.0000000000000 -4333.3333333330002 -33729659.773458771 -10778840.075338664 -106174158.84337091 0.00013976095007104230 0.0027645577521800387 4.5169266011568120e-05 1.7999999997006848 -3.9999999985777501 -1.7254473256700904 
2000.0000000000000 2000.0000000000000 -4166.6666666669998 -32579156.674074825 -9628336.9789460916 -102095102.41080680 9.8316127850186139e-05 0.0037155547839622261 -0.0014251102061950910 1.5999999994487821 -3.9999999986160963 -2.1195971228916339 
1000.0000000000000 2000.0000000000000 -4166.6666666669998 -32579156.675310519 -9628336.9780075103 -102095102.40520689 0.00011664483773745959 0.0035637083816855448 -4.4954218579190924e-05 1.7999999997054739 -3.9999999986214769 -2.1195971227957418 
2000.0000000000000 2000.0000000000000 -4000.0000000000000 -31428550.563966900 -8477730.8698159177 -98015680.748755485 9.6809665867708344e-05 0.0045435705571154599 -0.0017487067367437871 1.5999999994679952 -3.9999999986663068 -2.4988594408042935 
1000.0000000000000 2000.0000000000000 -4000.0000000000000 -31428550.565306149 -8477730.8689363208 -98015680.743268266 9.3482291335424098e-05 0.0043742715339060078 -0.00017105856752794031 1.7999999997120495 -3.9999999986705959 -2.4988594406849844 
2000.0000000000000 2000.0000000000000 -3833.3333333330002 -30277841.432789590 -7327021.7396984519 -93935893.830151096 9.5523272764977434e-05 0.0053655982100194012 -0.0020752453772201803 1.5999999994890142 -3.9999999987209671 -2.8632329465080022 
1000.0000000000000 2000.0000000000000 -3833.3333333330002 -30277841.434204727 -7327021.7388678314 -93935893.824778512 7.1327248966789571e-05 0.0051845846725491716 -0.00032616352638138740 1.7999999997202478 -3.9999999987242347 -2.8632329463647852 
2000.0000000000000 2000.0000000000000 -3666.6666666669998 -29127029.271300677 -6176209.5793382656 -89855741.622219861 9.4351958113891954e-05 0.0061721495850862000 -0.0024007926107606175 1.5999999995116014 -3.9999999987794230 -3.2127163069102092 
1000.0000000000000 2000.0000000000000 -3666.6666666669998 -29127029.272763457 -6176209.5785461981 -89855741.616959214 5.0844957811122058e-05 0.0059848836114297747 -0.00050323302156215978 1.7999999997298883 -3.9999999987817603 -3.2127163067428421 
2000.0000000000000 2000.0000000000000 -3500.0000000000000 -27976114.070249867 -5025294.3794756718 -85775224.092167437 9.3166424417921389e-05 0.0069553615713230975 -0.0027216609870440670 1.5999999995355945 -3.9999999988412323 -3.5473081888050477 
1000.0000000000000 2000.0000000000000 -3500.0000000000000 -27976114.071733057 -5025294.3787120199 -85775224.087012678 3.2394552895164394e-05 0.0067668177998654886 -0.00069569181401644303 1.7999999997408032 -3.9999999988427426 -3.5473081886134770 
2000.0000000000000 2000.0000000000000 -3333.3333333330002 -26825095.820390381 -3874276.1308574551 -81694341.207216427 9.1829070480495007e-05 0.0077083342313988669 -0.0030343789831935677 1.5999999995608949 -3.9999999989061377 -3.8670072588607458 
1000.0000000000000 2000.0000000000000 -3333.3333333330002 -26825095.821868401 -3874276.1301127244 -81694341.202159137 1.6121737771630338e-05 0.0075229146507095968 -0.00089765857213233464 1.7999999997528529 -3.9999999989069255 -3.8670072586450384 
2000.0000000000000 2000.0000000000000 -3166.6666666669998 -25673974.512474429 -2723154.8242317014 -77613092.934587821 9.0195303611780695e-05 0.0084247336056775882 -0.0033356346448422088 1.5999999995874630 -3.9999999989740394 -4.1718121836262831 
1000.0000000000000 2000.0000000000000 -3166.6666666669998 -25673974.513923410 -2723154.8234972307 -77613092.929618567 2.0209511832186567e-06 0.0082462588758944275 -0.0011040007275375198 1.7999999997659391 -3.9999999989742041 -4.1718121833865967 
2000.0000000000000 2000.0000000000000 -3000.0000000000000 -24522750.137248669 -1571930.4503427821 -73531479.241483614 8.8124932916114869e-05 0.0090983736181444608 -0.0036222028176714979 1.5999999996153140 -3.9999999990449711 -4.4617216295364726 
1000.0000000000000 2000.0000000000000 -3000.0000000000000 -24522750.138646111 -1571930.4496107125 -73531479.236592665 -1.0008666276830999e-05 0.0089300444962598664 -0.0013102630119015144 1.7999999997800029 -3.9999999990446051 -4.4617216292730157 
2000.0000000000000 2000.0000000000000 -2833.3333333330002 -23371422.685464822 -420602.99994159164 -69449500.095123559 8.5486973773965530e-05 0.0097229109918011408 -0.0038908736564420283 1.5999999996445131 -3.9999999991190949 -4.7367342629009732 
1000.0000000000000 2000.0000000000000 -2833.3333333330002 -23371422.686789118 -420602.99920487322 -69449500.090302035 -2.0112554331298003e-05 0.0095673090676089076 -0.0015125391939301953 1.7999999997950271 -3.9999999991182809 -4.7367342626139814 
2000.0000000000000 2000.0000000000000 -2666.6666666669998 -22219992.147874705 730827.53621972899 -65367155.462727010 8.2144706736174227e-05 0.010291631365903673 -0.0041383214876303028 1.5999999996751710 -3.9999999991966790 -4.9968487499101650 
1000.0000000000000 2000.0000000000000 -2666.6666666669998 -22219992.149104506 730827.53696737357 -65367155.457967728 -2.8460543086106843e-05 0.010150854989958304 -0.0017073152116411246 1.7999999998110334 -3.9999999991954920 -4.9968487495998950 
2000.0000000000000 2000.0000000000000 -2500.0000000000000 -21068458.515225124 1882361.1673931032 -61284445.311494738 7.7962988390295875e-05 0.010797191423030303 -0.0043610297984126526 1.5999999997074423 -3.9999999992780992 -5.2420637566394381 
1000.0000000000000 2000.0000000000000 -2500.0000000000000 -21068458.516338583 1882361.1681573042 -61284445.306792915 -3.5221330955621327e-05 0.010672842445721340 -0.0018913576695018058 1.7999999998280836 -3.9999999992766027 -5.2420637563061483 
2000.0000000000000 2000.0000000000000 -2333.3333333330002 -19916821.778268360 3033997.9028242468 -57201369.608645931 7.2810431429003880e-05 0.011231330134161173 -0.0045551696666086211 1.5999999997415253 -3.9999999993638271 -5.4723779490397968 
1000.0000000000000 2000.0000000000000 -2333.3333333330002 -19916821.779242441 3033997.9036100190 -57201369.604000121 -4.0547279726952081e-05 0.011124541941115191 -0.0020615035104288287 1.7999999998462781 -3.9999999993620792 -5.4723779486837634 
2000.0000000000000 2000.0000000000000 -2166.6666666669998 -18765081.927757047 4185737.7517579631 -53117928.321400091 6.6548226592343712e-05 0.011584712543585602 -0.0047164632009183546 1.5999999997776597 -3.9999999994544391 -5.6877899929429621 
1000.0000000000000 2000.0000000000000 -2166.6666666669998 -18765081.928566694 4185737.7525698324 -53117928.316812776 -4.4578955211985260e-05 0.011496219179109002 -0.0022144831594742187 1.7999999998657528 -3.9999999994524922 -5.6877899925644835 
2000.0000000000000 2000.0000000000000 -2000.0000000000000 -17613238.954438865 5337580.7234435910 -49034121.416958220 5.9032628223430498e-05 0.011846651844894869 -0.0048401164031471816 1.5999999998161287 -3.9999999995506097 -5.8882985540648383 
1000.0000000000000 2000.0000000000000 -2000.0000000000000 -17613238.955056194 5337580.7242856594 -49034121.412436709 -4.7435150310126754e-05 0.011776775181507611 -0.0023468192964453500 1.7999999998866829 -3.9999999995485100 -5.8882985536642503 
2000.0000000000000 2000.0000000000000 -1833.3333333329999 -16461292.849067021 6489526.8271246813 -44949948.862540238 5.0116578905413453e-05 0.012004858742544556 -0.0049206601551270088 1.5999999998572607 -3.9999999996531161 -6.0739022979977486 
1000.0000000000000 2000.0000000000000 -1833.3333333329999 -16461292.849460524 6489526.8280006638 -44949948.858097516 -4.9219126669118497e-05 0.011953526851875052 -0.0024546334963346057 1.7999999999092806 -3.9999999996509072 -6.0739022975754517 
2000.0000000000000 2000.0000000000000 -1666.6666666670001 -15309243.602394922 7641576.0720444489 -40865410.625366203 3.9638323116939078e-05 0.012045234442556545 -0.0049517986137045398 1.5999999999014300 -3.9999999997628488 -6.2445998902147233 
1000.0000000000000 2000.0000000000000 -1666.6666666670001 -15309243.602528658 7641576.0729576917 -40865410.621022023 -5.0030216259258568e-05 0.012012007506218378 -0.0025334626592281853 1.7999999999337992 -3.9999999997605746 -6.2445998897712149 
4000.0000000000000 8000.0000000000000 -4833.3333333330002 -37180551.057897054 -14229731.399240585 -118409137.04404433 0.00024373365420060178 -0.00028615776974483492 -0.00010351869099838469 1.1999999992416155 -0.99999999915847859 -0.45368638635459402 
4000.0000000000000 9000.0000000000000 -4833.3333333330002 -37180551.056600682 -14229731.397824174 -118409137.03909816 0.00012768621422076532 -0.00017012337372524151 -9.6991134865902944e-05 1.1999999992478747 -0.49999999958169095 -0.45368638633630143 
4000.0000000000000 8000.0000000000000 -5000.0000000000000 -37755622.370838895 -14804802.712232711 -120448026.24437386 0.00024725349267002398 -0.00014696476394354284 -4.8277307610764584e-05 1.1999999992385226 -0.99999999915473647 0.0000000000000000 
4000.0000000000000 9000.0000000000000 -5000.0000000000000 -37755622.369475037 -14804802.710745901 -120448026.23917584 0.00012954592712815973 -8.6924909402431855e-05 -4.5272605766856418e-05 1.1999999992448784 -0.49999999957982577 0.0000000000000000 
4000.0000000000000 8000.0000000000000 -4666.6666666669998 -36030356.942177914 -13079537.283373201 -114331176.08859956 0.00023399426802917455 -0.00054968475099901508 -0.00022674612118121854 1.1999999992504884 -0.99999999916933380 -0.89249062418535730 
4000.0000000000000 9000.0000000000000 -4666.6666666669998 -36030356.941011630 -13079537.282094242 -114331176.08414918 0.00012252657550860288 -0.00032926995375795888 -0.00021246210991054232 1.1999999992564820 -0.49999999958710445 -0.89249062415066838 
4000.0000000000000 8000.0000000000000 -4500.0000000000000 -34880059.842170790 -11929240.183126703 -110252850.00719865 0.00021978936928862726 -0.00078483149934626144 -0.00037316691900388376 1.1999999992643975 -0.99999999918658022 -1.3164113810037827 
4000.0000000000000 9000.0000000000000 -4500.0000000000000 -34880059.841125757 -11929240.181977868 -110252850.00322777 0.00011497214206763666 -0.00047438712361385683 -0.00035021391432006832 1.1999999992700019 -0.49999999959571412 -1.3164113809545350 
4000.0000000000000 8000.0000000000000 -4333.3333333330002 -33729659.748645306 -10778840.089279570 -106174158.76709025 0.00020276748890966047 -0.00099423654324595052 -0.00053822150524344872 1.1999999992827066 -0.99999999920953531 -1.7254473241938513 
4000.0000000000000 9000.0000000000000 -4333.3333333330002 -33729659.747714087 -10778840.088252448 -106174158.76358162 0.00010588970631862823 -0.00060639017182137359 -0.00050660274253463706 1.1999999992878412 -0.49999999960718711 -1.7254473241318189 
4000.0000000000000 8000.0000000000000 -4166.6666666669998 -32579156.652368695 -9628336.9926084001 -102095102.33552243 0.00018417473385831299 -0.0011804476380385183 -0.00071735836137576706 1.1999999993048645 -0.99999999923755578 -2.1195971210203202 
4000.0000000000000 9000.0000000000000 -4166.6666666669998 -32579156.651544824 -9628336.9916939382 -102095102.33245784 9.5948122274062562e-05 -0.00072616926752203635 -0.00067774204028677766 1.1999999993094843 -0.49999999962120756 -2.1195971209472089 
4000.0000000000000 8000.0000000000000 -4000.0000000000000 -31428550.544101693 -8477730.8838830218 -98015680.679724216 0.00016492765626955111 -0.0013458826635720283 -0.00090604569450359598 1.1999999993303925 -0.99999999927003813 -2.4988594386354275 
4000.0000000000000 9000.0000000000000 -4000.0000000000000 -31428550.543379311 -8477730.8830719367 -98015680.677084595 8.5648396036454557e-05 -0.00083459418510915492 -0.00085950545880236892 1.1999999993344803 -0.49999999963747616 -2.4988594385528704 
4000.0000000000000 8000.0000000000000 -3833.3333333330002 -30277841.414609589 -7327021.7538770624 -93935893.766942397 0.00014568481037407899 -0.0014928056590712215 -0.0010998376994596250 1.1999999993588790 -0.99999999930641459 -2.8632329440647122 
4000.0000000000000 9000.0000000000000 -3833.3333333330002 -30277841.413983241 -7327021.7531601870 -93935893.764707759 7.5356747854864016e-05 -0.00093249308674678115 -0.0010476748659974167 1.1999999993624380 -0.49999999965570907 -2.8632329439742703 
4000.0000000000000 8000.0000000000000 -3666.6666666669998 -29127029.254657436 -6176209.5933628939 -89855741.564423084 0.00012690468052617009 -0.0016233087195439923 -0.0012944264604031741 1.1999999993899744 -0.99999999934615658 -3.2127163042144962 
4000.0000000000000 9000.0000000000000 -3666.6666666669998 -29127029.254121922 -6176209.5927315131 -89855741.562572509 6.5331486328015201e-05 -0.0010206424725320783 -0.0012380239944530425 1.1999999993930215 -0.49999999967563763 -3.2127163041176492 
4000.0000000000000 8000.0000000000000 -3500.0000000000000 -27976114.055005051 -5025294.3931065844 -85775224.039393514 0.00010889019903364891 -0.0017392555049324122 -0.0014857280808794335 1.1999999994233888 -0.99999999938876905 -3.5473081858777786 
4000.0000000000000 9000.0000000000000 -3500.0000000000000 -27976114.054555364 -5025294.3925527520 -85775224.037905306 5.5746445875376264e-05 -0.0010997363540503537 -0.0014264497575581555 1.1999999994259509 -0.49999999969700892 -3.5473081857759223 
4000.0000000000000 8000.0000000000000 -3333.3333333330002 -26825095.806417461 -3874276.1438783323 -81694341.159098655 9.1828702507165452e-05 -0.0018422441164638015 -0.0016699013567302145 1.1999999994588892 -0.99999999943379336 -3.8670072557216555 
4000.0000000000000 9000.0000000000000 -3333.3333333330002 -26825095.806048743 -3874276.1433951217 -81694341.157950267 4.6710937140224327e-05 -0.0011703658075551450 -0.0016090236546893019 1.1999999994609987 -0.49999999971958420 -3.8670072556160986 
4000.0000000000000 8000.0000000000000 -3166.6666666669998 -25673974.499659818 -2723154.8364474047 -77613092.890783101 7.5823209593206257e-05 -0.0019335945647288469 -0.0018433833827207514 1.1999999994962958 -0.99999999948080187 -4.1718121802940038 
4000.0000000000000 9000.0000000000000 -3166.6666666669998 -25673974.499367278 -2723154.8360291258 -77613092.889951050 3.8285653157532031e-05 -0.0012330027970275047 -0.0017820345151314822 1.1999999994979875 -0.49999999974313869 -4.1718121801859640 
4000.0000000000000 8000.0000000000000 -3000.0000000000000 -24522750.125492085 -1571930.4615769282 -73531479.201672301 6.0911312585975482e-05 -0.0020143014191512706 -0.0020028664465917656 1.1999999995354769 -0.99999999952939767 -4.4617216260285693 
4000.0000000000000 9000.0000000000000 -3000.0000000000000 -24522750.125271127 -1571930.4612193885 -73531479.201132476 3.0494696180384554e-05 -0.0012879688061853815 -0.0019420276247517105 1.1999999995367874 -0.49999999976746079 -4.4617216259191643 
4000.0000000000000 8000.0000000000000 -2833.3333333330002 -23371422.674679466 -420603.01003436086 -69449500.059009477 4.7079125699452557e-05 -0.0020849908314800989 -0.0021452835045272863 1.1999999995763468 -0.99999999957921115 -4.7367342592339829 
4000.0000000000000 9000.0000000000000 -2833.3333333330002 -23371422.674525600 -420603.00973501068 -69449500.058736905 2.3332072756390776e-05 -0.0013354210637838856 -0.0020857733510655017 1.1999999995773114 -0.49999999979235227 -4.7367342591242325 
4000.0000000000000 8000.0000000000000 -2666.6666666669998 -22219992.137987249 730827.52741359419 -65367155.430037215 3.4274966038068927e-05 -0.0021458946943418741 -0.0022678044805926763 1.1999999996188606 -0.99999999962989949 -4.9968487460996585 
4000.0000000000000 9000.0000000000000 -2666.6666666669998 -22219992.137896150 730827.52765546541 -65367155.430006288 1.6766985947880334e-05 -0.0013753315621926139 -0.0022102555902629010 1.1999999996195128 -0.49999999981762461 -4.9968487459904738 
4000.0000000000000 8000.0000000000000 -2500.0000000000000 -21068458.506175537 1882361.1600061576 -61284445.281979002 2.2419351362642947e-05 -0.0021968384217489608 -0.0023677947760060037 1.1999999996630117 -0.99999999968113973 -5.2420637527000551 
4000.0000000000000 9000.0000000000000 -2500.0000000000000 -21068458.506143101 1882361.1601892714 -61284445.282163501 1.0751698158237793e-05 -0.0014074767541424210 -0.0023126870901733591 1.1999999996633826 -0.49999999984310012 -5.2420637525922382 
4000.0000000000000 8000.0000000000000 -2333.3333333330002 -19916821.770009708 3033997.8969780151 -57201369.582075901 1.1405812408861916e-05 -0.0022372004164901474 -0.0024428006265766818 1.1999999997088266 -0.99999999973262976 -5.4723779449853245 
4000.0000000000000 9000.0000000000000 -2333.3333333330002 -19916821.770031992 3033997.8970989916 -57201369.582448937 5.2249748068357295e-06 -0.0014314214452136364 -0.0023904699174329314 1.1999999997089434 -0.49999999986860899 -5.4723779448795620 
4000.0000000000000 8000.0000000000000 -2166.6666666669998 -18765081.920255225 4185737.7475644015 -53117928.297568187 1.1052148381811209e-06 -0.0022658745646226084 -0.0024905224767107752 1.1999999997563615 -0.99999999978408116 -5.6877899887863768 
4000.0000000000000 9000.0000000000000 -2166.6666666669998 -18765081.920328513 4185737.7476176303 -53117928.298102297 1.1196109268379376e-07 -0.0014464857873226942 -0.0024411627286866260 1.1999999997562474 -0.49999999989398797 -5.6877899886832362 
4000.0000000000000 8000.0000000000000 -2000.0000000000000 -17613238.947672468 5337580.7210062584 -49034121.395676799 -8.6307137725270050e-06 -0.0022812790529460254 -0.0025088232345107887 1.1999999998056994 -0.99999999983521737 -5.8882985498183649 
4000.0000000000000 9000.0000000000000 -2000.0000000000000 -17613238.947793312 5337580.7209837409 -49034121.396344133 -4.6765365949978434e-06 -0.0014517609002314036 -0.0024625346196665938 1.1999999998053728 -0.49999999991907906 -5.8882985497182894 
4000.0000000000000 8000.0000000000000 -1833.3333333329999 -16461292.843027199 6489526.8265397139 -44949948.843640186 -1.7971227269067089e-05 -0.0022813235013470776 -0.0024957323125394015 1.1999999998569446 -0.99999999988576960 -6.0739022936729166 
4000.0000000000000 9000.0000000000000 -1833.3333333329999 -16461292.843192417 6489526.8264309745 -44949948.844412513 -9.2418289510152016e-06 -0.0014460887927003662 -0.0024525225791437602 1.1999999998564188 -0.49999999994372718 -6.0739022935762241 
4000.0000000000000 8000.0000000000000 -1666.6666666670001 -15309243.597085427 7641576.0734011782 -40865410.608695880 -2.7103276931526980e-05 -0.0022633781363544736 -0.0024494428645480452 1.1999999999102215 -0.99999999993547128 -6.2445998858224163 
4000.0000000000000 9000.0000000000000 -1666.6666666670001 -15309243.597292073 7641576.0731932046 -40865410.609544501 -1.3696048904654085e-05 -0.0014280485600176699 -0.0024092625792027241 1.1999999999095043 -0.49999999996777772 -6.2445998857292873 
3000.0000000000000 6000.0000000000000 -4833.3333333330002 -37180551.064719230 -14229731.400266457 -118409137.05695114 0.00053401294914463913 -0.00020858666774333458 -0.00021936079578530374 1.3999999992646173 -1.9999999983701715 -0.45368638640107151 
3000.0000000000000 7000.0000000000000 -4833.3333333330002 -37180551.061174728 -14229731.398835640 -118409137.04285617 0.00041999827194475517 -0.00031915703299968554 -0.00016941142777942661 1.3999999992819825 -1.4999999987531636 -0.45368638634627695 
4000.0000000000000 7000.0000000000000 -4833.3333333330002 -37180551.060174547 -14229731.401095927 -118409137.05344956 0.00034490303683373959 -0.00029691025939287583 -0.00011789788238933890 1.1999999992316079 -1.4999999987377151 -0.45368638639074937 
4000.0000000000000 6000.0000000000000 -4833.3333333330002 -37180551.063558049 -14229731.402686838 -118409137.06864005 0.00042462929787607053 -0.00017211090876440165 -0.00014303713378530013 1.1999999992181962 -1.9999999983501255 -0.45368638645200215 
3000.0000000000000 6000.0000000000000 -5000.0000000000000 -37755622.377847388 -14804802.713425117 -120448026.25792435 0.00054426864355477597 -0.00011194738741299154 -0.00010456880877335946 1.3999999992613705 -1.9999999983631929 0.0000000000000000 
3000.0000000000000 7000.0000000000000 -5000.0000000000000 -37755622.374138266 -14804802.711841203 -120448026.24325134 0.00042766916720879909 -0.00016506493115015040 -7.9940320848177437e-05 1.3999999992791388 -1.4999999987478372 0.0000000000000000 
4000.0000000000000 7000.0000000000000 -5000.0000000000000 -37755622.373236082 -14804802.714210697 -120448026.25422940 0.00035007260735435327 -0.00015455670289255062 -5.5119320385606356e-05 1.1999999992283508 -1.4999999987320882 0.0000000000000000 
4000.0000000000000 6000.0000000000000 -5000.0000000000000 -37755622.376801550 -14804802.715982698 -120448026.27010989 0.00043145235308154775 -9.4520982844227238e-05 -6.7253503021560591e-05 1.1999999992146928 -1.9999999983427355 0.0000000000000000 
3000.0000000000000 6000.0000000000000 -4666.6666666669998 -36030356.948623724 -13079537.284084383 -114331176.10022959 0.00050624990644757776 -0.00037298272058087448 -0.00046671105589452021 1.3999999992738754 -1.9999999983903736 -0.89249062427339509 
3000.0000000000000 7000.0000000000000 -4666.6666666669998 -36030356.945403732 -13079537.282943789 -114331176.08727264 0.00039911180895111037 -0.00060614168047336595 -0.00036594102239230237 1.3999999992901926 -1.4999999987686399 -0.89249062416804026 
4000.0000000000000 7000.0000000000000 -4666.6666666669998 -36030356.944226064 -13079537.284992818 -114331176.09712005 0.00033069101468496373 -0.00055884957632365323 -0.00025707610590355038 1.1999999992409285 -1.4999999987539956 -0.89249062425432091 
4000.0000000000000 6000.0000000000000 -4666.6666666669998 -36030356.947263971 -13079537.286243692 -114331176.11096114 0.00040601737002567519 -0.00029647147376179583 -0.00030914726019928097 1.1999999992281716 -1.9999999983714223 -0.89249062437163029 
3000.0000000000000 6000.0000000000000 -4500.0000000000000 -34880059.848231658 -11929240.183560401 -110252850.01757346 0.00046715908598764336 -0.00048317394833572000 -0.00074432009701894000 1.3999999992882217 -1.9999999984223851 -1.3164113811285365 
3000.0000000000000 7000.0000000000000 -4500.0000000000000 -34880059.845325172 -11929240.182677129 -110252850.00571789 0.00036941562704590099 -0.00085229744795104368 -0.00059430632863119036 1.3999999993031194 -1.4999999987932804 -1.3164113809767188 
4000.0000000000000 7000.0000000000000 -4500.0000000000000 -34880059.844008036 -11929240.184530530 -110252850.01486693 0.00031017200256816481 -0.00077831960724827247 -0.00042029391595064212 1.1999999992554782 -1.4999999987797745 -1.3164113811022988 
4000.0000000000000 6000.0000000000000 -4500.0000000000000 -34880059.846733756 -11929240.185485471 -110252850.02741981 0.00037948792320144804 -0.00036491282246269935 -0.00049979166555532578 1.1999999992436370 -1.9999999984049643 -1.3164113812706217 
3000.0000000000000 6000.0000000000000 -4333.3333333330002 -33729659.754311711 -10778840.089473655 -106174158.77623278 0.00042207595524248413 -0.00054653477259031323 -0.0010420965621581180 1.3999999993068342 -1.9999999984648935 -1.7254473243505717 
3000.0000000000000 7000.0000000000000 -4333.3333333330002 -33729659.751705036 -10778840.088813355 -106174158.76544093 0.00033477872625948288 -0.0010610812903844237 -0.00084743710694221478 1.3999999993201249 -1.4999999988261477 -1.7254473241562602 
4000.0000000000000 7000.0000000000000 -4333.3333333330002 -33729659.750287078 -10778840.090488736 -106174158.77394019 0.00028583627387682408 -0.00096125100435485783 -0.00060148741667914501 1.1999999992745460 -1.4999999988139781 -1.7254473243187645 
4000.0000000000000 6000.0000000000000 -4333.3333333330002 -33729659.752728447 -10778840.091191141 -106174158.78526594 0.00034847369380855067 -0.00038834939443751115 -0.00070669530313259175 1.1999999992637689 -1.9999999984492496 -1.7254473245332347 
3000.0000000000000 6000.0000000000000 -4166.6666666669998 -32579156.657632507 -9628336.9926008713 -102095102.34345789 0.00037460134847137991 -0.00057080109665167669 -0.0013509981003558408 1.3999999993290051 -1.9999999985166852 -2.1195971212043649 
3000.0000000000000 7000.0000000000000 -4166.6666666669998 -32579156.655309897 -9628336.9921286944 -102095102.33369069 0.00029788337180575039 -0.0012364233451839872 -0.0011179200789743400 1.3999999993406274 -1.4999999988663488 -2.1195971209714091 
4000.0000000000000 7000.0000000000000 -4166.6666666669998 -32579156.653828323 -9628336.9936444368 -102095102.34158894 0.00025948948762480437 -0.0011131458159530528 -0.00079511192781274746 1.1999999992975239 -1.4999999988556139 -2.1195971211685856 
4000.0000000000000 6000.0000000000000 -4166.6666666669998 -32579156.656009078 -9628336.9941363949 -102095102.35174823 0.00031537038609477121 -0.00037669867842060460 -0.00092295139945382178 1.1999999992878774 -1.9999999985029293 -2.1195971214245248 
3000.0000000000000 6000.0000000000000 -4000.0000000000000 -31428550.548957307 -8477730.8837112449 -98015680.686480790 0.00032710994337063737 -0.00056372312271498761 -0.0016632813151878044 1.3999999993541468 -1.9999999985766463 -2.4988594388422736 
3000.0000000000000 7000.0000000000000 -4000.0000000000000 -31428550.546901666 -8477730.8833927736 -98015680.677697748 0.00026056051912924931 -0.0013824709668466579 -0.0013987246438856092 1.3999999993641175 -1.4999999989130439 -2.4988594385743990 
4000.0000000000000 7000.0000000000000 -4000.0000000000000 -31428550.545390982 -8477730.8847671766 -98015680.685043097 0.00023241164251037406 -0.0012390638593107641 -0.00099604960338376238 1.1999999993238915 -1.4999999989037673 -2.4988594388041183 
4000.0000000000000 6000.0000000000000 -4000.0000000000000 -31428550.547331929 -8477730.8850888945 -98015680.694096178 0.00028180469906373959 -0.00033894518412652463 -0.0011427116641349500 1.1999999993153858 -1.9999999985647912 -2.4988594390970476 
3000.0000000000000 6000.0000000000000 -3833.3333333330002 -30277841.419054355 -7327021.7535769679 -93935893.772551998 0.00028111542947435790 -0.00053286610819141503 -0.0019724911403995859 1.3999999993817820 -1.9999999986437604 -2.8632329442899649 
3000.0000000000000 7000.0000000000000 -3833.3333333330002 -30277841.417247847 -7327021.7533790274 -93935893.764711156 0.00022403506639359535 -0.0015034307223323984 -0.0016835062124709022 1.3999999993901691 -1.4999999989654453 -2.8632329439907780 
4000.0000000000000 7000.0000000000000 -3833.3333333330002 -30277841.415739328 -7327021.7546297507 -93935893.771550253 0.00020548454148898294 -0.0013436465104770630 -0.0011995867501695240 1.1999999993532080 -1.4999999989575985 -2.8632329442510303 
4000.0000000000000 6000.0000000000000 -3833.3333333330002 -30277841.417459115 -7327021.7548189927 -93935893.779556900 0.00024883647574781468 -0.00028323175865030534 -0.0013609743155507418 1.1999999993458148 -1.9999999986337540 -2.8632329445766733 
3000.0000000000000 6000.0000000000000 -3666.6666666669998 -29127029.258691505 -6176209.5929680979 -89855741.568922102 0.00023752778052638058 -0.00048546485308496444 -0.0022733145965439976 1.3999999994115409 -1.9999999987171075 -3.2127163044539020 
3000.0000000000000 7000.0000000000000 -3666.6666666669998 -29127029.257116072 -6176209.5928594936 -89855741.561979979 0.00018909945978547261 -0.0016034133319631631 -0.0019666953001007664 1.3999999994184411 -1.4999999990228190 -3.2127163041268827 
4000.0000000000000 7000.0000000000000 -3666.6666666669998 -29127029.255637664 -6176209.5940032275 -89855741.568357378 0.00017929569563860753 -0.0014311273998088654 -0.0014013610790627427 1.1999999993851034 -1.4999999990163386 -3.2127163044157752 
4000.0000000000000 6000.0000000000000 -3666.6666666669998 -29127029.257153336 -6176209.5940948138 -89855741.575376987 0.00021711652558054772 -0.00021691930576169780 -0.0015733873053610978 1.1999999993787733 -1.9999999987088546 -3.2127163047700664 
3000.0000000000000 6000.0000000000000 -3500.0000000000000 -27976114.058630969 -5025294.3926475160 -85775224.042822987 0.00019684029254653235 -0.00042822944826038928 -0.0025614267785211641 1.3999999994431442 -1.9999999987958612 -3.5473081861272346 
3000.0000000000000 7000.0000000000000 -3500.0000000000000 -27976114.057268683 -5025294.3925996516 -85775224.036734879 0.00015624032667597171 -0.0016863033929784559 -0.0022434770070011247 1.3999999994486712 -1.4999999990844850 -3.5473081857757296 
4000.0000000000000 7000.0000000000000 -3500.0000000000000 -27976114.055845257 -5025294.3936519325 -85775224.042692557 0.00015421614357605679 -0.0015052879253839692 -0.0015973839431578166 1.1999999994192763 -1.4999999990792854 -3.5473081860914917 
4000.0000000000000 6000.0000000000000 -3500.0000000000000 -27976114.057172626 -5025294.3936773017 -85775224.048784137 0.00018700637888677013 -0.00014653811622516817 -0.0017761844959670561 1.1999999994139461 -1.9999999987892418 -3.5473081864705769 
3000.0000000000000 6000.0000000000000 -3333.3333333330002 -26825095.809639666 -3874276.1433814680 -81694341.161504805 0.00015926094683782924 -0.00036724643641829658 -0.0028332577514171469 1.3999999994763979 -1.9999999988792874 -3.8670072559772315 
3000.0000000000000 7000.0000000000000 -3333.3333333330002 -26825095.808473039 -3874276.1433688449 -81694341.156224743 0.00012572946570493606 -0.0017556424126167842 -0.0025096740235631613 1.3999999994806713 -1.4999999991498176 -3.8670072556044461 
4000.0000000000000 7000.0000000000000 -3333.3333333330002 -26825095.807126712 -3874276.1443439578 -81694341.161801636 0.00013045974029183343 -0.0015694081250901154 -0.0017840059496017514 1.1999999994554862 -1.4999999991457993 -3.8670072559454236 
4000.0000000000000 6000.0000000000000 -3333.3333333330002 -26825095.808280587 -3874276.1443307907 -81694341.167023912 0.00015866460092849716 -7.7793283256445580e-05 -0.0019660518536052519 1.1999999994510864 -1.9999999988741668 -3.8670072563456648 
3000.0000000000000 6000.0000000000000 -3166.6666666669998 -25673974.502483897 -2723154.8359344434 -77613092.892217174 0.00012480491362149867 -0.00030785976230869984 -0.0030858212797477223 1.3999999995111798 -1.9999999989667339 -4.1718121805519637 
3000.0000000000000 7000.0000000000000 -3166.6666666669998 -25673974.501496106 -2723154.8359351186 -77613092.887698203 9.7687282258672938e-05 -0.0018145199921535092 -0.0027616332216574432 1.3999999995143193 -1.4999999992182418 -4.1718121801609547 
4000.0000000000000 7000.0000000000000 -3166.6666666669998 -25673974.500246789 -2723154.8368461011 -77613092.892929986 0.00010812896982966217 -0.0016262492152490646 -0.0019579161924044835 1.1999999994935495 -1.4999999992152995 -4.1718121805255999 
4000.0000000000000 6000.0000000000000 -3166.6666666669998 -25673974.501241013 -2723154.8368179724 -77613092.897341251 0.00013211304099003217 -1.5542638008535686e-05 -0.0021400702319666195 1.1999999994900097 -1.9999999989629769 -4.1718121809435802 
3000.0000000000000 6000.0000000000000 -3000.0000000000000 -24522750.127924237 -1571930.4610641936 -73531479.202190951 9.3363324863692960e-05 -0.00025464718078056976 -0.0033165412724903550 1.3999999995474339 -1.9999999990576289 -4.4617216262853887 
3000.0000000000000 7000.0000000000000 -3000.0000000000000 -24522750.127099268 -1571930.4610601172 -73531479.198385254 7.2123236028909037e-05 -0.0018655218732324497 -0.0029960921080868655 1.3999999995495556 -1.4999999992892330 -4.4617216258790497 
4000.0000000000000 7000.0000000000000 -3000.0000000000000 -24522750.125965096 -1571930.4619187387 -73531479.203303844 8.7241637238667853e-05 -0.0016780205910461206 -0.0021160833211630080 1.1999999995333350 -1.4999999992872579 -4.4617216262659278 
4000.0000000000000 6000.0000000000000 -3000.0000000000000 -24522750.126812708 -1571930.4618949178 -73531479.206962183 0.00010728182926756621 3.6206340015669021e-05 -0.0022956435097822889 1.1999999995305857 -1.9999999990551010 -4.4617216266984530 
3000.0000000000000 6000.0000000000000 -2833.3333333330002 -23371422.676725928 -420603.00953222602 -69449500.058674827 6.4749614614886288e-05 -0.00021138736135475179 -0.0035230681852214361 1.3999999995851606 -1.9999999991514765 -4.7367342594863819 
3000.0000000000000 7000.0000000000000 -2833.3333333330002 -23371422.676048692 -420603.00950953458 -69449500.055533841 4.8966575464423013e-05 -0.0019106543853041444 -0.0032100219915764481 1.3999999995863757 -1.4999999993623094 -4.7367342590674406 
4000.0000000000000 7000.0000000000000 -2833.3333333330002 -23371422.675046492 -420603.01032635185 -69449500.060167298 6.7756456605564874e-05 -0.0017263166184321639 -0.0022557243327572976 1.1999999995747583 -1.4999999993611974 -4.7367342594752051 
4000.0000000000000 6000.0000000000000 -2833.3333333330002 -23371422.675759725 -420603.01032159931 -69449500.063130558 8.4046163787792941e-05 7.4293593062539306e-05 -0.0024304350564096503 1.1999999995727342 -1.9999999991500472 -4.7367342599193156 
3000.0000000000000 6000.0000000000000 -2666.6666666669998 -22219992.139653683 730827.52790128510 -65367155.428916700 3.8730248254338395e-05 -0.00018098253051004588 -0.0037031874989006206 1.3999999996244143 -1.9999999992478410 -4.9968487463446225 
3000.0000000000000 7000.0000000000000 -2666.6666666669998 -22219992.139110073 730827.52795204427 -65367155.426391214 2.8091660237577591e-05 -0.0019513043018184674 -0.0034005411410675561 1.3999999996248251 -1.4999999994370325 -4.9968487459156288 
4000.0000000000000 7000.0000000000000 -2666.6666666669998 -22219992.138255857 730827.52716760710 -65367155.430763572 4.9592765399359793e-05 -0.0017721088858550541 -0.0023743051198388512 1.1999999996177779 -1.4999999994366837 -4.9968487463430131 
4000.0000000000000 6000.0000000000000 -2666.6666666669998 -22219992.138846144 730827.52714320493 -65367155.433089383 6.2252582315059656e-05 9.6416580094145293e-05 -0.0025423355792948223 1.1999999996164190 -1.9999999992473909 -4.9968487467959841 
3000.0000000000000 6000.0000000000000 -2500.0000000000000 -21068458.507466633 1882361.1604824911 -61284445.280145466 1.5042097079852587e-05 -0.00016545556955392749 -0.0038546616024254113 1.3999999996652954 -1.9999999993463489 -5.2420637529348753 
3000.0000000000000 7000.0000000000000 -2500.0000000000000 -21068458.507043581 1882361.1605661730 -61284445.278185710 9.3256452911585690e-06 -0.0019881812697557857 -0.0035648089065994986 1.3999999996649970 -1.4999999995130007 -5.2420637524981863 
4000.0000000000000 7000.0000000000000 -2500.0000000000000 -21068458.506352920 1882361.1598057644 -61284445.282316931 3.2636519659465697e-05 -0.0018157220013345933 -0.0024694549760461639 1.1999999996623905 -1.4999999995133206 -5.2420637529439951 
4000.0000000000000 6000.0000000000000 -2500.0000000000000 -21068458.506830901 1882361.1597468925 -61284445.284062758 4.1725596285638458e-05 0.00010113054061819160 -0.0026293764627820983 1.1999999996616424 -1.9999999993467676 -5.2420637534033423 
3000.0000000000000 6000.0000000000000 -2333.3333333330002 -19916821.770928703 3033997.8974534455 -57201369.579607569 -6.5974944973591799e-06 -0.00016593832279071828 -0.0039751195325472624 1.3999999997079480 -1.9999999994466757 -5.4723779452076187 
3000.0000000000000 7000.0000000000000 -2333.3333333330002 -19916821.770614211 3033997.8975701178 -57201369.578163259 -7.5455378592968082e-06 -0.0020212826924741129 -0.0036998893886623753 1.3999999997070249 -1.4999999995898412 -5.4723779447653973 
4000.0000000000000 7000.0000000000000 -2333.3333333330002 -19916821.770102620 3033997.8968263934 -57201369.582069091 1.6746671042932249e-05 -0.0018567853254703205 -0.0025389673805516380 1.1999999997086279 -1.4999999995907456 -5.4723779452284855 
4000.0000000000000 6000.0000000000000 -2333.3333333330002 -19916821.770478114 3033997.8967326498 -57201369.583292201 2.2279410411127718e-05 8.7863907910500316e-05 -0.0026897363291478391 1.1999999997084425 -1.9999999994478626 -5.4723779456919708 
3000.0000000000000 6000.0000000000000 -2166.6666666669998 -18765081.920803655 4185737.7480570860 -53117928.294548914 -2.6485401110970018e-05 -0.00018267398587678261 -0.0040619702710236643 1.3999999997525594 -1.9999999995485374 -5.6877899889941324 
3000.0000000000000 7000.0000000000000 -2166.6666666669998 -18765081.920586761 4185737.7482018950 -53117928.293569125 -2.2772635266301343e-05 -0.0020498798022657318 -0.0038026638119443975 1.3999999997510850 -1.4999999996672104 -5.6877899885483316 
4000.0000000000000 7000.0000000000000 -2166.6666666669998 -18765081.920269966 4185737.7474684911 -53117928.297260903 1.7589993013872553e-06 -0.0018942364428880167 -0.0025807702408221418 1.1999999997565520 -1.4999999996686240 -5.6877899890275874 
4000.0000000000000 6000.0000000000000 -2166.6666666669998 -18765081.920552026 4185737.7473444520 -53117928.298018582 3.7245843842954307e-06 5.6886566108166526e-05 -0.0027216786289352068 1.1999999997568886 -1.9999999995504063 -5.6877899894932291 
3000.0000000000000 6000.0000000000000 -2000.0000000000000 -17613238.947849791 5337580.7215425028 -49034121.392195754 -4.4935247124040357e-05 -0.00021496642270155196 -0.0041123063564344909 1.3999999997993553 -1.9999999996516853 -5.8882985500099672 
3000.0000000000000 7000.0000000000000 -2000.0000000000000 -17613238.947720643 5337580.7217054702 -49034121.391629070 -3.6643527045633347e-05 -0.0020724573266169355 -0.0038697733158934784 1.3999999997973918 -1.4999999997447817 -5.8882985495623226 
4000.0000000000000 7000.0000000000000 -2000.0000000000000 -17613238.947614860 5337580.7209769208 -49034121.395113781 -1.2511669464646492e-05 -0.0019262786023055512 -0.0025929135689839134 1.1999999998062518 -1.4999999997466409 -5.8882985500566543 
4000.0000000000000 6000.0000000000000 -2000.0000000000000 -17613238.947811753 5337580.7208322650 -49034121.395463347 -1.4135910684150690e-05 9.3579922296934943e-06 -0.0027235524185581792 1.1999999998070765 -1.9999999996541613 -5.8882985505227250 
3000.0000000000000 6000.0000000000000 -1833.3333333329999 -16461292.842830595 6489526.8271543402 -44949948.839791976 -6.2290389838947136e-05 -0.00026117200054534388 -0.0041228318933243663 1.3999999998485988 -1.9999999997558946 -6.0739022938471869 
3000.0000000000000 7000.0000000000000 -1833.3333333329999 -16461292.842780475 6489526.8273201473 -44949948.839586511 -4.9487604870379555e-05 -0.0020867181954894848 -0.0038975286276791725 1.3999999998461958 -1.4999999998222420 -6.0739022933992066 
4000.0000000000000 7000.0000000000000 -1833.3333333329999 -16461292.842902558 6489526.8265919052 -44949948.842866607 -2.6271341305123540e-05 -0.0019503770367995863 -0.0025735900397287686 1.1999999998578395 -1.4999999998244973 -6.0739022939075165 
4000.0000000000000 6000.0000000000000 -1833.3333333329999 -16461292.843021750 6489526.8264415888 -44949948.842865355 -3.1509379165158105e-05 -5.2692975415240620e-05 -0.0026937978313012439 1.1999999998591280 -1.9999999997589162 -6.0739022943725534 
3000.0000000000000 6000.0000000000000 -1666.6666666670001 -15309243.596509693 7641576.0741378870 -40865410.604580708 -7.8939041118360233e-05 -0.00031869024494537177 -0.0040897537987265534 1.3999999999005923 -1.9999999998609559 -6.2445998859786451 
3000.0000000000000 7000.0000000000000 -1666.6666666670001 -15309243.596530994 7641576.0742857046 -40865410.604683854 -6.1678882387003852e-05 -0.0020895406758991682 -0.0038818252894690210 1.3999999998977837 -1.4999999998992857 -6.2445998855316001 
4000.0000000000000 7000.0000000000000 -1666.6666666670001 -15309243.596898578 7641576.0735540856 -40865410.607757352 -3.9746028216207577e-05 -0.0019632340665912433 -0.0025211113081060389 1.1999999999114477 -1.4999999999019009 -6.2445998860527663 
4000.0000000000000 6000.0000000000000 -1666.6666666670001 -15309243.596946757 7641576.0734185306 -40865410.607462637 -4.8619916816419688e-05 -0.00012636709579183042 -0.0026309371279303068 1.1999999999131827 -1.9999999998644780 -6.2445998865155792 
5000.0000000000000 0.0000000000000000 -4833.3333333330002 -37180551.090274319 -14229731.393994421 -118409137.21533684 0.00014303962020885942 0.00015611516020078243 8.5782584801110857e-06 0.99999999924431693 -5.0000000000000000 -0.45368638709983544 
5000.0000000000000 1000.0000000000000 -4833.3333333330002 -37180551.088816226 -14229731.395105492 -118409137.20838389 0.00020949369422909071 0.00031787265854309735 3.2760505842843298e-05 0.99999999925036842 -4.4999999991705879 -0.45368638707276221 
6000.0000000000000 1000.0000000000000 -4833.3333333330002 -37180551.089700013 -14229731.396182572 -118409137.21330887 0.00030915185552659219 0.00040050128839353469 0.00025194171675754312 0.79999999937027522 -4.4999999991558974 -0.45368638708204362 
6000.0000000000000 0.0000000000000000 -4833.3333333330002 -37180551.091106534 -14229731.395023504 -118409137.22114423 0.00022102198621354701 0.00023119575101471598 0.00019694209271529559 0.79999999935989152 -5.0000000000000000 -0.45368638711920872 
5000.0000000000000 0.0000000000000000 -5000.0000000000000 -37755622.405292779 -14804802.708944872 -120448026.42341948 0.00014806666355031157 7.3625783955452273e-05 5.6014462374252285e-06 0.99999999924138216 -5.0000000000000000 0.0000000000000000 
5000.0000000000000 1000.0000000000000 -5000.0000000000000 -37755622.403745040 -14804802.709975926 -120448026.41617534 0.00021522072004383940 0.00015157138734165043 1.7424113414070928e-05 0.99999999924768224 -4.4999999991673008 0.0000000000000000 
6000.0000000000000 1000.0000000000000 -5000.0000000000000 -37755622.404618420 -14804802.710999005 -120448026.42088053 0.00032012443835450555 0.00019324935538123832 0.00012798568376070108 0.79999999936922495 -4.4999999991519797 0.0000000000000000 
6000.0000000000000 0.0000000000000000 -5000.0000000000000 -37755622.406134143 -14804802.709937112 -120448026.42912444 0.00023066706706921562 0.00011193435560281125 0.00010043162735041882 0.79999999935823651 -5.0000000000000000 0.0000000000000000 
5000.0000000000000 0.0000000000000000 -4666.6666666669998 -36030356.970710978 -13079537.274636118 -114331176.24519186 0.00013004758586261758 0.00033745017444606728 8.4439256504249084e-06 0.99999999925285976 -5.0000000000000000 -0.89249062561505077 
5000.0000000000000 1000.0000000000000 -4666.6666666669998 -36030356.969420329 -13079537.275887694 -114331176.23876505 0.00019432735060737264 0.00067679269166095405 5.7513707219445735e-05 0.99999999925829119 -4.4999999991799067 -0.89249062556183389 
6000.0000000000000 1000.0000000000000 -4666.6666666669998 -36030356.970264405 -13079537.277035594 -114331176.24400751 0.00028054751818334939 0.00083805387729642903 0.00048725577407268965 0.79999999937421906 -4.4999999991667758 -0.89249062558512449 
6000.0000000000000 0.0000000000000000 -4666.6666666669998 -36030356.971477613 -13079537.275715137 -114331176.25110015 0.00019642967596811828 0.00048155788584418189 0.00037911712064300144 0.79999999936525812 -5.0000000000000000 -0.89249062565599480 
5000.0000000000000 0.0000000000000000 -4500.0000000000000 -34880059.867423549 -11929240.171689764 -110252850.15061177 0.00011315103511682591 0.00054858434584996679 -4.9731942632643778e-06 0.99999999926651728 -5.0000000000000000 -1.3164113830632835 
5000.0000000000000 1000.0000000000000 -4500.0000000000000 -34880059.866276652 -11929240.173045265 -110252850.14461091 0.00017375968963925071 0.0010824920546223561 6.7970811484364312e-05 0.99999999927116623 -4.4999999991942516 -1.3164113829846569 
6000.0000000000000 1000.0000000000000 -4500.0000000000000 -34880059.866992459 -11929240.174202384 -110252850.14995512 0.00024278464751225899 0.0013134073127594567 0.00069136021596770511 0.79999999938216559 -4.4999999991830748 -1.3164113830249597 
6000.0000000000000 0.0000000000000000 -4500.0000000000000 -34880059.868056834 -11929240.172776788 -110252850.15644068 0.00016520785407421351 0.00075102978172445238 0.00053570480025627750 0.79999999937486199 -5.0000000000000000 -1.3164113831267044 
5000.0000000000000 0.0000000000000000 -4333.3333333330002 -33729659.771086991 -10778840.075823260 -106174158.89867499 9.5399217152669746e-05 0.00078349878326136602 -3.2809883697932393e-05 0.99999999928483219 -5.0000000000000000 -1.7254473268339448 
5000.0000000000000 1000.0000000000000 -4333.3333333330002 -33729659.770060956 -10778840.077251201 -106174158.89302070 0.00015107000285146646 0.0015238431575700425 6.1008752617928302e-05 0.99999999928866867 -4.4999999992127577 -1.7254473267305332 
6000.0000000000000 1000.0000000000000 -4333.3333333330002 -33729659.770612553 -10778840.078377446 -106174158.89830284 0.00020237939854761826 0.0018122114420416791 0.00085693874068539790 0.79999999939448230 -4.4999999992036299 -1.7254473267894748 
6000.0000000000000 0.0000000000000000 -4333.3333333330002 -33729659.771562651 -10778840.076886928 -106174158.90429337 0.00013332125711746734 0.0010318831760022626 0.00066218376688318261 0.79999999938878852 -5.0000000000000000 -1.7254473269197828 
5000.0000000000000 0.0000000000000000 -4166.6666666669998 -32579156.672397364 -9628336.9777212180 -102095102.45648019 7.8402327717093465e-05 0.0010362900176539994 -7.4262301443741836e-05 0.99999999930736005 -5.0000000000000000 -2.1195971241965919 
5000.0000000000000 1000.0000000000000 -4166.6666666669998 -32579156.671471011 -9628336.9791950919 -102095102.45110819 0.00012824892528490910 0.0019910017644980686 3.6581093080238362e-05 0.99999999931042782 -4.4999999992347215 -2.1195971240689491 
6000.0000000000000 1000.0000000000000 -4166.6666666669998 -32579156.671854544 -9628336.9802652542 -102095102.45620708 0.00016295353142824030 0.0023240044223536982 0.00098394568655416309 0.79999999941112399 -4.4999999992275628 -2.1195971241470910 
6000.0000000000000 0.0000000000000000 -4166.6666666669998 -32579156.672717534 -9628336.9787393510 -102095102.46179569 0.00010365982265605120 0.0013188332982047260 0.00075913354727473155 0.79999999940686883 -5.0000000000000000 -2.1195971243040876 
5000.0000000000000 0.0000000000000000 -4000.0000000000000 -31428550.562060468 -8477730.8680767715 -98015680.791124403 6.2921078768554575e-05 0.0013017107215769846 -0.00012714896274529025 0.99999999933366923 -5.0000000000000000 -2.4988594423077073 
5000.0000000000000 1000.0000000000000 -4000.0000000000000 -31428550.561214674 -8477730.8695743997 -98015680.785981804 0.00010643741726242330 0.0024754965635145295 -3.3006999373387730e-06 0.99999999933604766 -4.4999999992595825 -2.4988594421563275 
6000.0000000000000 1000.0000000000000 -4000.0000000000000 -31428550.561444964 -8477730.8705736529 -98015680.790810719 0.00012638388370712935 0.0028410114910163132 0.0010761834365459223 0.79999999943182243 -4.4999999992542312 -2.4988594422534303 
6000.0000000000000 0.0000000000000000 -4000.0000000000000 -31428550.562242445 -8477730.8690347224 -98015680.796074986 7.7430031094147679e-05 0.0016081690887031312 0.00082988118270434382 0.79999999942879507 -5.0000000000000000 -2.4988594424356103 
5000.0000000000000 0.0000000000000000 -3833.3333333330002 -30277841.430798080 -7327021.7375995144 -93935893.869737118 4.9230922644342967e-05 0.0015751342899861308 -0.00018843675370474829 0.99999999936334738 -5.0000000000000000 -2.8632329481965866 
5000.0000000000000 1000.0000000000000 -3833.3333333330002 -30277841.430015851 -7327021.7391021904 -93935893.864779651 8.6229030178904369e-05 0.0029700102348605463 -5.5391955644057390e-05 0.99999999936512829 -4.4999999992869126 -2.8632329480219072 
6000.0000000000000 1000.0000000000000 -3833.3333333330002 -30277841.430117570 -7327021.7400229331 -93935893.869279444 9.3498426618780021e-05 0.0033572126564298662 0.0011392633131634079 0.79999999945620037 -4.4999999992831663 -2.8632329481371532 
6000.0000000000000 0.0000000000000000 -3833.3333333330002 -30277841.430866949 -7327021.7384885624 -93935893.874284148 5.4928337020402796e-05 0.0018970558961963475 0.00087906383141358622 0.79999999945419020 -5.0000000000000000 -2.8632329483433168 
5000.0000000000000 0.0000000000000000 -3666.6666666669998 -29127029.269339874 -6176209.5770083806 -89855741.659459352 3.7337302572578698e-05 0.0018526202422960948 -0.00025460109385676760 0.99999999939600992 -5.0000000000000000 -3.2127163087728694 
5000.0000000000000 1000.0000000000000 -3666.6666666669998 -29127029.268606238 -6176209.5784999905 -89855741.654649809 6.7867546365175886e-05 0.0034681989391634450 -0.00011578210690910913 0.99999999939728368 -4.4999999993164002 -3.2127163085752715 
6000.0000000000000 1000.0000000000000 -3666.6666666669998 -29127029.268608268 -6176209.5793396253 -89855741.658783048 6.4506099585443687e-05 0.0038678111015851267 0.0011793889857123106 0.79999999948383771 -4.4999999993140527 -3.2127163087074351 
6000.0000000000000 0.0000000000000000 -3666.6666666669998 -29127029.269323766 -6176209.5778243560 -89855741.663582280 3.5988069345211731e-05 0.0021832830757783296 0.00091175402657891439 0.79999999948265377 -5.0000000000000000 -3.2127163089366415 
5000.0000000000000 0.0000000000000000 -3500.0000000000000 -27976114.068416223 -5025294.3770249197 -85775224.127423555 2.7105116798174707e-05 0.0021308144668936092 -0.00032199546470606020 0.99999999943130780 -5.0000000000000000 -3.5473081908324775 
5000.0000000000000 1000.0000000000000 -3500.0000000000000 -27976114.067718063 -5025294.3784911744 -85775224.122730464 5.1381851727607105e-05 0.0039644914144131606 -0.00018036838996592848 0.99999999943215634 -4.4999999993478381 -3.5473081906122870 
6000.0000000000000 1000.0000000000000 -3500.0000000000000 -27976114.067649916 -5025294.3792505413 -85775224.126476869 3.9272970729505567e-05 0.0043687367220842498 0.0012026307852380585 0.79999999951431089 -4.4999999993466924 -3.5473081907598720 
6000.0000000000000 0.0000000000000000 -3500.0000000000000 -27976114.068343304 -5025294.3777670655 -85775224.131115600 2.0229271305693842e-05 0.0024649903486959027 0.00093291067398977752 0.79999999951378997 -5.0000000000000000 -3.5473081910113948 
5000.0000000000000 0.0000000000000000 -3333.3333333330002 -26825095.818767160 -3874276.1283824658 -81694341.240788609 1.8329175061105145e-05 0.0024067532510393761 -0.00038707689406369388 0.99999999946893037 -5.0000000000000000 -3.8670072610450790 
5000.0000000000000 1000.0000000000000 -3333.3333333330002 -26825095.818092983 -3874276.1298101707 -81694341.236185431 3.6670982716042500e-05 0.0044538585066287682 -0.00024514441534582580 0.99999999946942508 -4.4999999993811164 -3.8670072608025627 
6000.0000000000000 1000.0000000000000 -3333.3333333330002 -26825095.817982618 -3874276.1304924185 -81694341.239538044 1.7483666078866601e-05 0.0048563210460042493 0.0012145421652301432 0.79999999954721579 -4.4999999993809894 -3.8670072609639168 
6000.0000000000000 0.0000000000000000 -3333.3333333330002 -26825095.818663776 -3874276.1290524909 -81694341.244053423 7.1879771335440759e-06 0.0027404569050306820 0.00094708038267710235 0.79999999954722412 -5.0000000000000000 -3.8670072612372071 
5000.0000000000000 0.0000000000000000 -3166.6666666669998 -25673974.511136152 -2723154.8218200458 -77613092.966720447 1.0782764133012295e-05 0.0026777195629827514 -0.00044652691512911641 0.99999999950860796 -5.0000000000000000 -4.1718121859608024 
5000.0000000000000 1000.0000000000000 -3166.6666666669998 -25673974.510475874 -2723154.8231964451 -77613092.962184995 2.3568452227542057e-05 0.0049315634687113587 -0.00030636783874418553 0.99999999950880702 -4.4999999994162030 -4.1718121856961714 
6000.0000000000000 1000.0000000000000 -3166.6666666669998 -25673974.510348402 -2723154.8238062039 -77613092.965147018 -1.2592151480421662e-06 0.0053270697430646214 0.0012199551084508930 0.79999999958218182 -4.4999999994169366 -4.1718121858695669 
6000.0000000000000 0.0000000000000000 -3166.6666666669998 -25673974.511025734 -2723154.8224214027 -77613092.969569474 -3.6068537475200886e-06 0.0030080041198822143 0.00095822497567934562 0.79999999958261225 -5.0000000000000000 -4.1718121861642166 
5000.0000000000000 0.0000000000000000 -3000.0000000000000 -24522750.136264097 -1571930.4480763380 -73531479.272371918 4.2466552242035172e-06 0.0029411653887605345 -0.00049737673296534565 0.99999999955011065 -5.0000000000000000 -4.4617216320153439 
5000.0000000000000 1000.0000000000000 -3000.0000000000000 -24522750.135608848 -1571930.4493885401 -73531479.267886117 1.1883070345835151e-05 0.0053930160486045445 -0.00036069479625782373 0.99999999955006114 -4.4999999994531441 -4.4617216317287607 
6000.0000000000000 1000.0000000000000 -3000.0000000000000 -24522750.135485850 -1571930.4499313293 -73531479.270468608 -1.7368566798542163e-05 0.0057773896161883980 0.0012228598621427480 0.79999999961887525 -4.4999999994546025 -4.4617216319124582 
6000.0000000000000 0.0000000000000000 -3000.0000000000000 -24522750.136166573 -1571930.4486136402 -73531479.274822354 -1.2590263013522870e-05 0.0032658151770075692 0.00096961545818044070 0.79999999961964496 -5.0000000000000000 -4.4617216322281736 
5000.0000000000000 0.0000000000000000 -2833.3333333330002 -23371422.684899189 -420602.99789954966 -69449500.124918863 -1.4773157176206350e-06 0.0031945342440800515 -0.00053705543594803260 0.99999999959324726 -5.0000000000000000 -4.7367342655190141 
5000.0000000000000 1000.0000000000000 -2833.3333333330002 -23371422.684241127 -420602.99913395767 -69449500.120468542 1.4208595831075264e-06 0.0058335535937636268 -0.00040522891426674878 0.99999999959298591 -4.4999999994920588 -4.7367342652105977 
6000.0000000000000 1000.0000000000000 -2833.3333333330002 -23371422.684140299 -420602.99961574422 -69449500.122688442 -3.1232250119206232e-05 0.0062034526596570034 0.0012264084094747679 0.79999999965700297 -4.4999999994941255 -4.7367342654028981 
6000.0000000000000 0.0000000000000000 -2833.3333333330002 -23371422.684830725 -420602.99837812770 -69449500.126992241 -2.0142124112628792e-05 0.0035118879682351583 0.00098381471582041722 0.79999999965804891 -5.0000000000000000 -4.7367342657394707 
5000.0000000000000 0.0000000000000000 -2666.6666666669998 -22219992.147791345 730827.53795817972 -65367155.491540834 -6.5682336747673509e-06 0.0034351558089748316 -0.00056341930865975065 0.99999999963786135 -5.0000000000000000 -4.9968487526626442 
5000.0000000000000 1000.0000000000000 -2666.6666666669998 -22219992.147123493 730827.53681640816 -65367155.487115785 -8.0010419767455778e-06 0.0062482486913618476 -0.00043755931483049817 0.99999999963741615 -4.4999999995331343 -4.9968487523324825 
6000.0000000000000 1000.0000000000000 -2666.6666666669998 -22219992.147058554 730827.53638951015 -65367155.488994516 -4.3191223642876279e-05 0.0066010437042660344 0.0012329127338193756 0.79999999969630942 -4.4999999995357127 -4.9968487525317640 
6000.0000000000000 0.0000000000000000 -2666.6666666669998 -22219992.147764243 730827.53753262677 -65367155.493261851 -2.6583809676497746e-05 0.0037439974629846174 0.0010026673503000325 0.79999999969758595 -5.0000000000000000 -4.9968487528890453 
5000.0000000000000 0.0000000000000000 -2500.0000000000000 -21068458.515686784 1882361.1687462525 -61284445.339402087 -1.1171684170769214e-05 0.0036601631129767817 -0.00057479330873283930 0.99999999968382913 -5.0000000000000000 -5.2420637595218693 
5000.0000000000000 1000.0000000000000 -2500.0000000000000 -21068458.515002847 1882361.1677137953 -61284445.334995992 -1.6534194216692107e-05 0.0066317757397725292 -0.00045579376800226391 0.99999999968322029 -4.4999999995766240 -5.2420637591700308 
6000.0000000000000 1000.0000000000000 -2500.0000000000000 -21068458.514983498 1882361.1673358055 -61284445.336558200 -5.3529698166374657e-05 0.0069653663218082699 0.0012438588572820266 0.79999999973657432 -4.4999999995796296 -5.2420637593747808 
6000.0000000000000 0.0000000000000000 -2500.0000000000000 -21068458.515709404 1882361.1683679812 -61284445.340797544 -3.2178087376889845e-05 0.0039595138600130855 0.0010273009429873001 0.79999999973804958 -5.0000000000000000 -5.2420637597526536 
5000.0000000000000 0.0000000000000000 -2333.3333333330002 -19916821.779338080 3033997.9037055015 -57201369.635687299 -1.5399336696803589e-05 0.0038662940794623804 -0.00056998988208946237 0.99999999973105402 -5.0000000000000000 -5.4723779520477809 
5000.0000000000000 1000.0000000000000 -2333.3333333330002 -19916821.778632335 3033997.9028014438 -57201369.631298080 -2.4297556665570222e-05 0.0069781613376795580 -0.00045855750459418757 0.99999999973029596 -4.4999999996228475 -5.4723779516743267 
6000.0000000000000 1000.0000000000000 -2333.3333333330002 -19916821.778664291 3033997.9024667097 -57201369.632570758 -6.2464396095017303e-05 0.0072908899425695780 0.0012599622380445377 0.79999999977760961 -4.4999999996262128 -5.4723779518831623 
6000.0000000000000 0.0000000000000000 -2333.3333333330002 -19916821.779414907 3033997.9033689345 -57201369.636785671 -3.7125426306583941e-05 0.0041553394626319511 0.0010581410793379647 0.79999999977926151 -5.0000000000000000 -5.4723779522815228 
5000.0000000000000 0.0000000000000000 -2166.6666666669998 -18765081.929498903 4185737.7520734444 -53117928.347582623 -1.9334103281199258e-05 0.0040498378154323464 -0.00054831246215968402 0.99999999977946274 -5.0000000000000000 -5.6877899960720057 
5000.0000000000000 1000.0000000000000 -2166.6666666669998 -18765081.928766143 4185737.7513198629 -53117928.343213052 -3.1372767330841307e-05 0.0072806265137766281 -0.00044500128381903733 0.99999999977856635 -4.4999999996721973 -5.6877899956770213 
6000.0000000000000 1000.0000000000000 -2166.6666666669998 -18765081.928851124 4185737.7510232283 -53117928.344224855 -7.0138938113614892e-05 0.0075711983891750129 0.0012811978886349651 0.79999999981925185 -4.4999999996758584 -5.6877899958887017 
6000.0000000000000 0.0000000000000000 -2166.6666666669998 -18765081.929630481 4185737.7517733970 -53117928.348413542 -4.1564753754715772e-05 0.0043278490253701105 0.0010949323164323919 0.79999999982106651 -5.0000000000000000 -5.6877899963074281 
5000.0000000000000 0.0000000000000000 -2000.0000000000000 -17613238.956918910 5337580.7230893131 -49034121.442257360 -2.3021959761470296e-05 0.0042064103838389856 -0.00050962294091574402 0.99999999982899956 -5.0000000000000000 -5.8882985573101898 
5000.0000000000000 1000.0000000000000 -2000.0000000000000 -17613238.956154268 5337580.7225120571 -49034121.437915295 -3.7801150311702571e-05 0.0075313143293028652 -0.00041484730664168560 0.99999999982797250 -4.4999999997251328 -5.8882985568937931 
6000.0000000000000 1000.0000000000000 -2000.0000000000000 -17613238.956289921 5337580.7222490422 -49034121.438695915 -7.6625967711734007e-05 0.0077987158267159001 0.0013068070688764654 0.79999999986135939 -4.4999999997290319 -5.8882985571072428 
6000.0000000000000 0.0000000000000000 -2000.0000000000000 -17613238.957101740 5337580.7228211919 -49034121.442851231 -4.5573746808284354e-05 0.0044726488911296519 0.0011367307818516198 0.79999999986332704 -5.0000000000000000 -5.8882985575461628 
5000.0000000000000 0.0000000000000000 -1833.3333333329999 -16461292.852353940 6489526.8259837283 -44949948.886899538 -2.6482908612379324e-05 0.0043308201392333575 -0.00045438113227592709 0.99999999987962107 -5.0000000000000000 -6.0739023013542379 
5000.0000000000000 1000.0000000000000 -1833.3333333329999 -16461292.851552833 6489526.8256132454 -44949948.882598713 -4.3591019722533810e-05 0.0077210600960557728 -0.00036841728589555040 0.99999999987847077 -4.4999999997821973 -6.0739023009166155 
6000.0000000000000 1000.0000000000000 -1833.3333333329999 -16461292.851732489 6489526.8253802452 -44949948.883178301 -8.1926352751000896e-05 0.0079645559908852383 0.0013352912177988072 0.79999999990380433 -4.4999999997862767 -6.0739023011309294 
6000.0000000000000 0.0000000000000000 -1833.3333333329999 -16461292.852580208 6489526.8257437851 -44949948.887287185 -4.9172498199661446e-05 0.0045845111170169789 0.0011818583228119194 0.79999999990591708 -5.0000000000000000 -6.0739023015897962 
5000.0000000000000 0.0000000000000000 -1666.6666666670001 -15309243.606561026 7641576.0699835401 -40865410.648697518 -2.9702335044139711e-05 0.0044168310861999165 -0.00038366810022507817 0.99999999993128985 -5.0000000000000000 -6.2445998936765879 
5000.0000000000000 1000.0000000000000 -1666.6666666670001 -15309243.605719054 7641576.0698558595 -40865410.644458368 -4.8703537019835513e-05 0.0078390451204310083 -0.00030667229154557942 0.99999999993002398 -4.4999999998440172 -6.2445998932180364 
6000.0000000000000 1000.0000000000000 -1666.6666666670001 -15309243.605931301 7641576.0696503893 -40865410.644866914 -8.5964203939366729e-05 0.0080582346411207789 0.0013643893059213693 0.79999999994646576 -4.4999999998482174 -6.2445998934324791 
6000.0000000000000 0.0000000000000000 -1666.6666666670001 -15309243.606818138 7641576.0697691664 -40865410.648909748 -5.2320718320708390e-05 0.0046572070393115644 0.0012278712076031039 0.79999999994871396 -5.0000000000000000 -6.2445998939109302 
5000.0000000000000 7000.0000000000000 -4833.3333333330002 -37180551.059720658 -14229731.403195154 -118409137.06322999 9.3451853692467043e-05 -0.00029628622522621874 -2.0923847868920272e-05 0.99999999927162775 -1.4999999987306674 -0.45368638643443232 
5000.0000000000000 6000.0000000000000 -4833.3333333330002 -37180551.063115269 -14229731.404798009 -118409137.07856126 7.3768276420148776e-05 -0.00017157387599005643 1.0897235081519146e-06 0.99999999927021377 -1.9999999983419932 -0.45368638649668774 
5000.0000000000000 7000.0000000000000 -5000.0000000000000 -37755622.372876771 -14804802.716419667 -120448026.26441389 9.1055326711857209e-05 -0.00015433068395349391 -7.1588447544729420e-06 0.99999999926847671 -1.4999999987249781 0.0000000000000000 
5000.0000000000000 6000.0000000000000 -5000.0000000000000 -37755622.376455113 -14804802.718206620 -120448026.28044634 6.9868095857283797e-05 -9.4337704354541816e-05 3.4661872636852819e-06 0.99999999926720762 -1.9999999983345158 0.0000000000000000 
5000.0000000000000 7000.0000000000000 -4666.6666666669998 -36030356.943606779 -13079537.286884746 -114331176.10612424 9.9753105359417051e-05 -0.00055712041757642410 -6.0087967921810636e-05 0.99999999928065741 -1.4999999987471182 -0.89249062433818871 
5000.0000000000000 6000.0000000000000 -4666.6666666669998 -36030356.946653441 -13079537.288142035 -114331176.12008514 8.4062472643474091e-05 -0.00029495569441689824 -1.4494995374919184e-05 0.99999999927886674 -1.9999999983635155 -0.89249062445725602 
5000.0000000000000 7000.0000000000000 -4500.0000000000000 -34880059.843265750 -11929240.186237697 -110252850.02315544 0.00010811315044793823 -0.00077501424862972388 -0.00011973795211668392 0.99999999929479177 -1.4999999987731414 -1.3164113812231111 
5000.0000000000000 6000.0000000000000 -4500.0000000000000 -34880059.845999666 -11929240.187194448 -110252850.03580986 9.7841063867404164e-05 -0.00036203557651295069 -5.0181751842100946e-05 0.99999999929249739 -1.9999999983973640 -1.3164113813937488 
5000.0000000000000 7000.0000000000000 -4333.3333333330002 -33729659.749456026 -10778840.092030587 -106174158.78156787 0.00011691002500743380 -0.00095613350553182134 -0.00019488475035836351 0.99999999931337691 -1.4999999988076405 -1.7254473244735284 
5000.0000000000000 6000.0000000000000 -4333.3333333330002 -33729659.751905873 -10778840.092731008 -106174158.79297926 0.00011257309134541758 -0.00038397857945760483 -0.00010298130240077260 0.99999999931053540 -1.9999999984420067 -1.7254473246907143 
5000.0000000000000 7000.0000000000000 -4166.6666666669998 -32579156.652937785 -9628336.9950381964 -102095102.34860569 0.00012503939941858140 -0.0011061322998350710 -0.00028139559603600174 0.99999999933585404 -1.4999999988496084 -2.1195971213545381 
5000.0000000000000 6000.0000000000000 -4166.6666666669998 -32579156.655127682 -9628336.9955251385 -102095102.35883681 0.00012655790732043204 -0.00037083587739014700 -0.00016998532124062508 0.99999999933248163 -1.9999999984960728 -2.1195971216134732 
5000.0000000000000 7000.0000000000000 -4000.0000000000000 -31428550.544467103 -8477730.8860283941 -98015680.691494524 0.00013178921404569314 -0.0012301826772014449 -0.00037564005386596892 0.99999999936174178 -1.4999999988981203 -2.4988594390187058 
5000.0000000000000 6000.0000000000000 -4000.0000000000000 -31428550.546417952 -8477730.8863427844 -98015680.700607494 0.00013871202473794204 -0.00033168579239547673 -0.00024820664773694053 0.99999999935789474 -1.9999999985583421 -2.4988594393148174 
5000.0000000000000 7000.0000000000000 -3833.3333333330002 -30277841.414805923 -7327021.7557725934 -93935893.777478099 0.00013673210258096765 -0.0013330020210012435 -0.00047430512457595882 0.99999999939062234 -1.4999999989523278 -2.8632329444918847 
5000.0000000000000 6000.0000000000000 -3833.3333333330002 -30277841.416536327 -7327021.7559528546 -93935893.785534382 0.00014839855119343551 -0.00027474132255960452 -0.00033456333688962494 0.99999999938637985 -1.9999999986277239 -2.8632329448208269 
5000.0000000000000 7000.0000000000000 -3666.6666666669998 -29127029.254716694 -6176209.5950406566 -89855741.573799908 0.00013964089356510856 -0.0014188704998032309 -0.00057426354516747604 0.99999999942213402 -1.4999999990114572 -3.2127163046807006 
5000.0000000000000 6000.0000000000000 -3666.6666666669998 -29127029.256243575 -6176209.5951222312 -89855741.580860466 0.00015529308695390006 -0.00020738528342262167 -0.00042589047091994166 0.99999999941758932 -1.9999999987032540 -3.2127163050383523 
5000.0000000000000 7000.0000000000000 -3500.0000000000000 -27976114.054957010 -5025294.3945958242 -85775224.047684774 0.00014042640206595226 -0.0014916077323112275 -0.00067256310727493963 0.99999999945596585 -1.4999999990748023 -3.5473081863784381 
5000.0000000000000 6000.0000000000000 -3500.0000000000000 -27976114.056296021 -5025294.3946106881 -85775224.053809881 0.00015928370216967044 -0.00013616580898403061 -0.00051901985500365318 0.99999999945121687 -1.9999999987840771 -3.5473081867609055 
5000.0000000000000 7000.0000000000000 -3333.3333333330002 -26825095.806289926 -3874276.1452051690 -81694341.166375473 0.00013909003401933330 -0.0015545113149893959 -0.00076642682032366930 0.99999999949185192 -1.4999999991417210 -3.8670072562524740 
5000.0000000000000 6000.0000000000000 -3333.3333333330002 -26825095.807455666 -3874276.1451814626 -81694341.171625063 0.00016039704366412009 -6.6794102205409783e-05 -0.00061083668516377101 0.99999999948699714 -1.9999999988694450 -3.8670072566560902 
5000.0000000000000 7000.0000000000000 -3166.6666666669998 -25673974.499478634 -2723154.8376345015 -77613092.897114411 0.00013568964455270646 -0.0016103549474811305 -0.00085327707279756165 0.99999999952956764 -1.4999999992116300 -4.1718121808509556 
5000.0000000000000 6000.0000000000000 -3166.6666666669998 -25673974.500484820 -2723154.8375962107 -77613092.901547924 0.00015874451709849198 -4.1281469834110365e-06 -0.00069835894719502147 0.99999999952470264 -1.9999999989587016 -4.1718121812722808 
5000.0000000000000 7000.0000000000000 -3000.0000000000000 -24522750.125281267 -1571930.4626432676 -73531479.207125127 0.00013031456439898848 -0.0016613649100875349 -0.00093072509987039221 0.99999999956892627 -1.4999999992840007 -4.4617216266078836 
5000.0000000000000 6000.0000000000000 -3000.0000000000000 -24522750.126140766 -1571930.4626099756 -73531479.210801497 0.00015448213622162020 4.7813551864973137e-05 -0.00077878107357509403 0.99999999956414154 -1.9999999990512780 -4.4617216270437190 
5000.0000000000000 7000.0000000000000 -2833.3333333330002 -23371422.674461212 -420603.01099503227 -69449500.063648954 0.00012307334916184155 -0.0017091403593556675 -0.00099661975722921295 0.99999999960977448 -1.4999999993583555 -4.7367342598321533 
5000.0000000000000 6000.0000000000000 -2833.3333333330002 -23371422.675186131 -420603.01098178228 -69449500.066626862 0.00014778492789484734 8.5897597295272576e-05 -0.00084952908392092871 0.99999999960515595 -1.9999999991466826 -4.7367342602795253 
5000.0000000000000 7000.0000000000000 -2666.6666666669998 -22219992.137781896 730827.52654759632 -65367155.433926724 0.00011408096967806951 -0.0017546493567437379 -0.0010490973918748469 0.99999999965198960 -1.4999999994342597 -4.9968487467134191 
5000.0000000000000 6000.0000000000000 -2666.6666666669998 -22219992.138383575 730827.52653048548 -65367155.436264530 0.00013882943947308543 0.00010783534794136433 -0.00090830794940483341 0.99999999964761710 -1.9999999992444908 -4.9968487471696035 
5000.0000000000000 7000.0000000000000 -2500.0000000000000 -21068458.506001607 1882361.1592280678 -61284445.285180360 0.00010345266755730343 -0.0017982205093779228 -0.0010865519182530110 0.99999999969547582 -1.4999999995113176 -5.2420637533263941 
5000.0000000000000 6000.0000000000000 -2500.0000000000000 -21068458.506490592 1882361.1591751098 -61284445.286936074 0.00012778440408516326 0.00011216915730152593 -0.00095311243755336463 0.99999999969142372 -1.9999999993443398 -5.2420637537889085 
5000.0000000000000 7000.0000000000000 -2333.3333333330002 -19916821.769883793 3033997.8962854594 -57201369.584649399 9.1305843648900706e-05 -0.0018394819281370195 -0.0011076954505389778 0.99999999974016085 -1.4999999995891691 -5.4723779456214681 
5000.0000000000000 6000.0000000000000 -2333.3333333330002 -19916821.770269834 3033997.8961961074 -57201369.585880756 0.00011480901879636010 9.8340344661006018e-05 -0.00098228862627939922 0.99999999973649778 -1.9999999994459174 -5.4723779460880815 
5000.0000000000000 7000.0000000000000 -2166.6666666669998 -18765081.920191932 4185737.7469595275 -53117928.299572736 7.7757877973539636e-05 -0.0018773694480377697 -0.0011115853035484899 0.99999999978599152 -1.4999999996674784 -5.6877899894298034 
5000.0000000000000 6000.0000000000000 -2166.6666666669998 -18765081.920484006 4185737.7468382297 -53117928.300337441 0.00010005131302854813 6.6632693828706872e-05 -0.00099455599616769309 0.99999999978277987 -1.9999999995489541 -5.6877899898985396 
5000.0000000000000 7000.0000000000000 -2000.0000000000000 -17613238.947684370 5337580.7204957809 -49034121.397170410 6.2930576646192638e-05 -0.0019100889005542433 -0.0010976389755008779 0.99999999983293009 -1.4999999997459343 -5.8882985504667937 
5000.0000000000000 6000.0000000000000 -2000.0000000000000 -17613238.947890643 5337580.7203521496 -49034121.397525974 8.3652786412723439e-05 1.8206153939856164e-05 -0.00098904295031552124 0.99999999983022714 -1.9999999996532130 -5.8882985509359358 
5000.0000000000000 7000.0000000000000 -1833.3333333329999 -16461292.843124621 6489526.8261350971 -44949948.844679989 4.6957038397313261e-05 -0.0019350900499974751 -0.0010656909755983488 0.99999999988095201 -1.4999999998242375 -6.0739022943243217 
5000.0000000000000 6000.0000000000000 -1833.3333333329999 -16461292.843252454 6489526.8259840282 -44949948.844683886 6.5759871505365817e-05 -4.4904160320586683e-05 -0.00096533624773091186 0.99999999987880805 -1.9999999997584870 -6.0739022947924175 
5000.0000000000000 7000.0000000000000 -1666.6666666670001 -15309243.597276269 7641576.0731187332 -40865410.609338522 2.9986535426622558e-05 -0.0019490594145640955 -0.0010159957539268361 0.99999999993003996 -1.4999999999020988 -6.2445998864750285 
5000.0000000000000 6000.0000000000000 -1666.6666666670001 -15309243.597332248 7641576.0729805818 -40865410.609048322 4.6538590235583615e-05 -0.00011977615191402643 -0.00092352034870733519 0.99999999992849964 -1.9999999998645832 -6.2445998869408932 
2000.0000000000000 10000.000000000000 -4833.3333333330002 -37180551.058187671 -14229731.393333022 -118409137.01895478 3.5698172319013946e-05 -9.6945066167194852e-05 -0.00022121483548124708 1.5999999994412362 0.0000000000000000 -0.45368638625752727 
2000.0000000000000 9000.0000000000000 -4833.3333333330002 -37180551.058634311 -14229731.393816888 -118409137.02024430 7.0527918901685656e-05 -0.00017955713374635617 -0.00022117108918025093 1.5999999994401373 -0.49999999959116959 -0.45368638626137420 
1000.0000000000000 9000.0000000000000 -4833.3333333330002 -37180551.059997790 -14229731.392166043 -118409137.01152551 -4.2573238471754388e-06 -0.00017506592379448174 -0.00023810183974914964 1.7999999996777818 -0.49999999959128683 -0.45368638621527507 
1000.0000000000000 10000.000000000000 -4833.3333333330002 -37180551.059569150 -14229731.391669514 -118409137.01017216 -1.8545022661901777e-06 -9.4330275459020827e-05 -0.00024474102458331231 1.7999999996774061 0.0000000000000000 -0.45368638621070512 
2000.0000000000000 10000.000000000000 -5000.0000000000000 -37755622.370868802 -14804802.706064265 -120448026.21838361 3.5874636359209762e-05 -4.9266053682975002e-05 -0.00010560904681158065 1.5999999994387766 0.0000000000000000 0.0000000000000000 
2000.0000000000000 9000.0000000000000 -5000.0000000000000 -37755622.371333346 -14804802.706564901 -120448026.21972910 7.0875999107032853e-05 -9.1346719931498737e-05 -0.00010559788784678985 1.5999999994376719 -0.49999999958950303 0.0000000000000000 
1000.0000000000000 9000.0000000000000 -5000.0000000000000 -37755622.372575045 -14804802.704760961 -120448026.21043164 -5.9372705008860067e-06 -8.9191361282494041e-05 -0.00011653310055307541 1.7999999996755531 -0.49999999958954955 0.0000000000000000 
1000.0000000000000 10000.000000000000 -5000.0000000000000 -37755622.372127309 -14804802.704245068 -120448026.20901141 -2.7417970500110981e-06 -4.7984215118058817e-05 -0.00011987809788354298 1.7999999996751237 0.0000000000000000 0.0000000000000000 
2000.0000000000000 10000.000000000000 -4666.6666666669998 -36030356.942969516 -13079537.277975127 -114331176.06526127 3.5173265307311158e-05 -0.00018902807643098740 -0.00046919385352795249 1.5999999994481473 0.0000000000000000 -0.89249062399592138 
2000.0000000000000 9000.0000000000000 -4666.6666666669998 -36030356.943378888 -13079537.278424796 -114331176.06643838 6.9491777170340577e-05 -0.00034948142695742082 -0.00046906665278511120 1.5999999994470644 -0.49999999959606362 -0.89249062400334433 
1000.0000000000000 9000.0000000000000 -4666.6666666669998 -36030356.944927968 -13079537.277041476 -114331176.05876163 1.0442978949089050e-07 -0.00034019371242650074 -0.00048689583800966583 1.7999999996836107 -0.49999999959635477 -0.89249062391701195 
1000.0000000000000 10000.000000000000 -4666.6666666669998 -36030356.944537297 -13079537.276583567 -114331176.05754086 4.4043630389320548e-07 -0.00018374400719029465 -0.00049984821889034108 1.7999999996833664 0.0000000000000000 -0.89249062390833689 
2000.0000000000000 10000.000000000000 -4500.0000000000000 -34880059.843411230 -11929240.178208455 -110252849.98550999 3.4311836271400040e-05 -0.00027437579312839921 -0.00074485634177492868 1.5999999994586451 0.0000000000000000 -1.3164113807266817 
2000.0000000000000 9000.0000000000000 -4500.0000000000000 -34880059.843781278 -11929240.178623220 -110252849.98657411 6.7791440107720438e-05 -0.00050614737033215533 -0.00074464145229336746 1.5999999994575875 -0.49999999960395997 -1.3164113807373916 
1000.0000000000000 9000.0000000000000 -4500.0000000000000 -34880059.845421247 -11929240.177439636 -110252849.97972898 5.7947007965047627e-06 -0.00049219339815933909 -0.00074034216994014600 1.7999999996916602 -0.49999999960446667 -1.3164113806156144 
1000.0000000000000 10000.000000000000 -4500.0000000000000 -34880059.845068038 -11929240.177019790 -110252849.97863822 3.4139142222108805e-06 -0.00026660846628761219 -0.00075880566220942812 1.7999999996915761 0.0000000000000000 -1.3164113806032913 
2000.0000000000000 10000.000000000000 -4333.3333333330002 -33729659.750266694 -10778840.084803743 -106174158.74694785 3.3134259130819258e-05 -0.00035275956249247622 -0.0010377696279977599 1.5999999994720175 0.0000000000000000 -1.7254473238337695 
2000.0000000000000 9000.0000000000000 -4333.3333333330002 -33729659.750596821 -10778840.085183892 -106174158.74789917 6.5467506280702856e-05 -0.00064928254904896184 -0.0010375310163865058 1.5999999994709935 -0.49999999961461228 -1.7254473238474619 
1000.0000000000000 9000.0000000000000 -4333.3333333330002 -33729659.752268016 -10778840.084148884 -106174158.74171253 1.1730514157720239e-05 -0.00063138258710519887 -0.00098857379126324435 1.7999999997010898 -0.49999999961533925 -1.7254473236940930 
1000.0000000000000 10000.000000000000 -4333.3333333330002 -33729659.751951501 -10778840.083765943 -106174158.74074866 6.4908586036142715e-06 -0.00034298570485725294 -0.0010113900435191597 1.7999999997011673 0.0000000000000000 -1.7254473236785688 
2000.0000000000000 10000.000000000000 -4166.6666666669998 -32579156.654298302 -9628336.9885339588 -102095102.31682292 3.1670954171293375e-05 -0.00042420000144401235 -0.0013398963693035970 1.5999999994877052 0.0000000000000000 -2.1195971205818807 
2000.0000000000000 9000.0000000000000 -4166.6666666669998 -32579156.654588912 -9628336.9888804555 -102095102.31766237 6.2578707356985089e-05 -0.00077906253845773073 -0.0013397507560084921 1.5999999994867227 -0.49999999962776476 -2.1195971205982378 
1000.0000000000000 9000.0000000000000 -4166.6666666669998 -32579156.656254176 -9628336.9879552107 -102095102.31199263 1.7272238497332641e-05 -0.00075823889302431969 -0.0012271464147016354 1.7999999997114000 -0.49999999962869424 -2.1195971204163357 
1000.0000000000000 10000.000000000000 -4166.6666666669998 -32579156.655973401 -9628336.9876075964 -102095102.31115220 9.3415896449566803e-06 -0.00041302960865134306 -0.0012530366953238897 1.7999999997116258 0.0000000000000000 -2.1195971203980477 
2000.0000000000000 10000.000000000000 -4000.0000000000000 -31428550.546267938 -8477730.8801680394 -98015680.662365824 2.9959520629919553e-05 -0.00048888167290790001 -0.0016451391469499311 1.5999999995052845 0.0000000000000000 -2.4988594381231466 
2000.0000000000000 9000.0000000000000 -4000.0000000000000 -31428550.546520039 -8477730.8804822695 -98015680.663095012 5.9199731508125199e-05 -0.00089596627667554358 -0.0016452323934745055 1.5999999995043501 -0.49999999964315911 -2.4988594381418419 
1000.0000000000000 9000.0000000000000 -4000.0000000000000 -31428550.548156336 -8477730.8796371724 -98015680.657827303 2.2068717908391222e-05 -0.00087334787257029587 -0.0014545443893539413 1.7999999997223062 -0.49999999964426095 -2.4988594379338021 
1000.0000000000000 10000.000000000000 -4000.0000000000000 -31428550.547910191 -8477730.8793230541 -98015680.657106429 1.1789112174727013e-05 -0.00047695735136324424 -0.0014822588422142705 1.7999999997226590 0.0000000000000000 -2.4988594379131750 
2000.0000000000000 10000.000000000000 -3833.3333333330002 -30277841.416944843 -7327021.7504804991 -93935893.750826195 2.8040789660491265e-05 -0.00054708425050037943 -0.0019488870711309011 1.5999999995244503 0.0000000000000000 -2.8632329434829660 
2000.0000000000000 9000.0000000000000 -3833.3333333330002 -30277841.417159908 -7327021.7507640831 -93935893.751447469 5.5414270102192371e-05 -0.0010006605417898756 -0.0019493657836039597 1.5999999995235710 -0.49999999966054004 -2.8632329435036663 
1000.0000000000000 9000.0000000000000 -3833.3333333330002 -30277841.418752689 -7327021.7499764115 -93935893.746489242 2.5951235751438017e-05 -0.00097735995678900969 -0.0016706979009594980 1.7999999997336589 -0.49999999966177805 -2.8632329432713379 
1000.0000000000000 10000.000000000000 -3833.3333333330002 -30277841.418539934 -7327021.7496938519 -93935893.745883659 1.3749299158319692e-05 -0.00053501736359065058 -0.0016990958816366893 1.7999999997341145 0.0000000000000000 -2.8632329432487853 
2000.0000000000000 10000.000000000000 -3666.6666666669998 -29127029.257099085 -6176209.5902458131 -89855741.549454138 2.5959758152608141e-05 -0.00059914342309849754 -0.0022476318077508024 1.5999999995449934 0.0000000000000000 -3.2127163035674875 
2000.0000000000000 9000.0000000000000 -3666.6666666669998 -29127029.257278871 -6176209.5905004572 -89855741.549970567 5.1308609413518398e-05 -0.0010939005469879203 -0.0022486331742667823 1.5999999995441745 -0.49999999967965841 -3.2127163035898585 
1000.0000000000000 9000.0000000000000 -3666.6666666669998 -29127029.258818373 -6176209.5897526601 -89855741.545247987 2.8864728809870120e-05 -0.0010709418022673085 -0.0018761752634971081 1.7999999997453975 -0.49999999968099462 -3.2127163033346520 
1000.0000000000000 10000.000000000000 -3666.6666666669998 -29127029.258637641 -6176209.5894997241 -89855741.544752896 1.5198801646541138e-05 -0.00058747880740978432 -0.0019042546764714160 1.7999999997459322 0.0000000000000000 -3.2127163033105690 
2000.0000000000000 10000.000000000000 -3500.0000000000000 -27976114.057495560 -5025294.3902330007 -85775224.025481850 2.3760409333490310e-05 -0.00064540333602298799 -0.0025385504389976920 1.5999999995667846 0.0000000000000000 -3.5473081851695154 
2000.0000000000000 9000.0000000000000 -3500.0000000000000 -27976114.057641976 -5025294.3904603217 -85775224.025897041 4.6967765167014147e-05 -0.0011764593764634786 -0.0025401950437223949 1.5999999995660308 -0.49999999970027342 -3.5473081851932244 
1000.0000000000000 9000.0000000000000 -3500.0000000000000 -27976114.059120677 -5025294.3897387013 -85775224.021351665 3.0823980238629659e-05 -0.0011547332451963400 -0.0020716431613251917 1.7999999997575193 -0.49999999970167008 -3.5473081849161980 
1000.0000000000000 10000.000000000000 -3500.0000000000000 -27976114.058970533 -5025294.3895135988 -85775224.020961970 1.6149058055625795e-05 -0.00063460266616890222 -0.0020985611879854186 1.7999999997581091 0.0000000000000000 -3.5473081848909649 
2000.0000000000000 10000.000000000000 -3333.3333333330002 -26825095.808903769 -3874276.1412156993 -81694341.146159798 2.1481720604497493e-05 -0.00068618466761620977 -0.0028192360513230163 1.5999999995897616 0.0000000000000000 -3.8670072549559418 
2000.0000000000000 9000.0000000000000 -3333.3333333330002 -26825095.809018809 -3874276.1414171150 -81694341.146477968 4.2470204203758583e-05 -0.0012490714286104996 -0.0028216226360808345 1.5999999995890759 -0.49999999972215387 -3.8670072549806642 
1000.0000000000000 9000.0000000000000 -3333.3333333330002 -26825095.810429882 -3874276.1407109504 -81694341.142064512 3.1882390431443595e-05 -0.0012293146489457275 -0.0022575950119642020 1.7999999997700589 -0.49999999972357539 -3.8670072546826040 
1000.0000000000000 10000.000000000000 -3333.3333333330002 -26825095.810308844 -3874276.1405121419 -81694341.141774729 1.6628707819241066e-05 -0.00067662508154506967 -0.0022826784346896061 1.7999999997706824 0.0000000000000000 -3.8670072546565786 
2000.0000000000000 10000.000000000000 -3166.6666666669998 -25673974.502092484 -2723154.8339669835 -77613092.878738567 1.9157170595725260e-05 -0.00072178049127791244 -0.0030875162135038576 1.5999999996139163 0.0000000000000000 -4.1718121794744363 
2000.0000000000000 9000.0000000000000 -3166.6666666669998 -25673974.502178200 -2723154.8341436088 -77613092.878964514 3.7883430536767414e-05 -0.0013123778101695527 -0.0030907088681401702 1.5999999996133010 -0.49999999974507908 -4.1718121794998551 
1000.0000000000000 9000.0000000000000 -3166.6666666669998 -25673974.503514383 -2723154.8334444207 -77613092.874648690 3.2111938963734379e-05 -0.0012951640316992284 -0.0024342212867409841 1.7999999997830796 -0.49999999974649295 -4.1718121791813383 
1000.0000000000000 10000.000000000000 -3166.6666666669998 -25673974.503420930 -2723154.8332707002 -77613092.874452889 1.6675516803916382e-05 -0.00071374661983156793 -0.0024569618371629619 1.7999999997837168 0.0000000000000000 -4.1718121791548626 
2000.0000000000000 10000.000000000000 -3000.0000000000000 -24522750.127824400 -1571930.4592540390 -73531479.190449998 1.6812527854581270e-05 -0.00075242033905101649 -0.0033412561942263454 1.5999999996392877 0.0000000000000000 -4.4617216251585381 
2000.0000000000000 9000.0000000000000 -3000.0000000000000 -24522750.127882831 -1571930.4594065987 -73531479.190589070 3.3260618047883125e-05 -0.0013669095413696363 -0.0033452871823649701 1.5999999996387442 -0.49999999976883902 -4.4617216251843494 
1000.0000000000000 9000.0000000000000 -3000.0000000000000 -24522750.129135713 -1571930.4587076209 -73531479.186345890 3.1590308129670820e-05 -0.0013526478115783534 -0.0026013233425436202 1.7999999997966643 -0.49999999977021498 -4.4617216248458051 
1000.0000000000000 10000.000000000000 -3000.0000000000000 -24522750.129068300 -1571930.4585581913 -73531479.186237752 1.6329621874144176e-05 -0.00074610361167554661 -0.0026213602540555714 1.7999999997972969 0.0000000000000000 -4.4617216248191962 
2000.0000000000000 10000.000000000000 -2833.3333333330002 -23371422.676866524 -420603.00784858689 -69449500.048544139 1.4471519717928164e-05 -0.00077824409634389270 -0.0035781965539323588 1.5999999996659562 0.0000000000000000 -4.7367342583166838 
2000.0000000000000 9000.0000000000000 -2833.3333333330002 -23371422.676899668 -420603.00797732722 -69449500.048602179 2.8643727846736603e-05 -0.0014130244172591421 -0.0035830824135444470 1.5999999996654855 -0.49999999979323345 -4.7367342583426009 
1000.0000000000000 9000.0000000000000 -2833.3333333330002 -23371422.678059142 -420603.00727310911 -69449500.044414669 3.0396440358503048e-05 -0.0014019673880235443 -0.0027582782560683357 1.7999999998109115 -0.49999999979454485 -4.7367342579843594 
1000.0000000000000 10000.000000000000 -2833.3333333330002 -23371422.678016242 -420603.00714767305 -69449500.044387490 1.5633090018673736e-05 -0.00077374779551571849 -0.0027753847807274377 1.7999999998115248 0.0000000000000000 -4.7367342579579077 
2000.0000000000000 10000.000000000000 -2666.6666666669998 -22219992.139984977 730827.52947829897 -65367155.420270599 1.2150583484967784e-05 -0.00079931147203642962 -0.0037958625678373120 1.5999999996940399 0.0000000000000000 -4.9968487451381067 
2000.0000000000000 9000.0000000000000 -2666.6666666669998 -22219992.139994763 730827.52937369363 -65367155.420253925 2.4060750206498808e-05 -0.0014508913723107961 -0.0038015763118977321 1.5999999996936418 -0.49999999981807164 -4.9968487451638621 
1000.0000000000000 9000.0000000000000 -2666.6666666669998 -22219992.141048595 730827.53008762072 -65367155.416111954 2.8604623737579448e-05 -0.0014431390074044462 -0.0029039966040871014 1.7999999998259377 -0.49999999981929433 -4.9968487447861945 
1000.0000000000000 10000.000000000000 -2666.6666666669998 -22219992.141028740 730827.53018877702 -65367155.416158736 1.4625308269552398e-05 -0.00079665589877471314 -0.0029180856294147529 1.7999999998265168 0.0000000000000000 -4.9968487447601637 
2000.0000000000000 10000.000000000000 -2500.0000000000000 -21068458.507939920 1882361.1619613441 -61284445.272860169 9.8521942970582922e-06 -0.00081558050328327312 -0.0039915156951080165 1.5999999997236911 0.0000000000000000 -5.2420637516971080 
2000.0000000000000 9000.0000000000000 -2500.0000000000000 -21068458.507928140 1882361.1618818359 -61284445.272775441 1.9521134404556720e-05 -0.0014804760808615556 -0.0039980002808077961 1.5999999997233645 -0.49999999984317084 -5.2420637517224558 
1000.0000000000000 9000.0000000000000 -2500.0000000000000 -21068458.508861683 1882361.1626091390 -61284445.268675230 2.6280047692958431e-05 -0.0014760024971793109 -0.0030369586220344311 1.7999999998418728 -0.49999999984428328 -5.2420637513256123 
1000.0000000000000 10000.000000000000 -2500.0000000000000 -21068458.508863434 1882361.1626851135 -61284445.268788554 1.3340137115991295e-05 -0.00081471680739279406 -0.0030480618353943322 1.7999999998424048 0.0000000000000000 -5.2420637513002379 
2000.0000000000000 10000.000000000000 -2333.3333333330002 -19916821.771495890 3033997.8988306895 -57201369.573561326 7.5739117273065737e-06 -0.00082688936513413943 -0.0041620073198785235 1.5999999997550949 0.0000000000000000 -5.4723779439437017 
2000.0000000000000 9000.0000000000000 -2333.3333333330002 -19916821.771464266 3033997.8987778868 -57201369.573415749 1.5022063362071420e-05 -0.0015015086448885388 -0.0041691973035081469 1.5999999997548409 -0.49999999986835558 -5.4723779439684197 
1000.0000000000000 9000.0000000000000 -2333.3333333330002 -19916821.772260092 3033997.8995216270 -57201369.569359206 2.3483163126218885e-05 -0.0015001612792993916 -0.0031551858145178638 1.7999999998588616 -0.49999999986933863 -5.4723779435526660 
1000.0000000000000 10000.000000000000 -2333.3333333330002 -19916821.772282090 3033997.8995708390 -57201369.569531336 1.1810163026334185e-05 -0.00082770043389560045 -0.0031634242513638631 1.7999999998593359 0.0000000000000000 -5.4723779435281505 
2000.0000000000000 10000.000000000000 -2166.6666666669998 -18765081.921416778 4185737.7493169578 -53117928.289621964 5.3100495463372088e-06 -0.00083295067736154711 -0.0043036965057395250 1.5999999997884711 0.0000000000000000 -5.6877899877086913 
2000.0000000000000 9000.0000000000000 -2166.6666666669998 -18765081.921366896 4185737.7492931960 -53117928.289423153 1.0547078951162039e-05 -0.0015134676808982459 -0.0043115005951988011 1.5999999997882890 -0.49999999989345512 -5.6877899877325895 
1000.0000000000000 9000.0000000000000 -2166.6666666669998 -18765081.922004417 4185737.7500559920 -53117928.285417505 2.0267640336053530e-05 -0.0015149794125365185 -0.0032561927160973279 1.7999999998770675 -0.49999999989429172 -5.6877899872982329 
1000.0000000000000 10000.000000000000 -2166.6666666669998 -18765081.922045399 4185737.7500761263 -53117928.285640359 1.0065736857375509e-05 -0.00083526071672392782 -0.0032617892432950553 1.7999999998774747 0.0000000000000000 -5.6877899872747468 
2000.0000000000000 10000.000000000000 -2000.0000000000000 -17613238.948460761 5337580.7226563469 -49034121.388270989 3.0441982265203985e-06 -0.00083333809079152088 -0.0044124218492500918 1.5999999998240739 0.0000000000000000 -5.8882985487071497 
2000.0000000000000 9000.0000000000000 -2000.0000000000000 -17613238.948394027 5337580.7226647567 -49034121.388026886 6.0649468318985727e-06 -0.0015155557420853021 -0.0044207179815370064 1.5999999998239642 -0.49999999991830313 -5.8882985487300648 
1000.0000000000000 9000.0000000000000 -2000.0000000000000 -17613238.948849037 5337580.7234489089 -49034121.384084500 1.6681006896564261e-05 -0.0015195745801611594 -0.0033369535445700138 1.7999999998966734 -0.49999999991897809 -5.8882985482774961 
1000.0000000000000 10000.000000000000 -2000.0000000000000 -17613238.948907852 5337580.7234368762 -49034121.384349704 8.1329222294758654e-06 -0.00083692120678783861 -0.0033402158017087546 1.7999999998970058 0.0000000000000000 -5.8882985482551673 
2000.0000000000000 10000.000000000000 -1833.3333333329999 -16461292.843390755 6489526.8280801913 -44949948.836755045 7.5241520131018894e-07 -0.00082749173053171137 -0.0044833655242067418 1.5999999998621943 0.0000000000000000 -6.0739022925306614 
2000.0000000000000 9000.0000000000000 -1833.3333333329999 -16461292.843308434 6489526.8281246964 -44949948.836474054 1.5332563423277209e-06 -0.0015066975687234186 -0.0044920232145900596 1.5999999998621581 -0.49999999994273381 -6.0739022925524688 
1000.0000000000000 9000.0000000000000 -1833.3333333329999 -16461292.843552541 6489526.8289323431 -44949948.832612284 1.2768721399735884e-05 -0.0015127898601394383 -0.0033938669796741306 1.7999999999178866 -0.49999999994323380 -6.0739022920821730 
1000.0000000000000 10000.000000000000 -1833.3333333329999 -16461292.843628146 6489526.8288842440 -44949948.832911104 6.0356755949672285e-06 -0.00083208170487238033 -0.0033951502207034351 1.7999999999181362 0.0000000000000000 -6.0739022920611001 
2000.0000000000000 10000.000000000000 -1666.6666666670001 -15309243.596969392 7641576.0748199970 -40865410.602320150 -1.5902175723073201e-06 -0.00081470594870812593 -0.0045109589138416506 1.5999999999031622 0.0000000000000000 -6.2445998846516000 
2000.0000000000000 9000.0000000000000 -1666.6666666670001 -15309243.596872546 7641576.0749053806 -40865410.602011018 -3.1019839250449683e-06 -0.0014855186068544204 -0.0045198307647027636 1.5999999999032020 -0.49999999996658145 -6.2445998846722102 
1000.0000000000000 9000.0000000000000 -1666.6666666670001 -15309243.596872494 7641576.0757386042 -40865410.598252364 8.5765999965432452e-06 -0.0014931938223336398 -0.0034226896918312256 1.7999999999409400 -0.49999999996689504 -6.2445998841848080 
1000.0000000000000 10000.000000000000 -1666.6666666670001 -15309243.596963974 7641576.0756497020 -40865410.598575756 3.8030217180790778e-06 -0.00082000590328802625 -0.0034223944105914988 1.7999999999411018 0.0000000000000000 -6.2445998841650461 
8000.0000000000000 8000.0000000000000 -4833.3333333330002 -37180551.058632381 -14229731.405659916 -118409137.07156329 0.00023455967814297614 -0.00029459784382536235 0.00010082352588927715 0.39999999966453958 -0.99999999914526405 -0.45368638646966758 
8000.0000000000000 9000.0000000000000 -4833.3333333330002 -37180551.057226315 -14229731.404323848 -118409137.06666295 0.00010316111551898432 -0.00016882465004452432 0.00011088468911588215 0.39999999966995192 -0.49999999957381919 -0.45368638645218395 
9000.0000000000000 9000.0000000000000 -4833.3333333330002 -37180551.057638928 -14229731.405022664 -118409137.06881832 7.9660633346151274e-05 -0.00016898859604862258 6.5475775266278115e-05 0.19999999983377650 -0.49999999957032226 -0.45368638645985460 
9000.0000000000000 8000.0000000000000 -4833.3333333330002 -37180551.058979653 -14229731.406445686 -118409137.07401308 0.00018148478286185616 -0.00028558824249547826 6.0228663912940730e-05 0.19999999982954686 -0.99999999913675530 -0.45368638647903209 
8000.0000000000000 8000.0000000000000 -5000.0000000000000 -37755622.371874124 -14804802.718980730 -120448026.27309690 0.00023847176229590720 -0.00015098585151673534 5.2187079780323251e-05 0.39999999966291838 -0.99999999914160120 0.0000000000000000 
8000.0000000000000 9000.0000000000000 -5000.0000000000000 -37755622.370401546 -14804802.717581060 -120448026.26796584 0.00010448625777546722 -8.6167717490730583e-05 5.7171754117180138e-05 0.39999999966842564 -0.49999999957195251 0.0000000000000000 
9000.0000000000000 9000.0000000000000 -5000.0000000000000 -37755622.370843403 -14804802.718312796 -120448026.27023111 8.0881176580126186e-05 -8.6423163881811342e-05 3.3612928210796829e-05 0.19999999983299707 -0.49999999956840524 0.0000000000000000 
9000.0000000000000 8000.0000000000000 -5000.0000000000000 -37755622.372254491 -14804802.719807494 -120448026.27568339 0.00018474185365951828 -0.00014680574739348186 3.1183084022353924e-05 0.19999999982869107 -0.99999999913291204 0.0000000000000000 
8000.0000000000000 8000.0000000000000 -4666.6666666669998 -36030356.942367405 -13079537.289163260 -114331176.11377884 0.00022382415171828251 -0.00056734218901131265 0.00019138991237880972 0.39999999966922178 -0.99999999915593718 -0.89249062440609861 
8000.0000000000000 9000.0000000000000 -4666.6666666669998 -36030356.941093780 -13079537.287951212 -114331176.10933471 9.9432697789885585e-05 -0.00032726342643496904 0.00021161342629047480 0.39999999967438205 -0.49999999957924512 -0.89249062437274440 
9000.0000000000000 9000.0000000000000 -4666.6666666669998 -36030356.941450641 -13079537.288583737 -114331176.11127333 7.6227836190675689e-05 -0.00032662699746856537 0.00012576823395164382 0.19999999983603886 -0.49999999957589042 -0.89249062438737181 
9000.0000000000000 8000.0000000000000 -4666.6666666669998 -36030356.942654565 -13079537.289866945 -114331176.11596063 0.00017245371757823081 -0.00054775610210692160 0.00011429223757306423 0.19999999983201855 -0.99999999914790394 -0.89249062442381000 
8000.0000000000000 8000.0000000000000 -4500.0000000000000 -34880059.841916241 -11929240.188340675 -110252850.03017236 0.00020835758264915223 -0.00081172931871638170 0.00026927863524615951 0.39999999967661320 -0.99999999917298965 -1.3164113813212381 
8000.0000000000000 9000.0000000000000 -4500.0000000000000 -34880059.840773158 -11929240.187245889 -110252850.02617337 9.3850244704151627e-05 -0.00047223293484232432 0.00029939762892135550 0.39999999968141925 -0.49999999958789282 -1.3164113812736009 
9000.0000000000000 9000.0000000000000 -4500.0000000000000 -34880059.841079861 -11929240.187811913 -110252850.02790174 7.1096927169789768e-05 -0.00046973026144192683 0.00017933419918751930 0.19999999983963385 -0.49999999958475261 -1.3164113812944807 
9000.0000000000000 8000.0000000000000 -4500.0000000000000 -34880059.842154488 -11929240.188963037 -110252850.03209716 0.00015924921161291860 -0.00078037028095646823 0.00016078021845791101 0.19999999983591804 -0.99999999916561844 -1.3164113813463219 
8000.0000000000000 8000.0000000000000 -4333.3333333330002 -33729659.748037763 -10778840.093965320 -106174158.78798698 0.00019003935479460106 -0.0010292177854898299 0.00033595181308400932 0.39999999968638406 -0.99999999919580040 -1.7254473245995217 
8000.0000000000000 9000.0000000000000 -4333.3333333330002 -33729659.747021936 -10778840.092980323 -106174158.78442085 8.6973156433821906e-05 -0.00060431732945579613 0.00037523053947182035 0.39999999969077327 -0.49999999959944047 -1.7254473245391571 
9000.0000000000000 9000.0000000000000 -4333.3333333330002 -33729659.747284174 -10778840.093480892 -106174158.78594613 6.4800214419145230e-05 -0.00059922020455229819 0.00022651818687155262 0.19999999984441422 -0.49999999959656616 -1.7254473245655952 
9000.0000000000000 8000.0000000000000 -4333.3333333330002 -33729659.748236500 -10778840.094508711 -106174158.78966631 0.00014341240322753720 -0.00098597693057626942 0.00020064588139930196 0.19999999984106492 -0.99999999918919957 -1.7254473246310444 
8000.0000000000000 8000.0000000000000 -4166.6666666669998 -32579156.651490789 -9628336.9968096875 -102095102.35446531 0.00017022867658352843 -0.0012216594637128426 0.00039285076704902942 0.39999999969822658 -0.99999999922376404 -2.1195971215061529 
8000.0000000000000 9000.0000000000000 -4166.6666666669998 -32579156.650597874 -9628336.9959265478 -102095102.35131866 7.9271462496384351e-05 -0.00072415896673669561 0.00044026450721283575 0.39999999970216449 -0.49999999961358010 -2.1195971214345772 
9000.0000000000000 9000.0000000000000 -4166.6666666669998 -32579156.650821231 -9628336.9963636398 -102095102.35264868 5.7792120700604518e-05 -0.00071604403701445584 0.00026777891307707145 0.19999999985023734 -0.49999999961100411 -2.1195971214658980 
9000.0000000000000 8000.0000000000000 -4166.6666666669998 -32579156.651657913 -9628336.9972775802 -102095102.35591139 0.00012615346644535063 -0.0011671757773323902 0.00023481522347028230 0.19999999984728942 -0.99999999921798655 -2.1195971215432228 
8000.0000000000000 8000.0000000000000 -4000.0000000000000 -31428550.543028962 -8477730.8876402918 -98015680.696831360 0.00014990763064657819 -0.0013911149519591742 0.00044133609414872166 0.39999999971185524 -0.99999999925629968 -2.4988594391937995 
8000.0000000000000 9000.0000000000000 -4000.0000000000000 -31428550.542253774 -8477730.8868508898 -98015680.694089606 7.1128432282547148e-05 -0.00083244680384421887 0.00049569726623911454 0.39999999971532935 -0.49999999963001690 -2.4988594391124903 
9000.0000000000000 9000.0000000000000 -4000.0000000000000 -31428550.542443559 -8477730.8872271813 -98015680.695232853 5.0447692415966774e-05 -0.00082113826830932399 0.00030362064533058221 0.19999999985696765 -0.49999999962775610 -2.4988594391480343 
9000.0000000000000 8000.0000000000000 -4000.0000000000000 -31428550.543171093 -8477730.8880369030 -98015680.698056966 0.00010840125273629287 -0.0013265097148044366 0.00026412787996560371 0.19999999985443420 -0.99999999925135863 -2.4988594392355732 
8000.0000000000000 8000.0000000000000 -3833.3333333330002 -30277841.413411144 -7327021.7572279731 -93935893.782327145 0.00012977722700521240 -0.0015397557997043291 0.00048266537100837741 0.39999999972700573 -0.99999999929285299 -2.8632329446884217 
8000.0000000000000 9000.0000000000000 -3833.3333333330002 -30277841.412747856 -7327021.7565242723 -93935893.779974446 6.2847672428618500e-05 -0.00092990527612084501 0.00054271368546462148 0.39999999973001904 -0.49999999964846975 -2.8632329445988036 
9000.0000000000000 9000.0000000000000 -3833.3333333330002 -30277841.412909016 -7327021.7568429718 -93935893.780940086 4.3066504984286101e-05 -0.00091542517151570961 0.00033455595659435494 0.19999999986447572 -0.49999999964652769 -2.8632329446379359 
9000.0000000000000 8000.0000000000000 -3833.3333333330002 -30277841.413533721 -7327021.7575579919 -93935893.783345625 9.0851040763645973e-05 -0.0014664412934140996 0.00028931663852803640 0.19999999986235320 -0.99999999928873140 -2.8632329447340972 
8000.0000000000000 8000.0000000000000 -3666.6666666669998 -29127029.253396194 -6176209.5963426242 -89855741.578194216 0.00011032962391266594 -0.0016697566876685591 0.00051799406686150974 0.39999999974343531 -0.99999999933289963 -3.2127163048967438 
8000.0000000000000 9000.0000000000000 -3666.6666666669998 -29127029.252838571 -6176209.5957169840 -89855741.576213598 5.4663487348601221e-05 -0.0010172667268641912 0.00058246711827622446 0.39999999974600287 -0.49999999966867115 -3.2127163048001894 
9000.0000000000000 9000.0000000000000 -3666.6666666669998 -29127029.252975505 -6176209.5959816538 -89855741.577011541 3.5880376396006006e-05 -0.00099977677399570386 0.00036110365975575273 0.19999999987264039 -0.49999999966704095 -3.2127163048423020 
9000.0000000000000 8000.0000000000000 -3666.6666666669998 -29127029.253503609 -6176209.5966110220 -89855741.579019502 7.4009114964335919e-05 -0.0015892807816392290 0.00031102472174479454 0.19999999987091249 -0.99999999932955952 -3.2127163049455691 
8000.0000000000000 8000.0000000000000 -3500.0000000000000 -27976114.053737808 -5025294.3957480043 -85775224.051655367 9.1903224049291331e-05 -0.0017831881184624983 0.00054832317851504560 0.39999999976092221 -0.99999999937594530 -3.5473081866121463 
8000.0000000000000 9000.0000000000000 -3500.0000000000000 -27976114.053279325 -5025294.3951934492 -85775224.050028712 4.6751607739616925e-05 -0.0010952273616137568 0.00061601399353864469 0.39999999976306699 -0.49999999969036640 -3.5473081865099698 
9000.0000000000000 9000.0000000000000 -3500.0000000000000 -27976114.053395867 -5025294.3954079021 -85775224.050669402 2.9061729927590340e-05 -0.0010749814829079823 0.00038374955598159785 0.19999999988134889 -0.49999999968903408 -3.5473081865544844 
9000.0000000000000 8000.0000000000000 -3500.0000000000000 -27976114.053833473 -5025294.3959598867 -85775224.052301884 5.8229425759750102e-05 -0.0016971206563468364 0.00032977858315699906 0.19999999987999037 -0.99999999937333428 -3.5473081866634248 
8000.0000000000000 8000.0000000000000 -3333.3333333330002 -26825095.805194918 -3874276.1462121801 -81694341.169951558 7.4716942906734090e-05 -0.0018819513130794029 0.00057449615985489253 0.39999999977926448 -0.99999999942152684 -3.8670072565021028 
8000.0000000000000 9000.0000000000000 -3333.3333333330002 -26825095.804828890 -3874276.1457226253 -81694341.168659523 3.9237896101879254e-05 -0.0011644180116284555 0.00064429006395746839 0.39999999978101547 -0.49999999971331588 -3.8670072563955520 
9000.0000000000000 9000.0000000000000 -3333.3333333330002 -26825095.804928206 -3874276.1458907966 -81694341.169153973 2.2731927348858816e-05 -0.0011417291232733674 0.00040293240833856825 0.19999999989049669 -0.49999999971226117 -3.8670072564419238 
9000.0000000000000 8000.0000000000000 -3333.3333333330002 -26825095.805281304 -3874276.1463726442 -81694341.170434043 4.3746009394648814e-05 -0.0017918168014388197 0.00034600198223953246 0.19999999988947620 -0.99999999941958329 -3.8670072565551865 
8000.0000000000000 8000.0000000000000 -3166.6666666669998 -25673974.498526424 -2723154.8385022553 -77613092.900323167 5.8897098612561688e-05 -0.0019677138711056254 0.00059718872447182944 0.39999999979827949 -0.99999999946921148 -4.1718121811148494 
8000.0000000000000 9000.0000000000000 -3166.6666666669998 -25673974.498246163 -2723154.8380728071 -77613092.899345368 3.2206269447480200e-05 -0.0012253795560453605 0.00066808714218039250 0.39999999979966899 -0.49999999973729237 -4.1718121810050990 
9000.0000000000000 9000.0000000000000 -3166.6666666669998 -25673974.498330712 -2723154.8381986660 -77613092.899705023 1.6969648994850441e-05 -0.0012005793478116319 0.00041903183512351000 0.19999999989998773 -0.49999999973649129 -4.1718121810528226 
9000.0000000000000 8000.0000000000000 -3166.6666666669998 -25673974.498605166 -2723154.8386163488 -77613092.900656700 3.0697978012694201e-05 -0.0018749124415161475 0.00036001922152490492 0.19999999989927053 -0.99999999946786811 -4.1718121811691509 
8000.0000000000000 8000.0000000000000 -3000.0000000000000 -24522750.124486074 -1571930.4633792979 -73531479.209991872 4.4501022973668106e-05 -0.0020418377520914212 0.00061690559985902503 0.39999999981780254 -0.99999999951859642 -4.4617216268844766 
8000.0000000000000 9000.0000000000000 -3000.0000000000000 -24522750.124284953 -1571930.4630064468 -73531479.209306881 2.5706282675280665e-05 -0.0012785314983459386 0.00068804545667202070 0.39999999981886480 -0.49999999976208193 -4.4617216267726283 
9000.0000000000000 9000.0000000000000 -3000.0000000000000 -24522750.124356493 -1571930.4630939511 -73531479.209543601 1.1818515326625554e-05 -0.0012519486190171044 0.00043235973191912416 0.19999999990973413 -0.49999999976150888 -4.4617216268212374 
9000.0000000000000 8000.0000000000000 -3000.0000000000000 -24522750.124557987 -1571930.4634519371 -73531479.210191712 1.9147782936513732e-05 -0.0019476207082745052 0.00037205497303092913 0.19999999990928316 -0.99999999951778284 -4.4617216269394682 
8000.0000000000000 8000.0000000000000 -2833.3333333330002 -23371422.673832797 -420603.01160879241 -69449500.066197455 3.1527290961263002e-05 -0.0021053227742876286 0.00063397651441987688 0.39999999983768575 -0.99999999956930530 -4.7367342601199605 
8000.0000000000000 9000.0000000000000 -2833.3333333330002 -23371422.673704371 -420603.01129060908 -69449500.065782890 1.9756199933205806e-05 -0.0013241232827902636 0.00070463248630452092 0.39999999983845497 -0.49999999978748322 -4.7367342600070286 
9000.0000000000000 9000.0000000000000 -2833.3333333330002 -23371422.673763886 -420603.01134359109 -69449500.065908685 7.2916379976340781e-06 -0.0012960796465436382 0.00044314982948287854 0.19999999991965581 -0.49999999978711113 -4.7367342600560969 
9000.0000000000000 8000.0000000000000 -2833.3333333330002 -23371422.673897918 -420603.01164468902 -69449500.066278875 9.0970939318763774e-06 -0.0020107862463059518 0.00038224416320464376 0.19999999991943412 -0.99999999956895114 -4.7367342601751714 
8000.0000000000000 8000.0000000000000 -2666.6666666669998 -22219992.137325484 730827.52604457666 -65367155.436179161 1.9924147647262883e-05 -0.0021587877855198264 0.00064854922680342988 0.39999999985779627 -0.99999999962098751 -4.9968487470110441 
8000.0000000000000 9000.0000000000000 -2666.6666666669998 -22219992.137263518 730827.52630825515 -65367155.436011657 1.4347779139390802e-05 -0.0013622323504069720 0.00071813408039746629 0.39999999985830575 -0.49999999981330528 -4.9968487468979559 
9000.0000000000000 9000.0000000000000 -2666.6666666669998 -22219992.137311269 730827.52628609771 -65367155.436038807 3.3756831818497680e-06 -0.0013330226275076978 0.00045154864368596913 0.19999999992967971 -0.49999999981310805 -4.9968487469471041 
9000.0000000000000 8000.0000000000000 -2666.6666666669998 -22219992.137383148 730827.52604091517 -65367155.436157547 4.9716147551045529e-07 -0.0020648456802661178 0.00039062511507974209 0.19999999992965106 -0.99999999962102570 -4.9968487470660667 
8000.0000000000000 8000.0000000000000 -2500.0000000000000 -21068458.505717788 1882361.1588220007 -61284445.287157394 9.5982388922514789e-06 -0.0022024019840906754 0.00066061686007415734 0.39999999987801471 -0.99999999967331465 -5.2420637536325145 
8000.0000000000000 9000.0000000000000 -2500.0000000000000 -21068458.505716391 1882361.1590293818 -61284445.287212797 9.4495568384363097e-06 -0.0013927366590227293 0.00072867532558277648 0.39999999987829560 -0.49999999983936771 -5.2420637535201022 
9000.0000000000000 9000.0000000000000 -2500.0000000000000 -21068458.505751900 1882361.1590345369 -61284445.287153713 3.4200690968645024e-08 -0.0013626302476053914 0.00045762623699748591 0.19999999993973885 -0.49999999983932042 -5.2420637535689956 
9000.0000000000000 8000.0000000000000 -2500.0000000000000 -21068458.505766638 1882361.1588463460 -61284445.287047923 -6.7453191038875795e-06 -0.0021098041756674032 0.00039715707560997719 0.19999999993987000 -0.99999999967368169 -5.2420637536870034 
8000.0000000000000 8000.0000000000000 -2333.3333333330002 -19916821.769768570 3033997.8959600129 -57201369.586370841 4.1814614588369874e-07 -0.0022358632152963674 0.00067000423809851701 0.39999999989823432 -0.99999999972597753 -5.4723779459348449 
8000.0000000000000 9000.0000000000000 -2333.3333333330002 -19916821.769822203 3033997.8961072383 -57201369.586624131 5.0080718863015364e-06 -0.0014152877031799913 0.00073620553527002988 0.39999999989831453 -0.49999999986549876 -5.4723779458238431 
9000.0000000000000 9000.0000000000000 -2333.3333333330002 -19916821.769844204 3033997.8961365055 -57201369.586491004 -2.7894773677592044e-06 -0.0013845308398880922 0.00046135963191301145 0.19999999994977277 -0.49999999986557864 -5.4723779458721928 
9000.0000000000000 8000.0000000000000 -2333.3333333330002 -19916821.769806568 3033997.8960084761 -57201369.586188324 -1.2762471060303380e-05 -0.0021452037931726353 0.00040171936342904438 0.19999999995003342 -0.99999999972661680 -5.4723779459885176 
8000.0000000000000 8000.0000000000000 -2166.6666666669998 -18765081.920236543 4185737.7466957718 -53117928.301057383 -7.7845703834396463e-06 -0.0022583763512577936 0.00067635914791409674 0.39999999991835861 -0.99999999977868292 -5.6877899897492767 
8000.0000000000000 9000.0000000000000 -2166.6666666669998 -18765081.920340091 4185737.7467767783 -53117928.301482774 9.5014966210462272e-07 -0.0014293026131247592 0.00074047767785447407 0.39999999991826179 -0.49999999989153288 -5.6877899896403070 
9000.0000000000000 9000.0000000000000 -2166.6666666669998 -18765081.920346625 4185737.7468271926 -53117928.301287942 -5.1710129066365700e-06 -0.0013981152071515064 0.00046262788670775303 0.19999999995972526 -0.49999999989172117 -5.6877899896878725 
9000.0000000000000 8000.0000000000000 -2166.6666666669998 -18765081.920261089 4185737.7467647605 -53117928.300816484 -1.7722135360813982e-05 -0.0021701031875759084 0.00040410923391098058 0.19999999996009007 -0.99999999977954368 -5.6877899898019075 
8000.0000000000000 8000.0000000000000 -2000.0000000000000 -17613238.947875232 5337580.7202719925 -49034121.398436382 -1.5216916522266587e-05 -0.0022685903883098678 0.00067917860642959763 0.39999999993829988 -0.99999999983114851 -5.8882985507912826 
8000.0000000000000 9000.0000000000000 -2000.0000000000000 -17613238.948024038 5337580.7202783879 -49034121.399007365 -2.8177453566505644e-06 -0.0014339394103358891 0.00074106904050234802 0.39999999993804403 -0.49999999991730970 -5.8882985506848584 
9000.0000000000000 9000.0000000000000 -2000.0000000000000 -17613238.948012404 5337580.7203473132 -49034121.398762979 -7.2046261909827301e-06 -0.0014025341780373318 0.00046122343144510558 0.19999999996954454 -0.49999999991759125 -5.8882985507314540 
9000.0000000000000 8000.0000000000000 -2000.0000000000000 -17613238.947883107 5337580.7203583205 -49034121.398151211 -2.1826381435037117e-05 -0.0021830550434003000 0.00040405316137130638 0.19999999996999310 -0.99999999983219090 -5.8882985508427126 
8000.0000000000000 8000.0000000000000 -1833.3333333329999 -16461292.843443247 6489526.8259265656 -44949948.845745109 -2.2124327877818697e-05 -0.0022646130131910684 0.00067780634536183883 0.39999999995797708 -0.99999999988309984 -6.0739022946528287 
8000.0000000000000 9000.0000000000000 -1833.3333333329999 -16461292.843633184 6489526.8258475130 -44949948.846434511 -6.4084898566635480e-06 -0.0014280874957616715 0.00073738163010295295 0.39999999995757424 -0.49999999994267219 -6.0739022945493426 
9000.0000000000000 9000.0000000000000 -1833.3333333329999 -16461292.843599916 6489526.8259327151 -44949948.846152410 -9.0009487494700035e-06 -0.0013966787642450372 0.00045684247463423448 0.19999999997918191 -0.49999999994303673 -6.0739022945948244 
9000.0000000000000 8000.0000000000000 -1833.3333333329999 -16461292.843430664 6489526.8260274800 -44949948.845429190 -2.5311942841667596e-05 -0.0021820956883299254 0.00040121023761315402 0.19999999997970022 -0.99999999988429356 -6.0739022947029540 
8000.0000000000000 8000.0000000000000 -1666.6666666670001 -15309243.597699013 7641576.0728977267 -40865410.610220067 -2.8790833863838443e-05 -0.0022439621138786465 0.00067141305696942141 0.39999999997731456 -0.99999999993426492 -6.2445998868066344 
8000.0000000000000 9000.0000000000000 -1666.6666666670001 -15309243.597926535 7641576.0727198329 -40865410.611000121 -9.9547972378258520e-06 -0.0014103530975160782 0.00072861560455282528 0.39999999997676877 -0.49999999996746419 -6.2445998867063599 
9000.0000000000000 9000.0000000000000 -1666.6666666670001 -15309243.597867429 7641576.0728194779 -40865410.610691920 -1.0688219287444790e-05 -0.0013791772306310085 0.00044907409768087960 0.19999999998859061 -0.49999999996790695 -6.2445998867506338 
9000.0000000000000 8000.0000000000000 -1666.6666666670001 -15309243.597661668 7641576.0730109084 -40865410.609886386 -2.8451187537775490e-05 -0.0021647125449275081 0.00039515750853723027 0.19999999998917206 -0.99999999993559263 -6.2445998868554122 
8000.0000000000000 7000.0000000000000 -4833.3333333330002 -37180551.061086915 -14229731.407394793 -118409137.08065091 0.00038526791287552562 -0.00031830066880422542 7.2025809014880629e-05 0.39999999965359129 -1.4999999987217354 -0.45368638650301973 
7000.0000000000000 7000.0000000000000 -4833.3333333330002 -37180551.060610220 -14229731.406186163 -118409137.07623532 0.00018069619692368568 -0.00033305702417934689 0.00012177943864170376 0.59999999950597871 -1.4999999987334538 -0.45368638648479032 
7000.0000000000000 8000.0000000000000 -4833.3333333330002 -37180551.058092199 -14229731.404522406 -118409137.06754403 0.00012359167431097060 -0.00029842596757312015 0.00011896712523097212 0.59999999951052896 -0.99999999915203219 -0.45368638645451581 
8000.0000000000000 7000.0000000000000 -5000.0000000000000 -37755622.374440908 -14804802.720822666 -120448026.28257337 0.00039255512304314235 -0.00016479315160326292 3.7879853211143861e-05 0.39999999965171451 -1.4999999987162818 0.0000000000000000 
7000.0000000000000 7000.0000000000000 -5000.0000000000000 -37755622.373907827 -14804802.719547048 -120448026.27792145 0.00018091648276883911 -0.00017184153492994230 6.3501681667985839e-05 0.59999999950377703 -1.4999999987282462 0.0000000000000000 
7000.0000000000000 8000.0000000000000 -5000.0000000000000 -37755622.371282771 -14804802.717786076 -120448026.26887947 0.00012350781804919243 -0.00015270411339338478 6.2080251031928211e-05 0.59999999950831040 -0.99999999914847126 0.0000000000000000 
8000.0000000000000 7000.0000000000000 -4666.6666666669998 -36030356.944598317 -13079537.290690355 -114331176.12209716 0.00036545095828917172 -0.00060341384558119839 0.00013381965269221037 0.39999999965893263 -1.4999999987375885 -0.89249062447012040 
7000.0000000000000 7000.0000000000000 -4666.6666666669998 -36030356.944223098 -13079537.289612422 -114331176.11814263 0.00017991321390017448 -0.00063433708836119608 0.00022827986092247208 0.59999999951237803 -1.4999999987486752 -0.89249062443564164 
7000.0000000000000 8000.0000000000000 -4666.6666666669998 -36030356.941923127 -13079537.288138757 -114331176.11014922 0.00012364164751913533 -0.00057593876805035467 0.00022284926018907412 0.59999999951695981 -0.99999999916243332 -0.89249062437716042 
8000.0000000000000 7000.0000000000000 -4500.0000000000000 -34880059.843926750 -11929240.189674182 -110252850.03773914 0.00033732599993671684 -0.00084625624581324030 0.00018427113245631424 0.39999999966721017 -1.4999999987628443 -1.3164113814132943 
7000.0000000000000 7000.0000000000000 -4500.0000000000000 -34880059.843632817 -11929240.188720124 -110252850.03422262 0.00017831888960665159 -0.00089398953089212148 0.00031560315699728043 0.59999999952255989 -1.4999999987730845 -1.3164113813644371 
7000.0000000000000 8000.0000000000000 -4500.0000000000000 -34880059.841555230 -11929240.187425885 -110252850.02691858 0.00012326504243785543 -0.00082587808416694094 0.00030799284888909063 0.59999999952715954 -0.99999999917910209 -1.3164113812798519 
8000.0000000000000 7000.0000000000000 -4333.3333333330002 -33729659.749833733 -10778840.095121909 -106174158.79482172 0.00030457654717954585 -0.0010502655613953986 0.00022625424932232026 0.39999999967798244 -1.4999999987965453 -1.7254473247170234 
7000.0000000000000 7000.0000000000000 -4333.3333333330002 -33729659.749604784 -10778840.094284452 -106174158.79172046 0.00017571165797324249 -0.0011140622570017307 0.00038577456007861139 0.59999999953611149 -1.4999999988058339 -1.7254473246555513 
7000.0000000000000 8000.0000000000000 -4333.3333333330002 -33729659.747747838 -10778840.093155717 -106174158.78509443 0.00012216815212839362 -0.0010491460893264210 0.00037660106655204980 0.59999999954070049 -0.99999999920145932 -1.7254473245469941 
8000.0000000000000 7000.0000000000000 -4166.6666666669998 -32579156.653080143 -9628336.9978074450 -102095102.36058959 0.00026974556910122643 -0.0012194352246222826 0.00026192902235616639 0.39999999969086875 -1.4999999988377808 -2.1195971216465601 
7000.0000000000000 7000.0000000000000 -4166.6666666669998 -32579156.652902588 -9628336.9970790427 -102095102.35788091 0.00017198269435918082 -0.0012977687829841095 0.00044103913099316261 0.59999999955263528 -1.4999999988460788 -2.1195971215741340 
7000.0000000000000 8000.0000000000000 -4166.6666666669998 -32579156.651260369 -9628336.9960999172 -102095102.35191849 0.00012020462908470950 -0.0012472146421325092 0.00043101940815921269 0.59999999955717864 -0.99999999922893135 -2.1195971214437548 
8000.0000000000000 7000.0000000000000 -4000.0000000000000 -31428550.544421200 -8477730.8884978276 -98015680.702268675 0.00023457400740628769 -0.0013580550685697273 0.00029295289542745503 0.39999999970553535 -1.4999999988856862 -2.4988594393546317 
7000.0000000000000 7000.0000000000000 -4000.0000000000000 -31428550.544283491 -8477730.8878708202 -98015680.699929789 0.00016709404370410263 -0.0014490092373304246 0.00048369317953238689 0.59999999957175520 -1.4999999988929995 -2.4988594392728101 
7000.0000000000000 8000.0000000000000 -4000.0000000000000 -31428550.542847279 -8477730.8870244883 -98015680.694613829 0.00011732250401689786 -0.0014219116535711665 0.00047357255563431868 0.59999999957621597 -0.99999999926095817 -2.4988594391227621 
8000.0000000000000 7000.0000000000000 -3833.3333333330002 -30277841.414616868 -7327021.7579636918 -93935893.787102938 0.00020023528044239719 -0.0014705470773391243 0.00032061443823587596 0.39999999972168659 -1.4999999989394546 -2.8632329448672595 
7000.0000000000000 7000.0000000000000 -3833.3333333330002 -30277841.414509177 -7327021.7574304454 -93935893.785110876 0.00016105929324962900 -0.0015720343785146495 0.00051597859014942970 0.59999999959312289 -1.4999999989458124 -2.8632329447775038 
7000.0000000000000 8000.0000000000000 -3833.3333333330002 -30277841.413268391 -7327021.7566999737 -93935893.780421585 0.00011352523274995454 -0.0015752620531033061 0.00050647298159999811 0.59999999959746353 -0.99999999929700156 -2.8632329446099267 
8000.0000000000000 7000.0000000000000 -3666.6666666669998 -29127029.254426733 -6176209.5969740888 -89855741.582335830 0.00016749911638244799 -0.0015612596959091011 0.00034591431432949164 0.39999999973905986 -1.4999999989983306 -3.2127163050912415 
7000.0000000000000 7000.0000000000000 -3666.6666666669998 -29127029.254340775 -6176209.5965270875 -89855741.580667436 0.00015392639929350527 -0.0016711884094077812 0.00053998783623985494 0.59999999961641715 -1.4999999990037787 -3.2127163049949092 
7000.0000000000000 8000.0000000000000 -3666.6666666669998 -29127029.253283665 -6176209.5958961342 -89855741.576582417 0.00010884970981733620 -0.0017093616432416910 0.00053176023724984438 0.59999999962060102 -0.99999999933654826 -3.2127163048119192 
8000.0000000000000 7000.0000000000000 -3500.0000000000000 -27976114.054604910 -5025294.3962914152 -85775224.055192024 0.00013684954595554472 -0.0016343345890757598 0.00036959316202734367 0.39999999975742101 -1.4999999990616169 -3.5473081868200422 
7000.0000000000000 7000.0000000000000 -3500.0000000000000 -27976114.054533862 -5025294.3959233463 -85775224.053824008 0.00014576785258165170 -0.0017506991838797522 0.00055761557776302440 0.59999999964134465 -1.4999999990662103 -3.5473081867183938 
7000.0000000000000 8000.0000000000000 -3500.0000000000000 -27976114.053648010 -5025294.3953767382 -85775224.050318569 0.00010335631408810674 -0.0018262570638736776 0.00055125178104439127 0.59999999964533768 -0.99999999937911099 -3.5473081865220624 
8000.0000000000000 7000.0000000000000 -3333.3333333330002 -26825095.805910476 -3874276.1466818792 -81694341.172914147 0.00010856291539645239 -0.0016935957912228748 0.00039217003721805043 0.39999999977656098 -1.4999999991286719 -3.8670072567212226 
7000.0000000000000 7000.0000000000000 -3333.3333333330002 -26825095.805848889 -3874276.1463856730 -81694341.171822995 0.00013666802835709903 -0.0018145186868896233 0.00057054270994540612 0.59999999966763939 -1.4999999991324682 -3.8670072566154206 
7000.0000000000000 8000.0000000000000 -3333.3333333330002 -26825095.805121642 -3874276.1459099376 -81694341.168870375 9.7115764134745640e-05 -0.0019278463492046309 0.00056652332338100111 0.59999999967141004 -0.99999999942423290 -3.8670072564077604 
8000.0000000000000 7000.0000000000000 -3166.6666666669998 -25673974.499102298 -2723154.8389103627 -77613092.902744323 8.2765206970289090e-05 -0.0017424386269766221 0.00041395404791276904 0.39999999979629447 -1.4999999991989066 -4.1718121813431219 
7000.0000000000000 7000.0000000000000 -3166.6666666669998 -25673974.499046057 -2723154.8386792331 -77613092.901906386 0.00012671080718175098 -0.0018662114135946587 0.00058019344925887804 0.59999999969506168 -1.4999999992019659 -4.1718121812342277 
7000.0000000000000 8000.0000000000000 -3166.6666666669998 -25673974.498464748 -2723154.8382629808 -77613092.899477690 9.0197934968231584e-05 -0.0020158295776744059 0.00057888816454426618 0.59999999969858042 -0.99999999947148333 -4.1718121810171844 
8000.0000000000000 7000.0000000000000 -3000.0000000000000 -24522750.124933861 -1571930.4637353383 -73531479.211905673 5.9476197507794595e-05 -0.0017837306777796799 0.00043506846691262037 0.39999999981645656 -1.4999999992717845 -4.4617216271199487 
7000.0000000000000 7000.0000000000000 -3000.0000000000000 -24522750.124880157 -1571930.4635628101 -73531479.211297289 0.00011597728031024434 -0.0019088273352369171 0.00058774029064633763 0.59999999972339602 -1.4999999992741662 -4.4617216270089139 
7000.0000000000000 8000.0000000000000 -3000.0000000000000 -24522750.124432378 -1571930.4631971465 -73531479.209361836 8.2670179593657376e-05 -0.0020916162121072338 0.00058940232203249685 0.59999999972663665 -0.99999999952046159 -4.4617216267843496 
8000.0000000000000 7000.0000000000000 -2833.3333333330002 -23371422.674163707 -420603.01191938244 -69449500.067639366 3.8633562394138848e-05 -0.0018197554889147018 0.00045546527369809875 0.39999999983690143 -1.4999999993468176 -4.7367342603607909 
7000.0000000000000 7000.0000000000000 -2833.3333333330002 -23371422.674110994 -420603.01179931423 -69449500.067236826 0.00010453887275442240 -0.0019448266242972335 0.00059408836518374890 0.59999999975244922 -1.4999999993485780 -4.7367342602484745 
7000.0000000000000 8000.0000000000000 -2833.3333333330002 -23371422.673784778 -420603.01147818012 -69449500.065762430 7.4592862994300851e-05 -0.0021562481863429540 0.00059884924230731227 0.59999999975538809 -0.99999999957079122 -4.7367342600181521 
8000.0000000000000 7000.0000000000000 -2666.6666666669998 -22219992.137550246 730827.52577592840 -65367155.437186092 2.0109782381263644e-05 -0.0018521803405949634 0.00047492266713765140 0.39999999985750023 -1.4999999994235611 -4.9968487472555276 
7000.0000000000000 7000.0000000000000 -2666.6666666669998 -22219992.137498185 730827.52584934526 -65367155.436965734 9.2451969484144900e-05 -0.0019760639774428026 0.00059986390099196025 0.59999999978204954 -1.4999999994247533 -4.9968487471426792 
7000.0000000000000 8000.0000000000000 -2666.6666666669998 -22219992.137282103 730827.52612895751 -65367155.435918532 6.6015578254934452e-05 -0.0022103987110594146 0.00060774196697626129 0.59999999978466434 -0.99999999962212105 -4.9968487469082552 
8000.0000000000000 7000.0000000000000 -2500.0000000000000 -21068458.505846530 1882361.1585951741 -61284445.287767418 3.7262645644039149e-06 -0.0018819570340232433 0.00049308118588856380 0.39999999987813961 -1.4999999995016080 -5.2420637538790897 
7000.0000000000000 7000.0000000000000 -2500.0000000000000 -21068458.505796008 1882361.1586273466 -61284445.287705861 7.9757714083390796e-05 -0.0020036687673080341 0.00060543510051598636 0.59999999981204333 -1.4999999995022821 -5.2420637537663550 
7000.0000000000000 8000.0000000000000 -2500.0000000000000 -21068458.505679306 1882361.1588651121 -61284445.287050612 5.6976709159565562e-05 -0.0022542878481934705 0.00061633345340328025 0.59999999981431362 -0.99999999967412101 -5.2420637535293659 
8000.0000000000000 7000.0000000000000 -2333.3333333330002 -19916821.769810695 3033997.8957784842 -57201369.586623088 -1.0741190089666734e-05 -0.0019093138654075054 0.00050944800604773373 0.39999999989871954 -1.4999999995805882 -5.4723779461821005 
7000.0000000000000 7000.0000000000000 -2333.3333333330002 -19916821.769763730 3033997.8957744641 -57201369.586697161 6.6479892903613283e-05 -0.0020280203952243682 0.00061089432506154242 0.59999999984229302 -1.4999999995807864 -5.4723779460700248 
7000.0000000000000 8000.0000000000000 -2333.3333333330002 -19916821.769736476 3033997.8959664889 -57201369.586397357 4.7501460145544699e-05 -0.0022876564473206197 0.00062461054827756121 0.59999999984419983 -0.99999999972647902 -5.4723779458318731 
8000.0000000000000 7000.0000000000000 -2166.6666666669998 -18765081.920200717 4185737.7465667585 -53117928.300992131 -2.3562974284956944e-05 -0.0019337407542840712 0.00052339275111573940 0.39999999991915208 -1.4999999996601561 -5.6877899899959630 
7000.0000000000000 7000.0000000000000 -2166.6666666669998 -18765081.920160446 4185737.7465311931 -53117928.301179036 5.2624587919089358e-05 -0.0020487444170859746 0.00061605389434477487 0.59999999987267516 -1.4999999996599156 -5.6877899898849824 
7000.0000000000000 8000.0000000000000 -2166.6666666669998 -18765081.920213543 4185737.7466698643 -53117928.301196843 3.7602724165191981e-05 -0.0023097499826000758 0.00063229187697407636 0.59999999987419994 -0.99999999977889764 -5.6877899896469311 
8000.0000000000000 7000.0000000000000 -2000.0000000000000 -17613238.947769258 5337580.7202066574 -49034121.398094855 -3.5057615802715644e-05 -0.0019539014298068235 0.00053417508478938495 0.39999999993935920 -1.4999999997399889 -5.8882985510363213 
7000.0000000000000 7000.0000000000000 -2000.0000000000000 -17613238.947739948 5337580.7201437540 -49034121.398372374 3.8181152203387784e-05 -0.0020646076501221531 0.00062045895167300792 0.59999999990307729 -1.4999999997393394 -5.8882985509267769 
7000.0000000000000 8000.0000000000000 -2000.0000000000000 -17613238.947865244 5337580.7202175446 -49034121.398668684 2.7283110010556027e-05 -0.0023192405285431214 0.00063883310973792675 0.59999999990420172 -0.99999999983109056 -5.8882985506899299 
8000.0000000000000 7000.0000000000000 -1833.3333333329999 -16461292.843274016 6489526.8259401964 -44949948.845169455 -4.5593774451034134e-05 -0.0019676514822690346 0.00054095024791887738 0.39999999995927210 -1.4999999998197784 -6.0739022948953227 
7000.0000000000000 7000.0000000000000 -1833.3333333329999 -16461292.843260985 6489526.8258536952 -44949948.845515996 2.3121666647990951e-05 -0.0020735503740351153 0.00062338853315026808 0.59999999993339637 -1.4999999998187403 -6.0739022947874526 
7000.0000000000000 8000.0000000000000 -1833.3333333329999 -16461292.843451397 6489526.8258469645 -44949948.846050568 1.6533184025759115e-05 -0.0023142453669663730 0.00064343638666160329 0.59999999993410225 -0.99999999988277710 -6.0739022945527461 
8000.0000000000000 7000.0000000000000 -1666.6666666670001 -15309243.597472481 7641576.0730098384 -40865410.609453529 -5.5595601110388386e-05 -0.0019719736692262973 0.00054277072827359392 0.39999999997882835 -1.4999999998992255 -6.2445998870458785 
7000.0000000000000 7000.0000000000000 -1666.6666666670001 -15309243.597482147 7641576.0729029719 -40865410.609848380 7.4034932111994648e-06 -0.0020726081123673321 0.00062382947628535101 0.59999999996353504 -1.4999999998978075 -6.2445998869398238 
7000.0000000000000 8000.0000000000000 -1666.6666666670001 -15309243.597731685 7641576.0727958307 -40865410.610579625 5.3334800745236554e-06 -0.0022922771925631101 0.00064502155675069217 0.59999999996380371 -0.99999999993367872 -6.2445998867080199 
8000.0000000000000 6000.0000000000000 -4833.3333333330002 -37180551.064717837 -14229731.408821909 -118409137.09519050 0.00051470686564390614 -0.00020578883113239101 2.0468595431343111e-05 0.39999999963695021 -1.9999999983334560 -0.45368638655959431 
8000.0000000000000 5000.0000000000000 -4833.3333333330002 -37180551.069548875 -14229731.409171438 -118409137.11610478 0.00056792761114635463 3.2797782235415491e-05 -5.0763505526048697e-05 0.39999999961618693 -2.4999999980386387 -0.45368638664470534 
7000.0000000000000 5000.0000000000000 -4833.3333333330002 -37180551.069293454 -14229731.407786954 -118409137.11004761 0.00023465459790476616 -6.1909082683377106e-07 0.00011946779113172952 0.59999999949239680 -2.4999999980566336 -0.45368638661208960 
7000.0000000000000 6000.0000000000000 -4833.3333333330002 -37180551.064340040 -14229731.407525919 -118409137.09007183 0.00022141329981366923 -0.00023148212105126453 0.00012155898269567154 0.59999999949961402 -1.9999999983494712 -0.45368638653524146 
8000.0000000000000 6000.0000000000000 -5000.0000000000000 -37755622.378239587 -14804802.722405484 -120448026.29770006 0.00052499727451909433 -0.00011066578143499122 1.2292923206018066e-05 0.39999999963466398 -1.9999999983263317 0.0000000000000000 
8000.0000000000000 5000.0000000000000 -5000.0000000000000 -37755622.383301869 -14804802.722964151 -120448026.31943177 0.00057981860072952966 6.3381114859415834e-06 -2.3022936973661498e-05 0.39999999961336696 -2.4999999980302317 0.0000000000000000 
7000.0000000000000 5000.0000000000000 -5000.0000000000000 -37755622.382965654 -14804802.721472330 -120448026.31296867 0.00023505666604616132 -9.7564795740185427e-06 6.2214070087531615e-05 0.59999999949016392 -2.4999999980486640 0.0000000000000000 
7000.0000000000000 6000.0000000000000 -5000.0000000000000 -37755622.377795242 -14804802.721025292 -120448026.29227328 0.00022187691323015402 -0.00012301342852371629 6.3349614953828155e-05 0.59999999949739646 -1.9999999983427161 0.0000000000000000 
8000.0000000000000 6000.0000000000000 -4666.6666666669998 -36030356.947897866 -13079537.291822128 -114331176.13548084 0.00048685910229488683 -0.00036662862481950004 3.0614795211538025e-05 0.39999999964334615 -1.9999999983540844 -0.89249062457896311 
8000.0000000000000 5000.0000000000000 -4666.6666666669998 -36030356.952277020 -13079537.291785048 -114331176.15479565 0.00053598343243856604 0.00012277322525423962 -0.00011218370353024412 0.39999999962394850 -2.4999999980628687 -0.89249062474312524 
7000.0000000000000 5000.0000000000000 -4666.6666666669998 -36030356.952150710 -13079537.290599985 -114331176.14951351 0.00023338147267057787 5.3355573881123307e-05 0.00022432009905537780 0.59999999949888483 -2.4999999980797587 -0.89249062468280216 
7000.0000000000000 6000.0000000000000 -4666.6666666669998 -36030356.947632909 -13079537.290686440 -114331176.13095644 0.00021997754946077787 -0.00042012377688597878 0.00022802244448549966 0.59999999950605798 -1.9999999983691583 -0.89249062453349048 
8000.0000000000000 6000.0000000000000 -4500.0000000000000 -34880059.846904814 -11929240.190543856 -110252850.05000366 0.00044766810022812221 -0.00047217137221000226 3.1671158986637178e-05 0.39999999965303840 -1.9999999983867804 -1.3164113815702396 
8000.0000000000000 5000.0000000000000 -4500.0000000000000 -34880059.850854747 -11929240.190183450 -110252850.06778957 0.00049162666108511091 0.00028048140795610543 -0.00017986810939573316 0.39999999963545191 -2.4999999981010332 -1.3164113818076337 
7000.0000000000000 5000.0000000000000 -4500.0000000000000 -34880059.850804843 -11929240.189170487 -110252850.06321263 0.00023107675156424303 0.00017407347368885036 0.00031053331419186631 0.59999999950920924 -2.4999999981164844 -1.3164113817239744 
7000.0000000000000 6000.0000000000000 -4500.0000000000000 -34880059.846718617 -11929240.189553382 -110252850.04603145 0.00021746390108225443 -0.00055426702046416573 0.00031539959484566541 0.59999999951631022 -1.9999999984006096 -1.3164113815065919 
8000.0000000000000 6000.0000000000000 -4333.3333333330002 -33729659.752503060 -10778840.095764443 -106174158.80600488 0.00040249562659998338 -0.00052971632244799415 2.9075299811978943e-05 0.39999999966539979 -1.9999999984302117 -1.7254473249180367 
8000.0000000000000 5000.0000000000000 -4333.3333333330002 -33729659.756049149 -10778840.095143329 -106174158.82233194 0.00044138132102165215 0.00049313106363194970 -0.00024483847502960462 0.39999999964982469 -2.4999999981514240 -1.7254473252230704 
7000.0000000000000 5000.0000000000000 -4333.3333333330002 -33729659.756042451 -10778840.094280479 -106174158.81839725 0.00022756861186954316 0.00035149989605638829 0.00037961128626017786 0.59999999952296335 -2.4999999981653036 -1.7254473251199460 
7000.0000000000000 6000.0000000000000 -4333.3333333330002 -33729659.752372041 -10778840.094905997 -106174158.80254555 0.00021376328009318398 -0.00063895925168958392 0.00038549996345288494 0.59999999952996041 -1.9999999984426589 -1.7254473248388860 
8000.0000000000000 6000.0000000000000 -4166.6666666669998 -32579156.655455865 -9628336.9982584715 -102095102.37073041 0.00035497053978952463 -0.00054693783877257857 2.6300228947216070e-05 0.39999999967992994 -1.9999999984831418 -2.1195971218877330 
8000.0000000000000 5000.0000000000000 -4166.6666666669998 -32579156.658625513 -9628336.9974376224 -102095102.38566832 0.00038955313413467803 0.00074798215718023140 -0.00030178147123643550 0.39999999966641114 -2.4999999982125058 -2.1195971222550276 
7000.0000000000000 5000.0000000000000 -4166.6666666669998 -32579156.658640575 -9628336.9967065603 -102095102.38231887 0.00022272985978652986 0.00057447617820880880 0.00043333613352756231 0.59999999953975702 -2.4999999982248009 -2.1195971221358643 
7000.0000000000000 6000.0000000000000 -4166.6666666669998 -32579156.655362975 -9628336.9975201897 -102095102.36774708 0.00020880006971006835 -0.00068064167706648453 0.00044037863969530845 0.59999999954661443 -1.9999999984941734 -2.1195971217955036 
8000.0000000000000 6000.0000000000000 -4000.0000000000000 -31428550.546520151 -8477730.8887926880 -98015680.711407498 0.00030750802667018267 -0.00053161936595066571 2.5546958034342344e-05 0.39999999969621824 -1.9999999985444372 -2.4988594396321777 
8000.0000000000000 5000.0000000000000 -4000.0000000000000 -31428550.549341992 -8477730.8878304735 -98015680.725025803 0.00033887497672454306 0.0010326768805883049 -0.00034773162698927229 0.39999999968470407 -2.4999999982829135 -2.4988594400565614 
7000.0000000000000 5000.0000000000000 -4000.0000000000000 -31428550.549364667 -8477730.8872155584 -98015680.722209424 0.00021649640026265548 0.00083145227607785436 0.00047366912433319865 0.59999999955922056 -2.4999999982936814 -2.4988594399243884 
7000.0000000000000 6000.0000000000000 -4000.0000000000000 -31428550.546452668 -8477730.8881637156 -98015680.708865225 0.00020254243676845547 -0.00068648275378471301 0.00048220409561111377 0.59999999956589944 -1.9999999985540791 -2.4988594395290655 
8000.0000000000000 6000.0000000000000 -3833.3333333330002 -30277841.416457031 -7327021.7581365537 -93935893.795281604 0.00026167012621512107 -0.00049147059439671786 2.8159665874613294e-05 0.39999999971392081 -1.9999999986130617 -2.8632329451775145 
8000.0000000000000 5000.0000000000000 -3833.3333333330002 -30277841.418960143 -7327021.7570879068 -93935893.807649270 0.00029096562942539897 0.0013354574653719384 -0.00038126468936604859 0.39999999970430183 -2.4999999983614418 -2.8632329456540173 
7000.0000000000000 5000.0000000000000 -3833.3333333330002 -30277841.418980919 -7327021.7565755434 -93935893.805317834 0.00020886707904195712 0.0011109860207954144 0.00050265314072360165 0.59999999958100902 -2.4999999983707766 -2.8632329455115237 
7000.0000000000000 6000.0000000000000 -3833.3333333330002 -30277841.416405208 -7327021.7576068155 -93935893.793146923 0.00019500357623651127 -0.00066393458398515725 0.00051315141634407108 0.59999999958746830 -1.9999999986213750 -2.8632329450655116 
8000.0000000000000 6000.0000000000000 -3666.6666666669998 -29127029.256026730 -6176209.5970571879 -89855741.589597657 0.00021841650245345328 -0.00043391026217926156 3.4880483509067614e-05 0.39999999973274569 -1.9999999986880772 -3.2127163054306647 
8000.0000000000000 5000.0000000000000 -3666.6666666669998 -29127029.258239962 -6176209.5959729701 -89855741.600782946 0.00024666522134526294 0.0016453205508585036 -0.00040198594969196021 0.39999999972488137 -2.4999999984470418 -3.2127163059545185 
7000.0000000000000 5000.0000000000000 -3666.6666666669998 -29127029.258252453 -6176209.5955512449 -89855741.598891765 0.00019989375432805169 0.0014020713509034803 0.00052231716680920285 0.59999999960480199 -2.4999999984550532 -3.2127163058040855 
7000.0000000000000 6000.0000000000000 -3666.6666666669998 -29127029.255983073 -6176209.5966173168 -89855741.587838292 0.00018623349777258891 -0.00062041414224151947 0.00053529440585043980 0.59999999961100015 -1.9999999986951411 -3.2127163053115768 
8000.0000000000000 6000.0000000000000 -3500.0000000000000 -27976114.055983517 -5025294.3963143658 -85775224.061581612 0.00017828393561179133 -0.00036588637922072665 4.6009980926183094e-05 0.39999999975244249 -1.9999999987686405 -3.5473081871852270 
8000.0000000000000 5000.0000000000000 -3500.0000000000000 -27976114.057934977 -5025294.3952409104 -85775224.071651831 0.00020628361813849192 0.0019521755793481138 -0.00041019649693673752 0.39999999974617811 -2.4999999985388150 -3.5473081877518626 
7000.0000000000000 5000.0000000000000 -3500.0000000000000 -27976114.057935011 -5025294.3948993133 -85775224.070159033 0.00018966143490295727 0.0016944337012087135 0.00053461846661563778 0.59999999963030415 -2.4999999985456154 -3.5473081875955974 
7000.0000000000000 6000.0000000000000 -3500.0000000000000 -27976114.055942353 -5025294.3959556427 -85775224.060166329 0.00017630641916724498 -0.00056300466520339061 0.00055056066117402228 0.59999999963620076 -1.9999999987745429 -3.5473081870606822 
8000.0000000000000 6000.0000000000000 -3333.3333333330002 -26825095.807086296 -3874276.1466711354 -81694341.178477317 0.00014151300908300416 -0.00029376048232807132 6.1514868689698741e-05 0.39999999977279538 -1.9999999988540014 -3.8670072571089027 
8000.0000000000000 5000.0000000000000 -3333.3333333330002 -26825095.808802903 -3874276.1456498969 -81694341.187498480 0.00016977907392513842 0.0022468998046549422 -0.00040667503035890436 0.39999999976797346 -2.4999999986359982 -3.8670072577139503 
7000.0000000000000 5000.0000000000000 -3333.3333333330002 -26825095.808787938 -3874276.1453790893 -81694341.186364487 0.00017827039523469801 0.0019786564814644131 0.00054137461663262144 0.59999999965724593 -2.4999999986416941 -3.8670072575537189 
7000.0000000000000 6000.0000000000000 -3333.3333333330002 -26825095.807043463 -3874276.1463854196 -81694341.177375600 0.00016531112787201822 -0.00049828947345204933 0.00056070003435466486 0.59999999966280226 -1.9999999988588313 -3.8670072569803646 
8000.0000000000000 6000.0000000000000 -3166.6666666669998 -25673974.500093486 -2723154.8388888035 -77613092.907528043 0.00010814004808332170 -0.00022321414913839907 8.1092086048269261e-05 0.39999999979361733 -1.9999999989434958 -4.1718121817501768 
8000.0000000000000 5000.0000000000000 -3166.6666666669998 -25673974.501600664 -2723154.8379561538 -77613092.915564507 0.00013688511005712823 0.0025213371604156636 -0.00039253298736450235 0.39999999979008521 -2.4999999987379589 -4.1718121823894725 
7000.0000000000000 5000.0000000000000 -3166.6666666669998 -25673974.501569491 -2723154.8377478258 -77613092.914751798 0.00016582769820493892 0.0022462331341823096 0.00054421891161214337 0.59999999968538298 -2.4999999987426453 -4.1718121822269092 
7000.0000000000000 6000.0000000000000 -3166.6666666669998 -25673974.500046179 -2723154.8386685089 -77613092.906710058 0.00015334054930268148 -0.00043222361129448777 0.00056723525457316834 0.59999999969056272 -1.9999999989473403 -4.1718121816189537 
8000.0000000000000 6000.0000000000000 -3000.0000000000000 -24522750.125757854 -1571930.4637218609 -73531479.215957835 7.8066557261053499e-05 -0.00015915199201781889 0.00010423016743105978 0.39999999981474593 -1.9999999990365416 -4.4617216275434108 
8000.0000000000000 5000.0000000000000 -3000.0000000000000 -24522750.127079371 -1571930.4629090009 -73531479.223072261 0.00010721231615488564 0.0027683047933517754 -0.00036909970111380770 0.39999999981236101 -2.4999999988441814 -4.4617216282129926 
7000.0000000000000 5000.0000000000000 -3000.0000000000000 -24522750.127031948 -1571930.4627557590 -73531479.222545028 0.00015242849442666264 0.0024896074311835919 0.00054457453353502305 0.59999999971449480 -2.4999999988479420 -4.4617216280495304 
7000.0000000000000 6000.0000000000000 -3000.0000000000000 -24522750.125704553 -1571930.4635599474 -73531479.215394333 0.00014048099924086183 -0.00037000332037481895 0.00057145367999439215 0.59999999971926432 -1.9999999990394843 -4.4617216274106619 
8000.0000000000000 6000.0000000000000 -2833.3333333330002 -23371422.674837068 -420603.01192861365 -69449500.071008563 5.1103783655375585e-05 -0.00010564069946081446 0.00013024898009589012 0.39999999983604123 -1.9999999991326332 -4.7367342607978644 
8000.0000000000000 5000.0000000000000 -2833.3333333330002 -23371422.675994925 -420603.01126153424 -69449500.077261776 8.0314571420865273e-05 0.0029816133504029741 -0.00033785718419156250 0.39999999983467216 -2.4999999989542587 -4.7367342614939796 
7000.0000000000000 5000.0000000000000 -2833.3333333330002 -23371422.675932184 -420603.01115671784 -69449500.076985553 0.00013815183741540751 0.0027022199493247244 0.00054361055449790357 0.59999999974438412 -2.4999999989571631 -4.7367342613308479 
7000.0000000000000 6000.0000000000000 -2833.3333333330002 -23371422.674777389 -420603.01181851025 -69449500.070670709 0.00012680751820993768 -0.00031599966561709749 0.00057438790626707613 0.59999999974871232 -1.9999999991347504 -4.7367342606646021 
8000.0000000000000 6000.0000000000000 -2666.6666666669998 -22219992.138088606 730827.52573381225 -65367155.439921774 2.7001413408865010e-05 -6.5914132173714688e-05 0.00015831268130331528 0.39999999985738161 -1.9999999992313311 -4.9968487477035914 
8000.0000000000000 5000.0000000000000 -2666.6666666669998 -22219992.139102969 730827.52623435028 -65367155.445372626 5.5727856279341226e-05 0.0031559710696031119 -0.00030039428989159765 0.39999999985691082 -2.4999999990678781 -4.9968487484226927 
7000.0000000000000 5000.0000000000000 -2666.6666666669998 -22219992.139026731 730827.52629675996 -65367155.445314102 0.00012305603879384368 0.0028784505555717434 0.00054223127937248099 0.59999999977487473 -2.4999999990699830 -4.9968487482609385 
7000.0000000000000 6000.0000000000000 -2666.6666666669998 -22219992.138023235 730827.52579822787 -65367155.439781196 0.00011237883961332944 -0.00027374862077410159 0.00057679359092356640 0.59999999977873253 -1.9999999992326936 -4.9968487475706835 
8000.0000000000000 6000.0000000000000 -2500.0000000000000 -21068458.506264400 1882361.1585146829 -61284445.289919615 5.4706985441172224e-06 -4.2295132213611289e-05 0.00018747248133039909 0.39999999987866325 -1.9999999993322584 -5.2420637543357094 
8000.0000000000000 5000.0000000000000 -2500.0000000000000 -21068458.507153615 1882361.1588331417 -61284445.294625096 3.3002036940608213e-05 0.0032870116766243111 -0.00025835853027506435 0.39999999987898638 -2.4999999991848139 -5.2420637550744589 
7000.0000000000000 5000.0000000000000 -2500.0000000000000 -21068458.507066652 1882361.1588585426 -61284445.294752233 0.00010716956095186669 0.0030136174627668128 0.00054106279047885070 0.59999999980581020 -2.4999999991861634 -5.2420637549149518 
7000.0000000000000 6000.0000000000000 -2500.0000000000000 -21068458.506195165 1882361.1585390416 -61284445.289948605 9.7231778141224176e-05 -0.00024586624016053287 0.00057915934005946181 0.59999999980916974 -1.9999999993329280 -5.2420637542038842 
8000.0000000000000 6000.0000000000000 -2333.3333333330002 -19916821.770121429 3033997.8956590071 -57201369.588242285 -1.3805725785537500e-05 -3.6189038326287296e-05 0.00021669776325290935 0.39999999989979640 -1.9999999994350888 -5.4723779466450342 
8000.0000000000000 5000.0000000000000 -2333.3333333330002 -19916821.770902041 3033997.8957850789 -57201369.592257656 1.1714026522544076e-05 0.0033712404523840605 -0.00021342101282500960 0.39999999990082313 -2.4999999993049120 -5.4723779474003118 
7000.0000000000000 5000.0000000000000 -2333.3333333330002 -19916821.770807926 3033997.8957783938 -57201369.592539348 9.0495778135479655e-05 0.0031039573451826395 0.00054044921230906717 0.59999999983705143 -2.4999999993055408 -5.4723779472437490 
7000.0000000000000 6000.0000000000000 -2333.3333333330002 -19916821.770051137 3033997.8956485344 -57201369.588413641 8.1381889345411400e-05 -0.00023402170634235128 0.00058170164002171543 0.59999999983988583 -1.9999999994351219 -5.4723779465148885 
8000.0000000000000 6000.0000000000000 -2166.6666666669998 -18765081.920416474 4185737.7464126600 -53117928.302129492 -3.1176784214808720e-05 -4.8090253923004810e-05 0.00024487960819924410 0.39999999992070517 -1.9999999995395430 -5.6877899904631795 
8000.0000000000000 5000.0000000000000 -2166.6666666669998 -18765081.921103295 4185737.7463412853 -53117928.305508569 -8.5324822507710404e-06 0.0034060120157875830 -0.00016725810947310532 0.39999999992235902 -2.4999999994280873 -5.6877899912320746 
7000.0000000000000 5000.0000000000000 -2166.6666666669998 -18765081.921006367 4185737.7463070429 -53117928.305914558 7.3007397832259066e-05 0.0031465653241552942 0.00054043603469813362 0.59999999986847430 -2.4999999994280171 -5.6877899910789864 
7000.0000000000000 6000.0000000000000 -2166.6666666669998 -18765081.920348901 4185737.7463721731 -53117928.302416675 6.4821813759300214e-05 -0.00023895546497331721 0.00058434182088962802 0.59999999987075625 -1.9999999995389852 -5.6877899903351699 
8000.0000000000000 6000.0000000000000 -2000.0000000000000 -17613238.947900921 5337580.7200275147 -49034121.398802012 -4.7025440647112174e-05 -7.7513206952410749e-05 0.00027085814861316823 0.39999999994132557 -1.9999999996453732 -5.8882985515060025 
8000.0000000000000 5000.0000000000000 -2000.0000000000000 -17613238.948507011 5337580.7197590293 -49034121.401597217 -2.8114909382684148e-05 0.0033895551931705978 -0.00012151928844060850 0.39999999994354468 -2.4999999995543010 -5.8882985522858338 
7000.0000000000000 5000.0000000000000 -2000.0000000000000 -17613238.948412362 5337580.7197013777 -49034121.402098253 5.4652048064505166e-05 0.0031394542742763042 0.00054078027721936935 0.59999999989996755 -2.4999999995535487 -5.8882985521365887 
7000.0000000000000 6000.0000000000000 -2000.0000000000000 -17613238.947840780 5337580.7199614160 -49034121.399179295 4.7521374098421438e-05 -0.00026038420436125319 0.00058672529523137859 0.59999999990166952 -1.9999999996442617 -5.8882985513804647 
8000.0000000000000 6000.0000000000000 -1833.3333333329999 -16461292.843331128 6489526.8257509489 -44949948.845498636 -6.1778013013404662e-05 -0.00012301004039192716 0.00029344901720473719 0.39999999996160401 -1.9999999997523614 -6.0739022953658770 
8000.0000000000000 5000.0000000000000 -1833.3333333329999 -16461292.843867851 6489526.8252912043 -44949948.847761445 -4.7411838678983111e-05 0.0033209429972299435 -7.7789520208434038e-05 0.39999999996434182 -2.4999999996835638 -6.0739022961541824 
7000.0000000000000 5000.0000000000000 -1833.3333333329999 -16461292.843781278 6489526.8252139678 -44949948.848329335 3.5356333774482992e-05 0.0030815351611196483 0.00054094513621389848 0.59999999993143005 -2.4999999996821347 -6.0739022960089963 
7000.0000000000000 6000.0000000000000 -1833.3333333329999 -16461292.843284050 6489526.8256632145 -44949948.845941231 2.9430630133352118e-05 -0.00029702796052235577 0.00058822081521447207 0.59999999993252306 -1.9999999997507223 -6.0739022952430171 
8000.0000000000000 6000.0000000000000 -1666.6666666670001 -15309243.597463250 7641576.0728309723 -40865410.609457821 -7.5922921686896668e-05 -0.00018211463864430236 0.00031145740283719520 0.39999999998149555 -1.9999999998603053 -6.2445998875159541 
8000.0000000000000 5000.0000000000000 -1666.6666666670001 -15309243.597940316 7641576.0721915429 -40865410.611239269 -6.6832294191997748e-05 0.0032001319099122325 -3.7575035907867004e-05 0.39999999998472369 -2.4999999998159157 -6.2445998883105043 
7000.0000000000000 5000.0000000000000 -1666.6666666670001 -15309243.597868215 7641576.0720982607 -40865410.611846857 1.5020190516681893e-05 0.0029726378004918596 0.00054007476126034359 0.59999999996276843 -2.4999999998138076 -6.2445998881694464 
7000.0000000000000 6000.0000000000000 -1666.6666666670001 -15309243.597435717 7641576.0727251321 -40865410.609942086 1.0477773257410161e-05 -0.00034654459015696486 0.00058789322175067493 0.59999999996322095 -1.9999999998581539 -6.2445998873958608 
5000.0000000000000 5000.0000000000000 -4833.3333333330002 -37180551.067663446 -14229731.405344801 -118409137.10056806 6.1930303635861908e-05 7.7283063934906047e-05 3.2160559175623757e-05 0.99999999926986305 -2.4999999980461762 -0.45368638658995775 
6000.0000000000000 6000.0000000000000 -4833.3333333330002 -37180551.063564539 -14229731.406307898 -118409137.08521923 -6.2609915661066294e-05 -0.00020806141358698123 0.00015522868988550645 0.79999999937869859 -1.9999999983472763 -0.45368638652163173 
6000.0000000000000 5000.0000000000000 -4833.3333333330002 -37180551.068348318 -14229731.406690875 -118409137.10600357 -9.1148170548637227e-05 3.0061341627361839e-05 0.00022816661799816631 0.79999999938482458 -2.4999999980532590 -0.45368638660618377 
5000.0000000000000 5000.0000000000000 -5000.0000000000000 -37755622.381256878 -14804802.719000146 -120448026.30342402 5.7241708971428463e-05 2.7584183358777115e-05 1.8476053698460904e-05 0.99999999926705263 -2.4999999980373238 0.0000000000000000 
6000.0000000000000 6000.0000000000000 -5000.0000000000000 -37755622.376967609 -14804802.719769441 -120448026.28729327 -7.1483193286693501e-05 -0.00011183772094644764 8.0626665743878547e-05 0.79999999937651445 -1.9999999983401866 0.0000000000000000 
6000.0000000000000 5000.0000000000000 -5000.0000000000000 -37755622.381983161 -14804802.720364023 -120448026.30890289 -0.00010182122655774754 4.9130722812418763e-06 0.00011689690467536762 0.79999999938315436 -2.4999999980448817 0.0000000000000000 
5000.0000000000000 5000.0000000000000 -4666.6666666669998 -36030356.950725071 -13079537.288236687 -114331176.14020520 7.4250915099204965e-05 0.00021594367655010700 4.9814983104493349e-05 0.99999999927800665 -2.4999999980715324 -0.89249062463608186 
6000.0000000000000 6000.0000000000000 -4666.6666666669998 -36030356.946972094 -13079537.289547257 -114331176.12636736 -3.9139694955280198e-05 -0.00037104373892825847 0.00029155531796819581 0.79999999938521860 -1.9999999983678018 -0.89249062450600092 
6000.0000000000000 5000.0000000000000 -4666.6666666669998 -36030356.951304570 -13079537.289538663 -114331176.14553681 -6.3093686031683176e-05 0.00011753712966852469 0.00043699656384471949 0.79999999939006006 -2.4999999980774028 -0.89249062466902374 
5000.0000000000000 5000.0000000000000 -4500.0000000000000 -34880059.849650204 -11929240.186917532 -110252850.05415195 9.0603646392733894e-05 0.00042372492010399787 4.7941887770821666e-05 0.99999999929095496 -2.4999999981111425 -1.3164113816508047 
6000.0000000000000 6000.0000000000000 -4500.0000000000000 -34880059.846184865 -11929240.188497642 -110252850.04172090 -7.4875733812772246e-06 -0.00047878191587477420 0.00040126274844871402 0.79999999939593469 -1.9999999984003283 -1.3164113814651868 
6000.0000000000000 5000.0000000000000 -4500.0000000000000 -34880059.850091815 -11929240.188160934 -110252850.05934682 -2.5711962829624699e-05 0.00027268764605018186 0.00061499904325249032 0.79999999939913646 -2.4999999981154186 -1.3164113817008340 
5000.0000000000000 5000.0000000000000 -4333.3333333330002 -33729659.755180955 -10778840.092158854 -106174158.80964933 0.00010788145916529215 0.00068284235197816723 2.6822445587877409e-05 0.99999999930825112 -2.4999999981630423 -1.7254473250190521 
6000.0000000000000 6000.0000000000000 -4333.3333333330002 -33729659.751964070 -10778840.093935339 -106174158.79852387 2.6951196331583281e-05 -0.00053888378086480650 0.00048384153700595386 0.79999999941059263 -1.9999999984435173 -1.7254473247837474 
6000.0000000000000 5000.0000000000000 -4333.3333333330002 -33729659.755473420 -10778840.093333706 -106174158.81467822 1.4282252983021394e-05 0.00048220344297917082 0.00075777525530770925 0.79999999941205691 -2.4999999981655923 -1.7254473250863920 
5000.0000000000000 5000.0000000000000 -4166.6666666669998 -32579156.658065904 -9628336.9947294500 -102095102.37393790 0.00012403956728195684 0.00097749766212897569 -1.2280075382502538e-05 0.99999999932947425 -2.4999999982255283 -2.1195971220065108 
6000.0000000000000 6000.0000000000000 -4166.6666666669998 -32579156.655071583 -9628336.9966342729 -102095102.36402045 6.0695950987689564e-05 -0.00055928442012722669 0.00054072733418871952 0.79999999942887812 -1.9999999984961327 -2.1195971217269989 
6000.0000000000000 5000.0000000000000 -4166.6666666669998 -32579156.658212498 -9628336.9958293773 -102095102.37877555 5.2661406080722884e-05 0.00073301550157582845 0.00086485616245872779 0.79999999942866462 -2.4999999982263792 -2.1195971220912218 
5000.0000000000000 5000.0000000000000 -4000.0000000000000 -31428550.549052782 -8477730.8853901606 -98015680.714239344 0.00013782614977574174 0.0012937073155451693 -6.7234916896972071e-05 0.99999999935423467 -2.4999999982971239 -2.4988594397663277 
6000.0000000000000 6000.0000000000000 -4000.0000000000000 -31428550.546264287 -8477730.8873608373 -98015680.705436319 9.1585781095075242e-05 -0.00054793515063904046 0.00057449577105288382 0.79999999945045408 -1.9999999985570385 -2.4988594394477173 
6000.0000000000000 5000.0000000000000 -4000.0000000000000 -31428550.549066287 -8477730.8864116967 -98015680.718864530 8.6927433144041104e-05 0.0010125834192127854 0.00093817743806964219 0.79999999944871381 -2.4999999982964094 -2.4988594398683088 
5000.0000000000000 5000.0000000000000 -3833.3333333330002 -30277841.418897387 -7327021.7549043689 -93935893.797793165 0.00014855993874145952 0.0016191479548492193 -0.00013526854073440036 0.99999999938216899 -2.4999999983765644 -2.8632329453249281 
6000.0000000000000 6000.0000000000000 -3833.3333333330002 -30277841.416304126 -7327021.7568843048 -93935893.790015176 0.00011837181641628345 -0.00051259206216869779 0.00058834844294523359 0.79999999947498079 -1.9999999986251977 -2.8632329449719665 
6000.0000000000000 5000.0000000000000 -3833.3333333330002 -30277841.418796424 -7327021.7558463775 -93935893.802188575 0.00011577644845130568 0.0013091251411660593 0.00098108634979693441 0.79999999947191458 -2.4999999983744758 -2.8632329454439183 
5000.0000000000000 5000.0000000000000 -3666.6666666669998 -29127029.258357491 -6176209.5940331155 -89855741.591838405 0.00015595937903886421 0.0019429850080404701 -0.00021315375830864163 0.99999999941294448 -2.4999999984627741 -3.2127163055894958 
6000.0000000000000 6000.0000000000000 -3666.6666666669998 -29127029.255952887 -6176209.5959718134 -89855741.585000589 0.00014042371516635727 -0.00046063745648220746 0.00058574563914184181 0.79999999950213097 -1.9999999986996750 -3.2127163052065768 
6000.0000000000000 5000.0000000000000 -3666.6666666669998 -29127029.258163873 -6176209.5948963333 -89855741.595990464 0.00013871150749241278 0.0016117435955121163 0.00099769519052782642 0.79999999949796008 -2.4999999984595322 -3.2127163057250878 
5000.0000000000000 5000.0000000000000 -3500.0000000000000 -27976114.058186948 -5025294.3935301714 -85775224.063595176 0.00016000676976222618 0.0022557698920212315 -0.00029742878067873251 0.99999999944626006 -2.4999999985548507 -3.5473081873538730 
6000.0000000000000 6000.0000000000000 -3500.0000000000000 -27976114.055966966 -5025294.3953833254 -85775224.057617292 0.00015752246378528738 -0.00039891590133903922 0.00057020685443892670 0.79999999953159540 -1.9999999987796302 -3.5473081869450414 
6000.0000000000000 5000.0000000000000 -3500.0000000000000 -27976114.057923820 -5025294.3943168037 -85775224.067493588 0.00015575343894639327 0.0019105577263476554 0.00099246174192007164 0.79999999952654488 -2.4999999985506816 -3.5473081875055210 
5000.0000000000000 5000.0000000000000 -3333.3333333330002 -26825095.809145659 -3874276.1441527354 -81694341.180301577 0.00016085256340307811 0.0025492822631246878 -0.00038455231236440249 0.99999999948184848 -2.4999999986520449 -3.8670072572859762 
6000.0000000000000 6000.0000000000000 -3333.3333333330002 -26825095.807107713 -3874276.1458821553 -81694341.175108016 0.00016971613486427696 -0.00033364070972327468 0.00054517192782119965 0.79999999956308931 -1.9999999988643167 -3.8670072568549476 
6000.0000000000000 5000.0000000000000 -3333.3333333330002 -26825095.808836125 -3874276.1448660851 -81694341.183939070 0.00016724008051568091 0.0021966758608520185 0.00096989520816850394 0.79999999955737688 -2.4999999986471679 -3.8670072574530150 
5000.0000000000000 5000.0000000000000 -3166.6666666669998 -25673974.501994092 -2723154.8366564969 -77613092.909195289 0.00015874150041147902 0.0028164126822230271 -0.00047102836373371954 0.99999999951947671 -2.4999999987537440 -4.1718121819344942 
6000.0000000000000 6000.0000000000000 -3166.6666666669998 -25673974.500136260 -2723154.8382299505 -77613092.904714972 0.00017721398719865590 -0.00027028510305277865 0.00051387665706213910 0.79999999959635315 -1.9999999989530759 -4.1718121814846603 
6000.0000000000000 5000.0000000000000 -3166.6666666669998 -25673974.501660272 -2723154.8373006471 -77613092.912567168 0.00017368335253060269 0.0024622059847688458 0.00093436165531421021 0.79999999959018209 -2.4999999987483643 -4.1718121821161498 
5000.0000000000000 5000.0000000000000 -3000.0000000000000 -24522750.127487849 -1571930.4617906236 -73531479.217495218 0.00015395646896313280 0.0030511114456059545 -0.00055352625543732682 0.99999999955894547 -2.4999999988594603 -4.4617216277339642 
6000.0000000000000 6000.0000000000000 -3000.0000000000000 -24522750.125808332 -1571930.4631816731 -73531479.213661522 0.00018031230874763796 -0.00021353543690898883 0.00047929029532966600 0.79999999963115376 -1.9999999990453305 -4.4617216272684068 
6000.0000000000000 5000.0000000000000 -3000.0000000000000 -24522750.127150260 -1571930.4623701959 -73531479.220599055 0.00017566028924358268 0.0027002667052341417 0.00088994259492825175 0.79999999962471069 -2.4999999988537600 -4.4617216279293679 
5000.0000000000000 5000.0000000000000 -2833.3333333330002 -23371422.676388018 -420603.01030843786 -69449500.072438583 0.00014678502285784617 0.0032482609884929505 -0.00062895060276998548 0.99999999960008790 -2.4999999989688106 -4.7367342609938028 
6000.0000000000000 6000.0000000000000 -2833.3333333330002 -23371422.674884640 -420603.01149613207 -69449500.069188759 0.00017934486520690635 -0.00016723749081658804 0.00044405364835206401 0.79999999966728219 -1.9999999991405775 -4.7367342605153091 
6000.0000000000000 5000.0000000000000 -2833.3333333330002 -23371422.676065028 -420603.01082828542 -69449500.075273722 0.00017374543240845412 0.0029049015477049544 0.00084033630477330795 0.79999999966073632 -2.4999999989629527 -4.7367342612020096 
5000.0000000000000 5000.0000000000000 -2666.6666666669998 -22219992.139455773 730827.52703774627 -65367155.441262290 0.00013749509180833251 0.0034036066921615286 -0.00069449016586579557 0.99999999964276765 -2.4999999990815058 -4.9968487479042016 
6000.0000000000000 6000.0000000000000 -2666.6666666669998 -22219992.138125733 730827.52606902155 -65367155.438537560 0.00017464923044896048 -0.00013438473475431716 0.00041044593598964110 0.79999999970455338 -1.9999999992383821 -4.9968487474152701 
6000.0000000000000 5000.0000000000000 -2666.6666666669998 -22219992.139163326 730827.52657271514 -65367155.443829685 0.00016846679251009540 0.0030710929806032549 0.00078881724065113859 0.79999999969805713 -2.4999999990756354 -4.9968487481241937 
5000.0000000000000 5000.0000000000000 -2500.0000000000000 -21068458.507447194 1882361.1595016618 -61284445.291184701 0.00012632303619278723 0.0035137238218907224 -0.00074766502665620069 0.99999999968687547 -2.4999999991973403 -5.2420637545403919 
6000.0000000000000 6000.0000000000000 -2500.0000000000000 -21068458.506286826 1882361.1587623616 -61284445.288929865 0.00016654927307549743 -0.00011709587583897952 0.00038035113308941624 0.79999999974280267 -1.9999999993383695 -5.2420637540432509 
6000.0000000000000 5000.0000000000000 -2500.0000000000000 -21068458.507198609 1882361.1590866200 -61284445.293486819 0.00016028131258053171 0.0031947081080068141 0.00073816944017282950 0.79999999973649305 -2.4999999991915818 -5.2420637547711015 
5000.0000000000000 5000.0000000000000 -2333.3333333330002 -19916821.771123655 3033997.8963326197 -57201369.589442454 0.00011346694716313324 0.0035759912967112889 -0.00078638429125379701 0.99999999973232612 -2.4999999993161768 -5.4723779468532934 
6000.0000000000000 6000.0000000000000 -2333.3333333330002 -19916821.770128060 3033997.8958282815 -57201369.587605372 0.00015534789415132323 -0.00011656306434358444 0.00035521172981767046 0.79999999978188374 -1.9999999994402147 -5.4723779463499138 
6000.0000000000000 5000.0000000000000 -2333.3333333330002 -19916821.770929370 3033997.8959630192 -57201369.591482967 0.00014956585285236108 0.0032724703981888625 0.00069065830684159816 0.79999999977588476 -2.4999999993106408 -5.4723779470936114 
5000.0000000000000 5000.0000000000000 -2166.6666666669998 -18765081.921246596 4185737.7467806544 -53117928.303272240 9.9086788974327351e-05 0.0035885554752757721 -0.00080897535424637006 0.99999999977905474 -2.4999999994379389 -5.6877899906745961 
6000.0000000000000 6000.0000000000000 -2166.6666666669998 -18765081.920409486 4185737.7465119441 -53117928.301803567 0.00014132522205217022 -0.00013308426146456124 0.00033600068931507841 0.79999999982166647 -1.9999999995436364 -5.6877899901666931 
6000.0000000000000 5000.0000000000000 -2166.6666666669998 -18765081.921113968 4185737.7464523772 -53117928.305055887 0.00013661322636684563 0.0033019298014065725 0.00064800422011646237 0.79999999981608994 -2.4999999994327222 -5.6877899909233864 
5000.0000000000000 5000.0000000000000 -2000.0000000000000 -17613238.948572308 5337580.7201017514 -49034121.399892077 8.3308571663059713e-05 0.0035503450414211138 -0.00081421925190810519 0.99999999982701204 -2.4999999995625974 -5.8882985517202311 
6000.0000000000000 6000.0000000000000 -2000.0000000000000 -17613238.947885800 5337580.7200644482 -49034121.398745239 0.00012474631560449188 -0.00016600273895206753 0.00032321887188340186 0.79999999986203119 -1.9999999996483881 -5.8882985512092825 
6000.0000000000000 5000.0000000000000 -2000.0000000000000 -17613238.948505476 5337580.7198111638 -49034121.401424892 0.00012164545295666810 0.0032814885913488466 0.00061135795757098310 0.79999999985697834 -2.4999999995577880 -5.8882985519763462 
5000.0000000000000 5000.0000000000000 -1833.3333333329999 -16461292.843862431 6489526.8255473943 -44949948.846538454 6.6241763823423407e-05 0.0034610388863455877 -0.00080139727678325736 0.99999999987616128 -2.4999999996901661 -6.0739022955826139 
6000.0000000000000 6000.0000000000000 -1833.3333333329999 -16461292.843316711 6489526.8257323727 -44949948.845669180 0.00010587459511199137 -0.00021370716242470508 0.00031685732813355058 0.79999999990286763 -1.9999999997542466 -6.0739022950698791 
6000.0000000000000 5000.0000000000000 -1833.3333333329999 -16461292.843862036 6489526.8252914613 -44949948.847827837 0.00010483765321222685 0.0032103956441924758 0.00058126021088412169 0.79999999989842996 -2.4999999996858429 -6.0739022958449080 
5000.0000000000000 5000.0000000000000 -1666.6666666670001 -15309243.597878724 7641576.0723698353 -40865410.610447817 4.8002172910829906e-05 0.0033211079048247241 -0.00077036613450298696 0.99999999992647226 -2.4999999998206892 -6.2445998877349354 
6000.0000000000000 6000.0000000000000 -1666.6666666670001 -15309243.597461786 7641576.0727628563 -40865410.609814078 8.4991174841208338e-05 -0.00027359550221165270 0.00031635335047282731 0.79999999994406990 -1.9999999998610070 -6.2445998872214528 
6000.0000000000000 5000.0000000000000 -1666.6666666670001 -15309243.597941652 7641576.0721461764 -40865410.611502737 8.6350513449351759e-05 0.0030887680171136113 0.00055759608211945148 0.79999999994032767 -2.4999999998169216 -6.2445998880022779 
0.0000000000000000 4000.0000000000000 -4833.3333333330002 -37180551.077543065 -14229731.395546505 -118409137.08357453 -0.00012293811202034082 0.00034742399781432620 0.00010879593884669482 2.0000000000000000 -2.9999999979605132 -0.45368638651335935 
0.0000000000000000 5000.0000000000000 -4833.3333333330002 -37180551.072058767 -14229731.396650963 -118409137.05657373 -0.00015219849720991106 5.3710025926530697e-05 2.0168635549588543e-05 2.0000000000000000 -2.4999999980857810 -0.45368638639334580 
1000.0000000000000 5000.0000000000000 -4833.3333333330002 -37180551.071857885 -14229731.397032687 -118409137.05852735 -8.6311473561954971e-05 2.3643911060224279e-05 -5.1774074846713668e-05 1.7999999996906699 -2.4999999980928340 -0.45368638639809789 
1000.0000000000000 4000.0000000000000 -4833.3333333330002 -37180551.077501982 -14229731.395836925 -118409137.08470303 -6.0624262145911926e-05 0.00031920828890733390 2.8570022094539461e-05 1.7999999996970053 -2.9999999979667531 -0.45368638650881449 
0.0000000000000000 4000.0000000000000 -5000.0000000000000 -37755622.390949778 -14804802.708939545 -120448026.28557780 -0.00013271028947545562 0.00016096177511012985 5.6778152833811027e-05 2.0000000000000000 -2.9999999979512424 0.0000000000000000 
0.0000000000000000 5000.0000000000000 -5000.0000000000000 -37755622.385158740 -14804802.709750202 -120448026.25739443 -0.00016177921050448133 1.6357344845934238e-05 1.1830502231407805e-05 2.0000000000000000 -2.4999999980771710 0.0000000000000000 
1000.0000000000000 5000.0000000000000 -5000.0000000000000 -37755622.384990625 -14804802.710154420 -120448026.25942096 -9.5216334407885922e-05 1.9312628913118409e-06 -2.2794277999537641e-05 1.7999999996896732 -2.4999999980846557 0.0000000000000000 
1000.0000000000000 4000.0000000000000 -5000.0000000000000 -37755622.390925303 -14804802.709222183 -120448026.28665045 -6.9573196476672151e-05 0.00014761960372648654 1.7621274218330375e-05 1.7999999996965648 -2.9999999979579419 0.0000000000000000 
0.0000000000000000 4000.0000000000000 -4666.6666666669998 -36030356.960883945 -13079537.278936587 -114331176.12474477 -9.8251031285321764e-05 0.00076434908668996629 0.00020049590276021714 2.0000000000000000 -2.9999999979868526 -0.89249062448927385 
0.0000000000000000 5000.0000000000000 -4666.6666666669998 -36030356.955969363 -13079537.280566201 -114331176.10001729 -0.00012746973134525829 0.00016561131947282704 2.8900812760567799e-05 2.0000000000000000 -2.4999999981104168 -0.89249062425914072 
1000.0000000000000 5000.0000000000000 -4666.6666666669998 -36030356.955703564 -13079537.280911192 -114331176.10186069 -6.3335038349953085e-05 0.00010320556999506751 -0.00012190995461595756 1.7999999996934870 -2.4999999981164063 -0.89249062426843206 
1000.0000000000000 4000.0000000000000 -4666.6666666669998 -36030356.960792042 -13079537.279239900 -114331176.12599568 -3.8010679879859846e-05 0.00070502351698175302 3.5405308941777513e-05 1.7999999996984770 -2.9999999979919769 -0.89249062448222805 
0.0000000000000000 4000.0000000000000 -4500.0000000000000 -34880059.859918222 -11929240.178071281 -110252850.03991193 -6.7654687679820179e-05 0.0012564850011666268 0.00026361959250404424 2.0000000000000000 -2.9999999980275551 -1.3164113814386753 
0.0000000000000000 5000.0000000000000 -4500.0000000000000 -34880059.855495721 -11929240.180106532 -110252850.01727806 -9.5510567270768620e-05 0.00034298375390431701 2.0331081888796592e-05 2.0000000000000000 -2.4999999981488652 -1.3164113811076448 
1000.0000000000000 5000.0000000000000 -4500.0000000000000 -34880059.855166651 -11929240.180428563 -110252850.01907152 -3.3706947132218810e-05 0.00024825867083426662 -0.00021593134250067421 1.7999999996978260 -2.4999999981535304 -1.3164113811217850 
1000.0000000000000 4000.0000000000000 -4500.0000000000000 -34880059.859750099 -11929240.178382557 -110252850.04129891 -1.0019601333322192e-05 0.0011658892176002271 9.8835154231509168e-06 1.7999999997011964 -2.9999999980313343 -1.3164113814313387 
0.0000000000000000 4000.0000000000000 -4333.3333333330002 -33729659.765420765 -10778840.083736312 -106174158.79637468 -3.7818188171149801e-05 0.0018005410533374279 0.00029301939098526093 2.0000000000000000 -2.9999999980803640 -1.7254473247453050 
0.0000000000000000 5000.0000000000000 -4333.3333333330002 -33729659.761429057 -10778840.086068559 -106174158.77566350 -6.2452134945961148e-05 0.00056919351837539714 -7.6305796200564933e-06 2.0000000000000000 -2.4999999981992320 -1.7254473243219326 
1000.0000000000000 5000.0000000000000 -4333.3333333330002 -33729659.761039503 -10778840.086376783 -106174158.77744836 -3.2561786359103012e-06 0.00044542360611506652 -0.00033273679538931038 1.7999999997034737 -2.4999999982025298 -1.7254473243415558 
1000.0000000000000 4000.0000000000000 -4333.3333333330002 -33729659.765166909 -10778840.084051544 -106174158.79789883 1.7109010214799304e-05 0.0016822936153779774 -5.0564931843061636e-05 1.7999999997052412 -2.9999999980828247 -1.7254473247398787 
0.0000000000000000 4000.0000000000000 -4166.6666666669998 -32579156.668165937 -9628336.9867101070 -102095102.36142018 -1.2049737963993453e-05 0.0023771472972360054 0.00028779882144404026 2.0000000000000000 -2.9999999981434131 -2.1195971216739222 
0.0000000000000000 5000.0000000000000 -4166.6666666669998 -32579156.664554585 -9628336.9892415591 -102095102.34247120 -3.1690383857382644e-05 0.00082972757813938439 -5.5718840932767374e-05 2.0000000000000000 -2.4999999982598866 -2.1195971211661147 
1000.0000000000000 5000.0000000000000 -4166.6666666669998 -32579156.664108805 -9628336.9895420186 -102095102.34427479 2.4727786916738316e-05 0.00068182158007622370 -0.00047088713834699740 1.7999999997102767 -2.4999999982619006 -2.1195971211920397 
1000.0000000000000 4000.0000000000000 -4166.6666666669998 -32579156.667826716 -9628336.9870263599 -102095102.36307485 4.0194844591964192e-05 0.0022364749883139684 -0.00014541683206111466 1.7999999997106095 -2.9999999981447161 -2.1195971216724874 
0.0000000000000000 4000.0000000000000 -4000.0000000000000 -31428550.558921542 -8477730.8777600192 -98015680.702307910 8.3779195665761627e-06 0.0029700342572703629 0.00024963563397631660 2.0000000000000000 -2.9999999982151704 -2.4988594393769450 
0.0000000000000000 5000.0000000000000 -4000.0000000000000 -31428550.555647545 -8477730.8804032765 -98015680.684972003 -4.8967252396491515e-06 0.0011118392884605921 -0.00012353531190551314 2.0000000000000000 -2.4999999983294301 -2.4988594387919925 
1000.0000000000000 5000.0000000000000 -4000.0000000000000 -31428550.555151228 -8477730.8807000015 -98015680.686811328 4.8599813669708406e-05 0.00094532037318478194 -0.00062850655963317338 1.7999999997181217 -2.4999999983303063 -2.4988594388251215 
1000.0000000000000 4000.0000000000000 -4000.0000000000000 -31428550.558503345 -8477730.8780754339 -98015680.704082057 5.7972045772965957e-05 0.0028124477001682502 -0.00027215438673818768 1.7999999997172578 -2.9999999982155350 -2.4988594393814014 
0.0000000000000000 4000.0000000000000 -3833.3333333330002 -30277841.428458713 -7327021.7476538830 -93935893.786307991 2.3368736438654813e-05 0.0035653369136129302 0.00018165629661933566 2.0000000000000000 -2.9999999982943928 -2.8632329448802323 
0.0000000000000000 5000.0000000000000 -3833.3333333330002 -30277841.425484393 -7327021.7503312360 -93935893.770448118 1.7321455798020897e-05 0.0014042835371317743 -0.00020984801088808443 2.0000000000000000 -2.4999999984066625 -2.8632329442248463 
1000.0000000000000 5000.0000000000000 -3833.3333333330002 -30277841.424944468 -7327021.7506269896 -93935893.772332653 6.7752460970637459e-05 0.0012246466017731578 -0.00080330059800164924 1.7999999997269287 -2.4999999984065737 -2.8632329442661013 
1000.0000000000000 4000.0000000000000 -3833.3333333330002 -30277841.427971449 -7327021.7479675822 -93935893.788188517 7.0313454672321320e-05 0.0033959276303195817 -0.00042706959632566373 1.7999999997251206 -2.9999999982940442 -2.8632329448922702 
0.0000000000000000 4000.0000000000000 -3666.6666666669998 -29127029.267546639 -6176209.5871558972 -89855741.580684930 3.3459967599164067e-05 0.0041510363964020391 8.7717704469489810e-05 2.0000000000000000 -2.9999999983800829 -3.2127163050905252 
0.0000000000000000 5000.0000000000000 -3666.6666666669998 -29127029.264838349 -6176209.5897984710 -89855741.566176191 3.4985682223959377e-05 0.0016970826092931400 -0.00031283506721143934 2.0000000000000000 -2.4999999984905643 -3.2127163043708880 
1000.0000000000000 5000.0000000000000 -3666.6666666669998 -29127029.264262713 -6176209.5900952229 -89855741.568109870 8.2213982922630828e-05 0.0015094460378936127 -0.00099267141034608923 1.7999999997366436 -2.4999999984896850 -3.2127163044211571 
1000.0000000000000 4000.0000000000000 -3666.6666666669998 -29127029.267002076 -6176209.5874677803 -89855741.582657948 7.7727784003786584e-05 0.0039741632531784905 -0.00060583835068491647 1.7999999997341318 -2.9999999983792303 -3.2127163051116137 
0.0000000000000000 4000.0000000000000 -3500.0000000000000 -27976114.066947304 -5025294.3870221106 -85775224.052680016 3.9481649793269075e-05 0.0047166649752750194 -2.7968139228031692e-05 2.0000000000000000 -2.9999999984714583 -3.5473081868013212 
0.0000000000000000 5000.0000000000000 -3500.0000000000000 -27976114.064474624 -5025294.3895689761 -85775224.039409593 4.8465878320647080e-05 0.0019814652288317226 -0.00043022446079532149 2.0000000000000000 -2.4999999985802761 -3.5473081860231366 
1000.0000000000000 5000.0000000000000 -3500.0000000000000 -27976114.063871898 -5025294.3898682110 -85775224.041392297 9.2367318261117064e-05 0.0017903686944720934 -0.0011937264555234430 1.7999999997472360 -2.4999999985787720 -3.5473081860832423 
1000.0000000000000 4000.0000000000000 -3500.0000000000000 -27976114.066358071 -5025294.3873326890 -85775224.054731920 8.1022499167350464e-05 0.0045358149151636089 -0.00080381911755178265 1.7999999997442317 -2.9999999984702757 -3.5473081868327165 
0.0000000000000000 4000.0000000000000 -3333.3333333330002 -26825095.817425933 -3874276.1380113834 -81694341.169549510 4.2348759119222738e-05 0.0052528221119538098 -0.00016118021935291230 2.0000000000000000 -2.9999999985679189 -3.8670072566802807 
0.0000000000000000 5000.0000000000000 -3333.3333333330002 -26825095.815161150 -3874276.1404086882 -81694341.157416239 5.8301333302657578e-05 0.0022496790169553860 -0.00055948098037124068 2.0000000000000000 -2.4999999986750803 -3.8670072558488227 
1000.0000000000000 5000.0000000000000 -3333.3333333330002 -26825095.814540554 -3874276.1407116344 -81694341.159444839 9.8766273789954232e-05 0.0020590248559668001 -0.0014033758094138238 1.7999999997586971 -2.4999999986730956 -3.8670072559195030 
1000.0000000000000 4000.0000000000000 -3333.3333333330002 -26825095.816804927 -3874276.1383216372 -81694341.171667278 8.1096100776152449e-05 0.0050707060847309049 -0.0010163261939767675 1.7999999997553766 -2.9999999985665444 -3.8670072567230318 
0.0000000000000000 4000.0000000000000 -3166.6666666669998 -25673974.509745870 -2723154.8308806713 -77613092.898546934 4.2942654187322182e-05 0.0057510695809031469 -0.00030779165252826891 2.0000000000000000 -2.9999999986690278 -4.1718121812758984 
0.0000000000000000 5000.0000000000000 -3166.6666666669998 -25673974.507663708 -2723154.8330808254 -77613092.887460798 6.5084164857479707e-05 0.0024949057472407415 -0.00069786657110851844 2.0000000000000000 -2.4999999987743875 -4.1718121803960653 
1000.0000000000000 5000.0000000000000 -3166.6666666669998 -25673974.507034946 -2723154.8333885698 -77613092.889530003 0.00010202373338962493 0.0023079652980659976 -0.0016183681499349833 1.7999999997710394 -2.4999999987720476 -4.1718121804779527 
1000.0000000000000 4000.0000000000000 -3166.6666666669998 -25673974.509105965 -2723154.8311918913 -77613092.900718361 7.8821779126863107e-05 0.0055697032750390649 -0.0012387342454651012 1.7999999997675418 -2.9999999986675614 -4.1718121813308633 
0.0000000000000000 4000.0000000000000 -3000.0000000000000 -24522750.134663582 -1571930.4563801999 -73531479.206905708 4.2043049654194036e-05 0.0062036848022276950 -0.00046382056464063117 2.0000000000000000 -2.9999999987744870 -4.4617216270225848 
0.0000000000000000 5000.0000000000000 -3000.0000000000000 -24522750.132740989 -1571930.4583411526 -73531479.196787104 6.9385044076093511e-05 0.0027112568466384776 -0.00084250927754187985 2.0000000000000000 -2.4999999988777213 -4.4617216260989423 
1000.0000000000000 5000.0000000000000 -3000.0000000000000 -24522750.132114194 -1571930.4586546863 -73531479.198889852 0.00010272981866587752 0.0025306929586911657 -0.0018352811793213998 1.7999999997842975 -2.4999999988751309 -4.4617216261925590 
1000.0000000000000 4000.0000000000000 -3000.0000000000000 -24522750.134017486 -1571930.4566938626 -73531479.209119260 7.4974548537541050e-05 0.0060245355148454416 -0.0014664973225606925 1.7999999997807286 -2.9999999987729957 -4.4617216270904434 
0.0000000000000000 4000.0000000000000 -2833.3333333330002 -23371422.682939127 -420603.00526409253 -69449500.061876565 4.0305354620008828e-05 0.0066034573315921288 -0.00062548435649170957 2.0000000000000000 -2.9999999988841237 -4.7367342602296869 
0.0000000000000000 5000.0000000000000 -2833.3333333330002 -23371422.681155153 -420603.00694867328 -69449500.052655458 7.1713683448848808e-05 0.0028936804995648821 -0.00099044191548552083 2.0000000000000000 -2.4999999989847055 -4.7367342592665169 
1000.0000000000000 5000.0000000000000 -2833.3333333330002 -23371422.680540912 -420603.00726892281 -69449500.054783240 0.00010140410796002938 0.0027215983968635797 -0.0020505526519131443 1.7999999997985243 -2.4999999989819486 -4.7367342593722670 
1000.0000000000000 4000.0000000000000 -2833.3333333330002 -23371422.682299461 -420603.00558177475 -69449500.064121202 7.0199143410353549e-05 0.0064276254695764760 -0.0016951939271646602 1.7999999997949614 -2.9999999988826462 -4.7367342603109579 
0.0000000000000000 4000.0000000000000 -2666.6666666669998 -22219992.145330980 730827.53171479120 -65367155.430709213 3.8241649101632858e-05 0.0069437076060322612 -0.00078913502380711226 2.0000000000000000 -2.9999999989978741 -4.9968487470873812 
0.0000000000000000 5000.0000000000000 -2666.6666666669998 -22219992.143666700 730827.53033937898 -65367155.422324359 7.2494161823706535e-05 0.0030379135475390646 -0.0011386205679000880 2.0000000000000000 -2.4999999990950506 -4.9968487460887161 
1000.0000000000000 5000.0000000000000 -2666.6666666669998 -22219992.143076107 730827.53001155728 -65367155.424467288 9.8472169370592206e-05 0.0028759400332307975 -0.0022604719315979793 1.7999999998137963 -2.4999999990921959 -4.9968487462068794 
1000.0000000000000 4000.0000000000000 -2666.6666666669998 -22219992.144710362 730827.53139150341 -65367155.432973966 6.4992171525093476e-05 0.0067720084177662621 -0.0019204495784495884 1.7999999998102933 -2.9999999989964263 -4.9968487471824341 
0.0000000000000000 4000.0000000000000 -2500.0000000000000 -21068458.512591038 1882361.1638098047 -61284445.280634910 3.6215268576080163e-05 0.0072180806011747766 -0.00095123571802954168 2.0000000000000000 -2.9999999991157709 -5.2420637536709513 
0.0000000000000000 5000.0000000000000 -2500.0000000000000 -21068458.511029508 1882361.1627723954 -61284445.273032933 7.2048303120372293e-05 0.0031404473856924942 -0.0012839438722494613 2.0000000000000000 -2.4999999992085438 -5.2420637526406075 
1000.0000000000000 5000.0000000000000 -2500.0000000000000 -21068458.510474265 1882361.1624362189 -61284445.275179863 9.4252136669636618e-05 0.0029897806920245488 -0.0024611559138583983 1.7999999998302116 -2.4999999992056470 -5.2420637527713358 
1000.0000000000000 4000.0000000000000 -2500.0000000000000 -21068458.512002282 1882361.1634793740 -61284445.282908514 5.9702898586089535e-05 0.0070511683432383631 -0.0021378940793530489 1.7999999998268064 -2.9999999991143516 -5.2420637537800099 
0.0000000000000000 4000.0000000000000 -2333.3333333330002 -19916821.775475048 3033997.9002701216 -57201369.578903496 3.4455786743628701e-05 0.0074205615221754392 -0.0011082750432474761 2.0000000000000000 -2.9999999992379300 -5.4723779459314272 
0.0000000000000000 5000.0000000000000 -2333.3333333330002 -19916821.774001237 3033997.8995959111 -57201369.572037846 7.0593503204784028e-05 0.0031985794234919893 -0.0014231785788018964 2.0000000000000000 -2.4999999993250372 -5.4723779448730365 
1000.0000000000000 5000.0000000000000 -2333.3333333330002 -19916821.773493797 3033997.8992506890 -57201369.574176356 8.8949654876680626e-05 0.0030600400476745340 -0.0026484730913507734 1.7999999998478897 -2.4999999993221462 -5.4723779450163486 
1000.0000000000000 4000.0000000000000 -2333.3333333330002 -19916821.774931438 3033997.8999310713 -57201369.581174076 5.4537146656631517e-05 0.0072590203418149216 -0.0023430690858429544 1.7999999998446088 -2.9999999992365307 -5.4723779460545776 
0.0000000000000000 4000.0000000000000 -2166.6666666669998 -18765081.924737379 4185737.7503460036 -53117928.292764984 3.3071540506810895e-05 0.0075454325911529854 -0.0012567187892029621 2.0000000000000000 -2.9999999993645465 -5.6877899897006801 
0.0000000000000000 5000.0000000000000 -2166.6666666669998 -18765081.923338126 4185737.7500567543 -53117928.286595009 6.8262551848656322e-05 0.0032103947277305977 -0.0015529928626306898 2.0000000000000000 -2.4999999994444386 -5.6877899886177055 
1000.0000000000000 5000.0000000000000 -2166.6666666669998 -18765081.922891878 4185737.7497018818 -53117928.288711384 8.2669554733286451e-05 0.0030844798919894565 -0.0028180501357679289 1.7999999998669742 -2.4999999994415951 -5.6877899887734875 
1000.0000000000000 4000.0000000000000 -2166.6666666669998 -18765081.924252927 4185737.7499969676 -53117928.295019537 4.9566434477618298e-05 0.0073898284174634208 -0.0025313415637561866 1.7999999998638407 -2.9999999993631508 -5.6877899898378619 
0.0000000000000000 4000.0000000000000 -2000.0000000000000 -17613238.951125950 5337580.7232939145 -49034121.389451876 3.2051421236810280e-05 0.0075871978140004803 -0.0013929048575487967 2.0000000000000000 -2.9999999994958797 -5.8882985506948957 
0.0000000000000000 5000.0000000000000 -2000.0000000000000 -17613238.949789882 5337580.7234080862 -49034121.383941621 6.5105243480658914e-05 0.0031747205326925947 -0.0016699033771120806 2.0000000000000000 -2.4999999995667013 -5.8882985495906475 
1000.0000000000000 5000.0000000000000 -2000.0000000000000 -17613238.949419353 5337580.7230430711 -49034121.386020757 7.5422077006644250e-05 0.0030616097802410140 -0.0029651987822328484 1.7999999998876324 -2.4999999995639448 -5.8882985497586429 
1000.0000000000000 4000.0000000000000 -2000.0000000000000 -17613238.950715676 5337580.7229336789 -49034121.391675942 4.4734191356802124e-05 0.0074380875503160075 -0.0026978044637711892 1.7999999998846705 -2.9999999994944733 -5.8882985508459109 
0.0000000000000000 4000.0000000000000 -1833.3333333329999 -16461292.845392514 6489526.8283663467 -44949948.836215809 3.1283731670877462e-05 0.0075406202776065554 -0.0015130066033734334 2.0000000000000000 -2.9999999996322493 -6.0739022945068371 
0.0000000000000000 5000.0000000000000 -1833.3333333329999 -16461292.844110020 6489526.8288990166 -44949948.831333145 6.1103519636072088e-05 0.0030912013067127099 -0.0017702380955618617 2.0000000000000000 -2.4999999996918163 -6.0739022933844788 
1000.0000000000000 5000.0000000000000 -1833.3333333329999 -16461292.843831109 6489526.8285234813 -44949948.833358444 6.7137848309795339e-05 0.0029908164050322502 -0.0030848298276829611 1.7999999999100604 -2.4999999996891860 -6.0739022935642861 
1000.0000000000000 4000.0000000000000 -1833.3333333329999 -16461292.845072765 6489526.8279938735 -44949948.838392995 3.9873555275020418e-05 0.0073985823780012196 -0.0028371738346764522 1.7999999999072993 -2.9999999996308202 -6.0739022946713312 
0.0000000000000000 4000.0000000000000 -1666.6666666670001 -15309243.598287422 7641576.0748171126 -40865410.600309417 3.0570849302367814e-05 0.0074007789149486674 -0.0016129363289881390 2.0000000000000000 -2.9999999997740270 -6.2445998866101178 
0.0000000000000000 5000.0000000000000 -1666.6666666670001 -15309243.597050525 7641576.0757798906 -40865410.596024722 5.6198310181164384e-05 0.0029603600440356219 -0.0018500874471543719 2.0000000000000000 -2.4999999998198019 -6.2445998854726721 
1000.0000000000000 5000.0000000000000 -1666.6666666670001 -15309243.596880851 7641576.0753934961 -40865410.597978197 5.7695090299339352e-05 0.0028723690117541034 -0.0031713925680144049 1.7999999999344811 -2.4999999998173377 -6.2445998856637397 
1000.0000000000000 4000.0000000000000 -1666.6666666670001 -15309243.598076196 7641576.0744315367 -40865410.602421135 3.4727569761962655e-05 0.0072663688108632919 -0.0029436824374209098 1.7999999999319591 -2.9999999997725735 -6.2445998867875767 
7000.0000000000000 2000.0000000000000 -4833.3333333330002 -37180551.086940929 -14229731.400093198 -118409137.19491047 0.00012666283526249642 0.00064305551690829179 0.00010484739409112031 0.59999999947374250 -3.9999999984615937 -0.45368638697422503 
6000.0000000000000 2000.0000000000000 -4833.3333333330002 -37180551.085795090 -14229731.399151552 -118409137.19210376 0.00030841532913593599 0.00061023068863315486 0.00034055089389672287 0.79999999938718958 -3.9999999984725148 -0.45368638698365032 
7000.0000000000000 2000.0000000000000 -5000.0000000000000 -37755622.401565440 -14804802.714606913 -120448026.40117879 0.00012748597771490236 0.00030960298735716767 5.4253864471749288e-05 0.59999999947142713 -3.9999999984544448 0.0000000000000000 
6000.0000000000000 2000.0000000000000 -5000.0000000000000 -37755622.400432423 -14804802.713717822 -120448026.39863527 0.00031401640740003170 0.00029328301263286131 0.00017241334465537607 0.79999999938679012 -3.9999999984656252 0.0000000000000000 
7000.0000000000000 2000.0000000000000 -4666.6666666669998 -36030356.967975467 -13079537.281433480 -114331176.22794804 0.00012453356800542437 0.0013496217776956709 0.00019855488944353389 0.59999999948042504 -3.9999999984816372 -0.89249062538467350 
6000.0000000000000 2000.0000000000000 -4666.6666666669998 -36030356.966865145 -13079537.280426346 -114331176.22471558 0.00029254925298506976 0.0012840934672937072 0.00066174853167401567 0.79999999938949351 -3.9999999984918513 -0.89249062539658564 
7000.0000000000000 2000.0000000000000 -4500.0000000000000 -34880059.864981137 -11929240.178885326 -110252850.13574235 0.00012172227780355009 0.0021213911906409399 0.00027712449141406239 0.59999999949099658 -3.9999999985120276 -1.3164113827441426 
6000.0000000000000 2000.0000000000000 -4500.0000000000000 -34880059.863996513 -11929240.177877100 -110252850.13226721 0.00026865868870776222 0.0020249550732458635 0.00094381138398924840 0.79999999939532340 -3.9999999985212327 -1.3164113827532926 
7000.0000000000000 2000.0000000000000 -4333.3333333330002 -33729659.768756807 -10778840.083201021 -106174158.88552545 0.00011862080244541812 0.0029332821121350289 0.00034052127811872574 0.59999999950505023 -3.9999999985507171 -1.7254473264379990 
6000.0000000000000 2000.0000000000000 -4333.3333333330002 -33729659.767936528 -10778840.082231574 -106174158.88195609 0.00023929467389712048 0.0028096722162013524 0.0011751148921749304 0.79999999940536715 -3.9999999985587418 -1.7254473264406247 
7000.0000000000000 2000.0000000000000 -4166.6666666669998 -32579156.670078166 -9628336.9851250686 -102095102.44452378 0.00011535874838629788 0.0037657816854375732 0.00038933626072143912 0.59999999952221250 -3.9999999985960963 -2.1195971237324822 
6000.0000000000000 2000.0000000000000 -4166.6666666669998 -32579156.669430275 -9628336.9842182100 -102095102.44097778 0.00020674985249708811 0.0036199322555987737 0.0013539196975061391 0.79999999941977262 -3.9999999986028674 -2.1195971237260669 
7000.0000000000000 2000.0000000000000 -4000.0000000000000 -31428550.559701577 -8477730.8753930647 -98015680.779940605 0.00011194492789314266 0.0046037273716322243 0.00042475529402697477 0.59999999954212890 -3.9999999986469317 -2.4988594417813945 
6000.0000000000000 2000.0000000000000 -4000.0000000000000 -31428550.559216496 -8477730.8745620064 -98015680.776508585 0.00017288811703665159 0.0044411632601300361 0.0014839114868090797 0.79999999943837985 -3.9999999986524455 -2.4988594417644325 
7000.0000000000000 2000.0000000000000 -3833.3333333330002 -30277841.428379986 -7327021.7447444852 -93935893.858993486 0.00010833614922853547 0.0054352085162592146 0.00044841896108925984 0.59999999956446326 -3.9999999987022976 -2.8632329476118947 
6000.0000000000000 2000.0000000000000 -3833.3333333330002 -30277841.428038627 -7327021.7439953294 -93935893.855742857 0.00013912114512291238 0.0052616036635484316 0.0015714824914207089 0.79999999946086442 -3.9999999987066022 -2.8632329475836746 
7000.0000000000000 2000.0000000000000 -3666.6666666669998 -29127029.266861383 -6176209.5839188956 -89855741.648896709 0.00010446403357494131 0.0062505732830279775 0.00046223009365272912 0.59999999958889794 -3.9999999987615347 -3.2127163081319483 
6000.0000000000000 2000.0000000000000 -3666.6666666669998 -29127029.266640354 -6176209.5832530139 -89855741.645875245 0.00010645064347360787 0.0060714858568224461 0.0016240825049699881 0.79999999948682454 -3.9999999987647006 -3.2127163080923644 
7000.0000000000000 2000.0000000000000 -3500.0000000000000 -27976114.065885913 -5025294.3836515965 -85775224.116843536 0.00010025790054579230 0.0070418091290594988 0.00046820653595597907 0.59999999961513606 -3.9999999988241979 -3.5473081901361887 
6000.0000000000000 2000.0000000000000 -3500.0000000000000 -27976114.065760747 -5025294.3830672344 -85775224.114082679 7.5549135420178900e-05 0.0068624090782675009 0.0016492301494557373 0.79999999951583445 -3.9999999988263144 -3.5473081900855878 
7000.0000000000000 2000.0000000000000 -3333.3333333330002 -26825095.816197693 -3874276.1346844430 -81694341.230043843 9.5656263880589370e-05 0.0078019193330939873 0.00046834562987454722 0.59999999964290351 -3.9999999988900301 -3.8670072602933212 
6000.0000000000000 2000.0000000000000 -3333.3333333330002 -26825095.816144902 -3874276.1341778063 -81694341.227561444 4.6833586816697458e-05 0.0076269036081516939 0.0016539523928511455 0.79999999954747669 -3.9999999988911901 -3.8670072602323668 
7000.0000000000000 2000.0000000000000 -3166.6666666669998 -25673974.508540582 -2723154.8277608091 -77613092.955706030 9.0599619514787917e-05 0.0085244538086670287 0.00046453011442049586 0.59999999967195039 -3.9999999989589310 -4.1718121851527821 
6000.0000000000000 2000.0000000000000 -3166.6666666669998 -25673974.508538917 -2723154.8273268901 -77613092.953509063 2.0531363523464180e-05 0.0083579979070881813 0.0016444844876822061 0.79999999958136025 -3.9999999989592294 -4.1718121850823460 
7000.0000000000000 2000.0000000000000 -3000.0000000000000 -24522750.133653574 -1571930.4536204955 -73531479.261019304 8.5028977157926066e-05 0.0092031491498214772 0.00045842949153286394 0.59999999970205142 -3.9999999990309401 -4.4617216311498060 
6000.0000000000000 2000.0000000000000 -3000.0000000000000 -24522750.133684661 -1571930.4532535572 -73531479.259105802 -3.2645760650062375e-06 0.0090488681804533830 0.0016261099199865996 0.79999999961712964 -3.9999999990304684 -4.4617216310708807 
7000.0000000000000 2000.0000000000000 -2833.3333333330002 -23371422.682281464 -420603.00301003299 -69449500.113190562 7.8894292437185721e-05 0.0098316096468309723 0.00045147494140521853 0.59999999973300489 -3.9999999991062181 -4.7367342645944346 
6000.0000000000000 2000.0000000000000 -2833.3333333330002 -23371422.682330173 -420603.00270399731 -69449500.111551523 -2.4543036533734736e-05 0.0096925777421833694 0.0016031454543221474 0.79999999965447011 -3.9999999991050652 -4.7367342645080655 
7000.0000000000000 2000.0000000000000 -2666.6666666669998 -22219992.145169921 730827.53332249937 -65367155.479426861 7.2149940131149826e-05 0.010403061563330542 0.00044482482325028800 0.59999999976463314 -3.9999999991850395 -4.9968487516774047 
6000.0000000000000 2000.0000000000000 -2666.6666666669998 -22219992.145224500 730827.53357376345 -65367155.478047818 -4.3334052837883783e-05 0.010281787496135335 0.0015789434040928267 0.79999999969310798 -3.9999999991832889 -4.9968487515846283 
7000.0000000000000 2000.0000000000000 -2500.0000000000000 -21068458.513060316 1882361.1646328836 -61284445.326916739 6.4747264445602333e-05 0.010910106344241634 0.00043931721368334310 0.59999999979677909 -3.9999999992677848 -5.2420637584744112 
6000.0000000000000 2000.0000000000000 -2500.0000000000000 -21068458.513112407 1882361.1648353760 -61284445.325779080 -5.9684402719110155e-05 0.010808585946295132 0.0015559097386137408 0.79999999973280722 -3.9999999992655164 -5.2420637583762106 
7000.0000000000000 2000.0000000000000 -2333.3333333330002 -19916821.776700035 3033997.9001705106 -57201369.622867391 5.6643356566016411e-05 0.011344475420562586 0.00043549030494186209 0.59999999982930563 -3.9999999993549311 -5.4723779509367372 
6000.0000000000000 2000.0000000000000 -2333.3333333330002 -19916821.776744597 3033997.9003299633 -57201369.621949390 -7.3636264252451299e-05 0.011264163769496094 0.0015355945073496867 0.79999999977336755 -3.9999999993522235 -5.4723779508340096 
7000.0000000000000 2000.0000000000000 -2166.6666666669998 -18765081.926837303 4185737.7491836660 -53117928.334486514 4.7796881978855402e-05 0.011696784639242844 0.00043357497599000902 0.59999999986209263 -3.9999999994470619 -5.6877899948963355 
6000.0000000000000 2000.0000000000000 -2166.6666666669998 -18765081.926872622 4185737.7493053684 -53117928.333764508 -8.5214312479665760e-05 0.011638624663241878 0.0015187393848464874 0.79999999981461856 -3.9999999994439892 -5.6877899947898660 
7000.0000000000000 2000.0000000000000 -2000.0000000000000 -17613238.954215836 5337580.7209249344 -49034121.428964034 3.8167705555350109e-05 0.011956318755783920 0.00043347117279661236 0.59999999989503483 -3.9999999995448521 -5.8882985560693024 
6000.0000000000000 2000.0000000000000 -2000.0000000000000 -17613238.954243492 5337580.7210136373 -49034121.428413250 -9.4419817950174435e-05 0.011920750814780548 0.0015053123157671145 0.79999999985641579 -3.9999999995414912 -5.8882985559597367 
7000.0000000000000 2000.0000000000000 -1833.3333333329999 -16461292.849585067 6489526.8246410023 -44949948.873508990 2.7727158354537830e-05 0.012110829951484233 0.00043476565436970034 0.59999999992803754 -3.9999999996490909 -6.0739023000481254 
6000.0000000000000 2000.0000000000000 -1833.3333333329999 -16461292.849609986 6489526.8247008231 -44949948.873104215 -0.00010122207571963934 0.012097739821002651 0.0014945439511942053 0.79999999989863213 -3.9999999996455204 -6.0739022999359671 
7000.0000000000000 2000.0000000000000 -1666.6666666670001 -15309243.603694689 7641576.0695781009 -40865410.635331027 1.6445816395840988e-05 0.012146202075133145 0.00043671747516721535 0.59999999996101494 -3.9999999997606688 -6.2445998923059500 
6000.0000000000000 2000.0000000000000 -1666.6666666670001 -15309243.603725366 7641576.0696123485 -40865410.635047592 -0.00010555282326398337 0.012154926181231001 0.0014849194837878844 0.79999999994115256 -3.9999999997569722 -6.2445998921915526 
8000.0000000000000 2000.0000000000000 -4833.3333333330002 -37180551.087031998 -14229731.401580472 -118409137.20258045 -8.3778484019228055e-05 0.00061665595425505434 -0.00015959303495698886 0.39999999957823990 -3.9999999984644754 -0.45368638702463271 
9000.0000000000000 2000.0000000000000 -4833.3333333330002 -37180551.086703204 -14229731.403005475 -118409137.21080595 -9.0419024453250978e-05 0.00057295060938476674 -5.9584503167308462e-05 0.19999999976624655 -3.9999999984711674 -0.45368638707160835 
9000.0000000000000 1000.0000000000000 -4833.3333333330002 -37180551.090612568 -14229731.400157938 -118409137.23075250 -0.00017446225052943895 0.00032435270185512483 -2.6510714898885504e-05 0.19999999977474167 -4.4999999991640527 -0.45368638715847448 
8000.0000000000000 2000.0000000000000 -5000.0000000000000 -37755622.401781842 -14804802.716259707 -120448026.40951070 -8.9206580103972589e-05 0.00029648392931185631 -7.5925410714040837e-05 0.39999999957425358 -3.9999999984574934 0.0000000000000000 
9000.0000000000000 2000.0000000000000 -5000.0000000000000 -37755622.401621237 -14804802.717895998 -120448026.41858572 -9.4380528118629260e-05 0.00027474585626874022 -2.3956507875119190e-05 0.19999999976396693 -3.9999999984644790 0.0000000000000000 
9000.0000000000000 1000.0000000000000 -5000.0000000000000 -37755622.405791953 -14804802.715282569 -120448026.43945068 -0.00018201650605877178 0.00015488902793793423 -8.1138084450185663e-06 0.19999999977279004 -4.4999999991607389 0.0000000000000000 
8000.0000000000000 2000.0000000000000 -4666.6666666669998 -36030356.967881352 -13079537.282632047 -114331176.23440239 -6.8593439715186800e-05 0.0012968812417275869 -0.00033497123532542542 0.39999999958879245 -3.9999999984840291 -0.89249062547531277 
9000.0000000000000 2000.0000000000000 -4666.6666666669998 -36030356.967303023 -13079537.283691069 -114331176.24106798 -7.9076225741350376e-05 0.0012096861774152320 -0.00014850744005596224 0.19999999977245950 -3.9999999984899084 -0.89249062556101255 
9000.0000000000000 1000.0000000000000 -4666.6666666669998 -36030356.970736176 -13079537.280441988 -114331176.25934458 -0.00015433595360928872 0.00068918645170933037 -7.9452792636718763e-05 0.19999999978007257 -4.4999999991734372 -0.89249062572841509 
8000.0000000000000 2000.0000000000000 -4500.0000000000000 -34880059.864803247 -11929240.179865889 -110252850.14117844 -4.6152915132447375e-05 0.0020436321254326956 -0.00051513780233443808 0.39999999960360627 -3.9999999985136592 -1.3164113828667370 
9000.0000000000000 2000.0000000000000 -4500.0000000000000 -34880059.864118911 -11929240.180656034 -110252850.14654392 -6.1720012085196761e-05 0.0019152916719892318 -0.00026297271101221361 0.19999999978146096 -3.9999999985183594 -1.3164113829839617 
9000.0000000000000 1000.0000000000000 -4500.0000000000000 -34880059.867161490 -11929240.177124245 -110252850.16345315 -0.00012680661736956959 0.0010996426840093056 -0.00015702377313759141 0.19999999978783392 -4.4999999991878568 -1.3164113832268389 
8000.0000000000000 2000.0000000000000 -4333.3333333330002 -33729659.768550351 -10778840.084011469 -106174158.89010538 -1.9100306566247794e-05 0.0028334302614797732 -0.00068317419102104017 0.39999999962120608 -3.9999999985514165 -1.7254473265859107 
9000.0000000000000 2000.0000000000000 -4333.3333333330002 -33729659.767851807 -10778840.084602391 -106174158.89439470 -4.0056684492506103e-05 0.0026687961194836783 -0.00038631289811684249 0.19999999979233254 -3.9999999985547068 -1.7254473267284960 
9000.0000000000000 1000.0000000000000 -4333.3333333330002 -33729659.770575985 -10778840.080881421 -106174158.91018295 -9.6216577910921349e-05 0.0015443035404268161 -0.00024607372331097527 0.19999999979727495 -4.4999999992064383 -1.7254473270427617 
8000.0000000000000 2000.0000000000000 -4166.6666666669998 -32579156.669872373 -9628336.9857987743 -102095102.44838028 1.0300485616531013e-05 0.0036478940629083804 -0.00083116761225726307 0.39999999964064237 -3.9999999985957801 -2.1195971239004283 
9000.0000000000000 2000.0000000000000 -4166.6666666669998 -32579156.669214979 -9628336.9862406217 -102095102.45178373 -1.5782117481416169e-05 0.0034535472687291318 -0.00050720995927869999 0.19999999980438313 -3.9999999985975490 -2.1195971240631768 
9000.0000000000000 1000.0000000000000 -4166.6666666669998 -32579156.671681654 -9628336.9824052006 -102095102.46665306 -6.5348853974880419e-05 0.0020133912128205162 -0.00033749674042948726 0.19999999980783231 -4.4999999992284705 -2.1195971244455110 
8000.0000000000000 2000.0000000000000 -4000.0000000000000 -31428550.559511147 -8477730.8759539966 -98015680.783182204 4.0224841361215120e-05 0.0044724949533058288 -0.00095642770368023911 0.39999999966130040 -3.9999999986455892 -2.4988594419651844 
9000.0000000000000 2000.0000000000000 -4000.0000000000000 -31428550.558925245 -8477730.8762830552 -98015680.785859600 9.5984940435696095e-06 0.0042560195691803155 -0.00061866500879109991 0.19999999981711805 -3.9999999986458130 -2.4988594421437686 
9000.0000000000000 1000.0000000000000 -4000.0000000000000 -31428550.561186012 -8477730.8723940980 -98015680.799976617 -3.5913669303713560e-05 0.0024986660736382544 -0.00042550966191694402 0.19999999981910133 -4.4999999992533963 -2.4988594425914630 
8000.0000000000000 2000.0000000000000 -3833.3333333330002 -30277841.428211745 -7327021.7452104408 -93935893.861709043 6.9274960168107377e-05 0.0052955421214480793 -0.0010591770179896895 0.39999999968278072 -3.9999999986999741 -2.8632329478082053 
9000.0000000000000 2000.0000000000000 -3833.3333333330002 -30277841.427710991 -7327021.7454531267 -93935893.863793314 3.4847041329160323e-05 0.0050649182391733867 -0.00071689649756832092 0.19999999983019567 -3.9999999986986987 -2.8632329479990606 
9000.0000000000000 1000.0000000000000 -3833.3333333330002 -30277841.429809764 -7327021.7415615153 -93935893.877295911 -8.8847125704151320e-06 0.0029931921658198665 -0.00050682031544434670 0.19999999983079952 -4.4999999992807931 -2.8632329485099000 
8000.0000000000000 2000.0000000000000 -3666.6666666669998 -29127029.266717996 -6176209.5843035951 -89855741.651159316 9.6423997707465115e-05 0.0061072956743325121 -0.0011411383229998273 0.39999999970482047 -3.9999999987583092 -3.2127163083381336 
9000.0000000000000 2000.0000000000000 -3666.6666666669998 -29127029.266305335 -6176209.5844793143 -89855741.652760118 5.8992517394786838e-05 0.0058704412676419664 -0.00080037010874112798 0.19999999984339106 -3.9999999987556301 -3.2127163085383477 
9000.0000000000000 1000.0000000000000 -3666.6666666669998 -29127029.268279724 -6176209.5806288617 -89855741.665762484 1.5250019368277979e-05 0.0034908602642332817 -0.00057989481980899658 0.19999999984273750 -4.4999999993103588 -3.2127163091105229 
8000.0000000000000 2000.0000000000000 -3500.0000000000000 -27976114.065767940 -5025294.3839659812 -85775224.118713543 0.00012094461997897778 0.0068994901811451070 -0.0012046908648305603 0.39999999972724565 -3.9999999988201753 -3.5473081903501287 
9000.0000000000000 2000.0000000000000 -3500.0000000000000 -27976114.065439809 -5025294.3840891551 -85775224.119920671 8.1303412089992925e-05 0.0066639229729328810 -0.00086905149061062973 0.19999999985656289 -3.9999999988162172 -3.5473081905573447 
9000.0000000000000 1000.0000000000000 -3500.0000000000000 -27976114.067322232 -5025294.3803190067 -85775224.132517248 3.6304371929250863e-05 0.0039863362969223461 -0.00064438198265375478 0.19999999985479250 -4.4999999993418962 -3.5473081911893725 
8000.0000000000000 2000.0000000000000 -3333.3333333330002 -26825095.816104703 -3874276.1349375253 -81694341.231571376 0.00014234128320120634 0.0076647513175039225 -0.0012523668988136786 0.39999999974993811 -3.9999999988853250 -3.8670072605132977 
9000.0000000000000 2000.0000000000000 -3333.3333333330002 -26825095.815853909 -3874276.1350190323 -81694341.232457832 0.00010124902455885874 0.0074374036753544950 -0.00092382440923527420 0.19999999986962755 -3.9999999988802371 -3.8670072607256145 
9000.0000000000000 1000.0000000000000 -3333.3333333330002 -26825095.817672513 -3874276.1313656303 -81694341.244726315 5.4282333804537945e-05 0.0044747982858335611 -0.00070064412926470218 0.19999999986688818 -4.4999999993753024 -3.8670072614162829 
8000.0000000000000 2000.0000000000000 -3166.6666666669998 -25673974.508471727 -2723154.8279602723 -77613092.956933081 0.00016029468632819280 0.0083961373984620599 -0.0012865666542274904 0.39999999977281553 -3.9999999989536663 -4.1718121853773864 
9000.0000000000000 2000.0000000000000 -3166.6666666669998 -25673974.508289386 -2723154.8280085013 -77613092.957557961 0.00011846191433887788 0.0081832243780256587 -0.00096607370794067799 0.19999999988254039 -3.9999999989476089 -4.1718121855932742 
9000.0000000000000 1000.0000000000000 -3166.6666666669998 -25673974.510068744 -2723154.8245071881 -77613092.969561219 6.9302524321219845e-05 0.0049515952424824825 -0.00074943934718673842 0.19999999987897976 -4.4999999994105524 -4.1718121863415831 
8000.0000000000000 2000.0000000000000 -3000.0000000000000 -24522750.133607853 -1571930.4537730694 -73531479.261981428 0.00017461078851822417 0.0090868764789209400 -0.0013094308731954902 0.39999999979581835 -3.9999999990252411 -4.4617216313778583 
9000.0000000000000 2000.0000000000000 -3000.0000000000000 -24522750.133484595 -1571930.4537946286 -73531479.262392178 0.00013269550632051346 0.0088937917082899595 -0.00099739950312885818 0.19999999989528178 -3.9999999990183821 -4.4617216315960908 
9000.0000000000000 1000.0000000000000 -3000.0000000000000 -24522750.135246277 -1571930.4504810655 -73531479.274179712 8.1536441615266762e-05 0.0054121740454045400 -0.00079169183268003405 0.19999999989104295 -4.4999999994477013 -4.4617216324012068 
8000.0000000000000 2000.0000000000000 -2833.3333333330002 -23371422.682257771 -420603.00312173215 -69449500.113918230 0.00018517224359722561 0.0097300350110042719 -0.0013227638921104227 0.39999999981890100 -3.9999999991002082 -4.7367342648249346 
9000.0000000000000 2000.0000000000000 -2833.3333333330002 -23371422.682184566 -420603.00312202511 -69449500.114153013 0.00014378822029046049 0.0095613323753615115 -0.0010194324477810139 0.19999999990784742 -3.9999999990927217 -4.7367342650445217 
9000.0000000000000 1000.0000000000000 -2833.3333333330002 -23371422.683947627 -420603.00003349932 -69449500.125761792 9.1173583272778102e-05 0.0058518756245878245 -0.00082834526896971648 0.19999999990306710 -4.4999999994868736 -4.7367342659057252 
8000.0000000000000 2000.0000000000000 -2666.6666666669998 -22219992.145167045 730827.53324622149 -65367155.479946367 0.00019190603055582311 0.010318297448862342 -0.0013280277748896881 0.39999999984202711 -3.9999999991788440 -4.9968487519094760 
9000.0000000000000 2000.0000000000000 -2666.6666666669998 -22219992.145135626 730827.53326265025 -65367155.480035663 0.00015163471694024368 0.010177675191256015 -0.0010337210743398186 0.19999999992024148 -3.9999999991709005 -4.9968487521296217 
9000.0000000000000 1000.0000000000000 -2666.6666666669998 -22219992.146917034 730827.53608591831 -65367155.491490982 9.8394131253156652e-05 0.0062657601533128819 -0.00086026609959617304 0.19999999991504941 -4.4999999995282627 -4.9968487530462591 
8000.0000000000000 2000.0000000000000 -2500.0000000000000 -21068458.513076883 1882361.1645869727 -61284445.327251270 0.00019475587637830672 0.010843735994568214 -0.0013263652731225273 0.39999999986516638 -3.9999999992615254 -5.2420637587072738 
9000.0000000000000 2000.0000000000000 -2500.0000000000000 -21068458.513080038 1882361.1646161280 -61284445.327219613 0.00015616144846848195 0.010733995780614762 -0.0010416502660525241 0.19999999993247303 -3.9999999992533009 -5.2420637589273191 
9000.0000000000000 1000.0000000000000 -2500.0000000000000 -21068458.514894955 1882361.1671298288 -61284445.338534899 0.00010335047337936182 0.0066484360308120740 -0.00088816817372576538 0.19999999992699261 -4.4999999995721227 -5.2420637598987589 
8000.0000000000000 2000.0000000000000 -2333.3333333330002 -19916821.776734464 3033997.9001502451 -57201369.623037696 0.00019366531972299356 0.011297576858681652 -0.0013186230847616073 0.39999999988829293 -3.9999999993487316 -5.4723779511696762 
9000.0000000000000 2000.0000000000000 -2333.3333333330002 -19916821.776766196 3033997.9001884619 -57201369.622905016 0.00015730669689562201 0.011220648590465357 -0.0010444006861756541 0.19999999994455367 -3.9999999993404023 -5.4723779513890785 
9000.0000000000000 1000.0000000000000 -2333.3333333330002 -19916821.778628264 3033997.9023429016 -57201369.634081736 0.00010615738088002334 0.0069938652729785089 -0.00091258593443374592 0.19999999993890377 -4.4999999996187805 -5.4723779524146465 
8000.0000000000000 2000.0000000000000 -2166.6666666669998 -18765081.926887713 4185737.7491846392 -53117928.334511369 0.00018856879364401779 0.011669907978339172 -0.0013053717003826898 0.39999999991138463 -3.9999999994410449 -5.6877899951286883 
9000.0000000000000 2000.0000000000000 -2166.6666666669998 -18765081.926943395 4185737.7492283797 -53117928.334294267 0.00015500972058644011 0.011626872955903244 -0.0010429203138493856 0.19999999995649745 -3.9999999994327875 -5.6877899953469830 
9000.0000000000000 1000.0000000000000 -2166.6666666669998 -18765081.928865016 4185737.7509670793 -53117928.345321640 0.00010688915138896747 0.0072951742907599350 -0.00093384227831679024 0.19999999995079404 -4.4999999996686304 -5.6877899964259138 
8000.0000000000000 2000.0000000000000 -2000.0000000000000 -17613238.954280082 5337580.7209429136 -49034121.428861037 0.00017937582443470080 0.011949484227447743 -0.0012869472879224395 0.39999999993442303 -3.9999999995391455 -5.8882985563004393 
9000.0000000000000 2000.0000000000000 -2000.0000000000000 -17613238.954356659 5337580.7209885968 -49034121.428573824 0.00014920028697096752 0.011940518203185837 -0.0010378930084137224 0.19999999996832105 -3.9999999995311422 -5.8882985565172286 
9000.0000000000000 1000.0000000000000 -2000.0000000000000 -17613238.956349108 5337580.7222468806 -49034121.439427771 0.00010557093206467743 0.0075444004606780770 -0.00095199988928444147 0.19999999996267961 -4.4999999997221307 -5.8882985576485902 
8000.0000000000000 2000.0000000000000 -1833.3333333329999 -16461292.849660743 6489526.8246718766 -44949948.873294979 0.00016596458775497612 0.012123541138865317 -0.0012634459439630115 0.39999999995739488 -3.9999999996438227 -6.0739023002774397 
9000.0000000000000 2000.0000000000000 -1833.3333333329999 -16461292.849757005 6489526.8247156925 -44949948.872950740 0.00013978832242673536 0.012147893947073461 -0.0010296918080386602 0.19999999998004656 -3.9999999996362599 -6.0739023004923771 
9000.0000000000000 1000.0000000000000 -1833.3333333329999 -16461292.851830658 6489526.8254190031 -44949948.883592889 0.00010217434556769695 0.0077322947244945744 -0.00096681821692257272 0.19999999997458470 -4.4999999997798286 -6.0739023016750018 
8000.0000000000000 2000.0000000000000 -1666.6666666670001 -15309243.603779200 7641576.0696178190 -40865410.635022633 0.00014819123554028692 0.012177379691627252 -0.0012347152824171697 0.39999999998029440 -3.9999999997559752 -6.2445998925328672 
9000.0000000000000 2000.0000000000000 -1666.6666666670001 -15309243.603896219 7641576.0696555283 -40865410.634634025 0.00012667009579286193 0.012233387620739182 -0.0010183240964909157 0.19999999999170501 -3.9999999997490496 -6.2445998927456392 
9000.0000000000000 1000.0000000000000 -1666.6666666670001 -15309243.606060745 7641576.0697174864 -40865410.645010598 9.6635222209378555e-05 0.0078480395272395396 -0.00097768556805685248 0.19999999998654383 -4.4999999998423510 -6.2445998939780347 
4000.0000000000000 1000.0000000000000 -4833.3333333330002 -37180551.089213200 -14229731.392965602 -118409137.19786315 -6.5008372765932960e-05 0.00031802098650936895 -0.00019690100988163054 1.1999999991732067 -4.4999999991726503 -0.45368638702145464 
5000.0000000000000 2000.0000000000000 -4833.3333333330002 -37180551.084811091 -14229731.398012783 -118409137.18858425 0.00024076782735038148 0.00056396829709585972 7.3268930536924971e-05 0.99999999926108807 -3.9999999984850438 -0.45368638698675301 
4000.0000000000000 1000.0000000000000 -5000.0000000000000 -37755622.404036723 -14804802.707707297 -120448026.40517402 -7.1038591246994106e-05 0.00015164473900630403 -9.2550325977975027e-05 1.1999999991689090 -4.4999999991693311 0.0000000000000000 
5000.0000000000000 2000.0000000000000 -5000.0000000000000 -37755622.399479255 -14804802.712652843 -120448026.39547262 0.00024400821090469341 0.00027024858343554456 3.7448262152945759e-05 0.99999999925868688 -3.9999999984783376 0.0000000000000000 
4000.0000000000000 1000.0000000000000 -4666.6666666669998 -36030356.969994940 -13079537.273987466 -114331176.22915828 -4.9349389227777387e-05 0.00067701489895174820 -0.00042388973917689221 1.1999999991851527 -4.4999999991820374 -0.89249062546553914 
5000.0000000000000 2000.0000000000000 -4666.6666666669998 -36030356.965893790 -13079537.279189970 -114331176.22060850 0.00023148353045854563 0.0011917807479432231 0.00013886420774555764 0.99999999926825722 -3.9999999985037955 -0.89249062539617519 
4000.0000000000000 1000.0000000000000 -4500.0000000000000 -34880059.866973877 -11929240.171352666 -110252850.13582945 -2.8874790797565274e-05 0.0010824830392757825 -0.00067866035938801499 1.1999999992031007 -4.4999999991964410 -1.3164113828486033 
5000.0000000000000 2000.0000000000000 -4500.0000000000000 -34880059.863149405 -11929240.176624896 -110252850.12780255 0.00021724701031178295 0.0018887979532924354 0.00018825801760281481 0.99999999928009331 -3.9999999985321972 -1.3164113827443440 
4000.0000000000000 1000.0000000000000 -4333.3333333330002 -33729659.770842083 -10778840.075740043 -106174158.88498633 -7.3379679226916865e-06 0.0015231436958137220 -0.00094661362239436056 1.1999999992258319 -4.4999999992149862 -1.7254473265590560 
5000.0000000000000 2000.0000000000000 -4333.3333333330002 -33729659.767264768 -10778840.081014872 -106174158.87732112 0.00019939449957029866 0.0026343719853892831 0.00021571096292646511 0.99999999929641714 -3.9999999985684260 -1.7254473264195413 
4000.0000000000000 1000.0000000000000 -4166.6666666669998 -32579156.672305781 -9628336.9778430369 -102095102.44375175 1.3138383588005535e-05 0.0019891881767003881 -0.0012180691236363475 1.1999999992524426 -4.4999999992369615 -2.1195971238656743 
5000.0000000000000 2000.0000000000000 -4166.6666666669998 -32579156.668946881 -9628336.9830678310 -102095102.43632127 0.00017920842694491479 0.0034119876874297091 0.00021976385415681444 0.99999999931696071 -3.9999999986110781 -2.1195971236904771 
4000.0000000000000 1000.0000000000000 -4000.0000000000000 -31428550.562077492 -8477730.8683618754 -98015680.779242083 3.1449916757971555e-05 0.0024722673823180897 -0.0014865293393330711 1.1999999992822623 -4.4999999992618029 -2.4988594419243308 
5000.0000000000000 2000.0000000000000 -4000.0000000000000 -31428550.558911502 -8477730.8734949678 -98015680.771945626 0.00015777726795876466 0.0042081628533494975 0.00020187336231911748 0.99999999934139638 -3.9999999986590957 -2.4988594417129719 
4000.0000000000000 1000.0000000000000 -3833.3333333330002 -30277841.430883951 -7327021.7380118137 -93935893.858602569 4.7120151254250291e-05 0.0029651841882717416 -0.0017474891581251281 1.1999999993147925 -4.4999999992890869 -2.8632329477638376 
5000.0000000000000 2000.0000000000000 -3833.3333333330002 -30277841.427889202 -7327021.7430194421 -93935893.851359725 0.00013595386328910575 0.0050115909679956201 0.00016529064807336115 0.99999999936936468 -3.9999999987116799 -2.8632329475157907 
4000.0000000000000 1000.0000000000000 -3666.6666666669998 -29127029.269458845 -6176209.5775162755 -89855741.648987651 6.0035674919518829e-05 0.0034616913516591222 -0.0019976212714377167 1.1999999993496635 -4.4999999993185069 -3.2127163082934489 
5000.0000000000000 2000.0000000000000 -3666.6666666669998 -29127029.266617451 -6176209.5823700335 -89855741.641734123 0.00011436938092516306 0.0058124383398808913 0.00011426113428023981 0.99999999940049988 -3.9999999987682568 -3.2127163080081358 
4000.0000000000000 1000.0000000000000 -3500.0000000000000 -27976114.068535976 -5025294.3776002582 -85775224.117541239 7.0285960816000609e-05 0.0039563495532089340 -0.0022342804300910274 1.1999999993866084 -4.4999999993498596 -3.5473081903087822 
5000.0000000000000 2000.0000000000000 -3500.0000000000000 -27976114.065833390 -5025294.3822749900 -85775224.110225812 9.3462785277511725e-05 0.0066019242297291700 5.3422006952892219e-05 0.99999999943445250 -3.9999999988284367 -3.5473081899855612 
4000.0000000000000 1000.0000000000000 -3333.3333333330002 -26825095.818858381 -3874276.1289996374 -81694341.231432334 7.8066322938414394e-05 0.0044441797805135699 -0.0024551780274334020 1.1999999994254369 -4.4999999993830322 -3.8670072604792520 
5000.0000000000000 2000.0000000000000 -3333.3333333330002 -26825095.816282865 -3874276.1334716794 -81694341.224014699 7.3512368326682817e-05 0.0073720061221923166 -1.2586076449037589e-05 0.99999999947089957 -3.9999999988919943 -3.8670072601174317 
4000.0000000000000 1000.0000000000000 -3166.6666666669998 -25673974.511172254 -2723154.8224551799 -77613092.957835734 8.3611528271009818e-05 0.0049204914567126442 -0.0026581746109837229 1.1999999994660226 -4.4999999994180007 -4.1718121853547894 
5000.0000000000000 2000.0000000000000 -3166.6666666669998 -25673974.508714374 -2723154.8267008481 -77613092.950285256 5.4684408888826084e-05 0.0081149735596661894 -7.9374756255006510e-05 0.99999999950955221 -3.9999999989588422 -4.1718121849536161 
4000.0000000000000 1000.0000000000000 -3000.0000000000000 -24522750.136221003 -1571930.4487066295 -73531479.263912499 8.7157131816393242e-05 0.0053807259615703219 -0.0028411773220158630 1.1999999995082911 -4.4999999994548086 -4.4617216313709287 
5000.0000000000000 2000.0000000000000 -3000.0000000000000 -24522750.133873131 -1571930.4527008596 -73531479.256207287 3.7065897941913802e-05 0.0088232003434962226 -0.00014296481747956666 0.99999999955016072 -3.9999999990290247 -4.4617216309296097 
4000.0000000000000 1000.0000000000000 -2833.3333333330002 -23371422.684755187 -420602.99850259349 -69449500.116845995 8.8922216563504000e-05 0.0058202346116426381 -0.0030020827277776429 1.1999999995522106 -4.4999999994935811 -4.7367342648378523 
5000.0000000000000 2000.0000000000000 -2833.3333333330002 -23371422.682510953 -420603.00221765519 -69449500.108972535 2.0683888468560548e-05 0.0094889298736113275 -0.00019985755581961948 0.99999999959251418 -3.9999999991026973 -4.7367342643555723 
4000.0000000000000 1000.0000000000000 -2666.6666666669998 -22219992.147526953 730827.53740505257 -65367155.483822897 8.9091383623145990e-05 0.0062341105450661486 -0.0031387310469972087 1.1999999995977870 -4.4999999995345021 -4.9968487519462919 
5000.0000000000000 2000.0000000000000 -2666.6666666669998 -22219992.145380870 730827.53400068334 -65367155.475776114 5.5345236916991145e-06 0.010103999876701830 -0.00024708886973385732 0.99999999963643738 -3.9999999991801296 -4.9968487514222355 
4000.0000000000000 1000.0000000000000 -2500.0000000000000 -21068458.515284628 1882361.1682666028 -61284445.332014173 8.7813433078315581e-05 0.0066170007496725684 -0.0032489133288344106 1.1999999996450583 -4.4999999995778266 -5.2420637587718133 
5000.0000000000000 2000.0000000000000 -2500.0000000000000 -21068458.513231698 1882361.1652094687 -61284445.323797792 -8.3945373809962737e-06 0.010659661599399687 -0.00028225621275343058 0.99999999968179232 -3.9999999992616955 -5.2420637582052043 
4000.0000000000000 1000.0000000000000 -2333.3333333330002 -19916821.778782919 3033997.9033244327 -57201369.628611170 8.5195358381747686e-05 0.0069629386976098667 -0.0033303881644242742 1.1999999996940900 -4.4999999996238751 -5.4723779512654627 
5000.0000000000000 2000.0000000000000 -2333.3333333330002 -19916821.776818164 3033997.9006573455 -57201369.620238163 -2.1117517265857169e-05 0.011146294524804699 -0.00030350987320832638 0.99999999972847042 -3.9999999993478670 -5.4723779506555976 
4000.0000000000000 1000.0000000000000 -2166.6666666669998 -18765081.928777646 4185737.7518182602 -53117928.340806797 8.1298493050295138e-05 0.0072651427515008195 -0.0033808798539532469 1.1999999997449724 -4.4999999996730402 -5.6877899952588455 
5000.0000000000000 2000.0000000000000 -2166.6666666669998 -18765081.926895831 4185737.7495915648 -53117928.332300670 -3.2637127162604102e-05 0.011553208666663154 -0.00030956362462524579 0.99999999977639020 -3.9999999994392224 -5.6877899946051533 
4000.0000000000000 1000.0000000000000 -2000.0000000000000 -17613238.956020616 5337580.7229903741 -49034121.435776979 7.6144818283228511e-05 0.0075157189253074524 -0.0033981214456529703 1.1999999997978181 -4.4999999997257811 -5.8882985564676167 
5000.0000000000000 2000.0000000000000 -2000.0000000000000 -17613238.954215828 5337580.7212633956 -49034121.427172907 -4.2941841868839988e-05 0.011868388071128446 -0.00029970252953934835 0.99999999982549159 -3.9999999995364419 -5.8882985557697163 
4000.0000000000000 1000.0000000000000 -1833.3333333329999 -16461292.851269957 6489526.8260753062 -44949948.880716681 6.9717230263616913e-05 0.0077054944909571580 -0.0033798675107234175 1.1999999998527591 -4.4999999997826414 -6.0739023004837129 
5000.0000000000000 2000.0000000000000 -1833.3333333329999 -16461292.849535182 6489526.8249180373 -44949948.872062996 -5.2006781527462513e-05 0.012078207630040975 -0.00027381132898377024 0.99999999987573118 -3.9999999996403122 -6.0739022997414986 
4000.0000000000000 1000.0000000000000 -1666.6666666670001 -15309243.605285155 7641576.0703048306 -40865410.642821714 6.1957130974453630e-05 0.0078236654182356358 -0.0033238996698757295 1.1999999999099460 -4.4999999998442464 -6.2445998927796396 
5000.0000000000000 2000.0000000000000 -1666.6666666670001 -15309243.603611816 7641576.0697998349 -40865410.634181611 -5.9779992470075711e-05 0.012167099155545926 -0.00023242541026721335 0.99999999992707445 -3.9999999997517333 -6.2445998919933663 
2000.0000000000000 7000.0000000000000 -4833.3333333330002 -37180551.062475935 -14229731.396760903 -118409137.03266542 0.00019495546372367330 -0.00033394497853800375 -0.00022158527527353389 1.5999999994316718 -1.4999999987658617 -0.45368638630310976 
2000.0000000000000 6000.0000000000000 -4833.3333333330002 -37180551.066121802 -14229731.398091387 -118409137.04602498 0.00023575775243944654 -0.00023290316809248336 -0.00022294817385006837 1.5999999994248488 -1.9999999983866650 -0.45368638635184361 
1000.0000000000000 6000.0000000000000 -4833.3333333330002 -37180551.067185141 -14229731.396647103 -118409137.03835499 -6.5880493857079932e-05 -0.00020991021573801003 -0.00012656833814931836 1.7999999996849227 -1.9999999983849199 -0.45368638631607133 
1000.0000000000000 7000.0000000000000 -4833.3333333330002 -37180551.063684553 -14229731.395219846 -118409137.02447428 -3.5019072332169074e-05 -0.00031902463202997946 -0.00018228938431847814 1.7999999996810188 -1.4999999987653074 -0.45368638626217267 
2000.0000000000000 7000.0000000000000 -5000.0000000000000 -37755622.375332631 -14804802.709652025 -120448026.23265633 0.00019589846828100871 -0.00017205680627061908 -0.00010591552346628695 1.5999999994291605 -1.4999999987608035 0.0000000000000000 
2000.0000000000000 6000.0000000000000 -5000.0000000000000 -37755622.379132546 -14804802.711117405 -120448026.24652012 0.00023685603827040336 -0.00012357658393301275 -0.00010673530208702941 1.5999999994222982 -1.9999999983800585 0.0000000000000000 
1000.0000000000000 6000.0000000000000 -5000.0000000000000 -37755622.380092055 -14804802.709560227 -120448026.23843434 -7.3209758863383221e-05 -0.00011253286422331605 -6.0421724071015998e-05 1.7999999996834362 -1.9999999983780177 0.0000000000000000 
1000.0000000000000 7000.0000000000000 -5000.0000000000000 -37755622.376428477 -14804802.707978683 -120448026.22397022 -4.0235651445632115e-05 -0.00016494372906686989 -8.8458868712676866e-05 1.7999999996791696 -1.4999999987600448 0.0000000000000000 
2000.0000000000000 7000.0000000000000 -4666.6666666669998 -36030356.946896546 -13079537.281085446 -114331176.07784918 0.00019214533124920847 -0.00063750946974991873 -0.00046941397795084347 1.5999999994387255 -1.4999999987806432 -0.89249062408387037 
2000.0000000000000 6000.0000000000000 -4666.6666666669998 -36030356.950229920 -13079537.282157496 -114331176.09020835 0.00023248294602158963 -0.00042390954725065049 -0.00047148868969036406 1.5999999994320069 -1.9999999984059136 -0.89249062417831759 
1000.0000000000000 6000.0000000000000 -4666.6666666669998 -36030356.951467797 -13079537.280910980 -114331176.08327936 -4.6870307777828827e-05 -0.00037627776379613306 -0.00026845765810851115 1.7999999996889302 -1.9999999984049011 -0.89249062411028501 
1000.0000000000000 7000.0000000000000 -4666.6666666669998 -36030356.948285580 -13079537.279775573 -114331176.07054500 -2.1444999643366111e-05 -0.00060636225618430244 -0.00037762570738112338 1.7999999996859155 -1.4999999987805999 -0.89249062400665469 
2000.0000000000000 7000.0000000000000 -4500.0000000000000 -34880059.846964151 -11929240.181009594 -110252849.99698079 0.00018752590168494347 -0.00090126631804160657 -0.00074474788684321511 1.5999999994494412 -1.4999999988043462 -1.3164113808537132 
2000.0000000000000 6000.0000000000000 -4500.0000000000000 -34880059.849981904 -11929240.181848107 -110252850.00835732 0.00022709172017017616 -0.00056178579867807764 -0.00074715625492785391 1.5999999994428771 -1.9999999984366548 -1.3164113809908207 
1000.0000000000000 6000.0000000000000 -4500.0000000000000 -34880059.851338424 -11929240.180750147 -110252850.00200610 -2.2096524194897395e-05 -0.00048974470575209649 -0.00042668096788941328 1.7999999996947229 -1.9999999984365640 -1.3164113808932230 
1000.0000000000000 7000.0000000000000 -4500.0000000000000 -34880059.848458976 -11929240.179872390 -110252849.99037685 -3.6629054585153385e-06 -0.00085389488266063502 -0.00058361013369540005 1.7999999996928062 -1.4999999988049486 -1.3164113807439313 
2000.0000000000000 7000.0000000000000 -4333.3333333330002 -33729659.753444895 -10778840.087310828 -106174158.75731276 0.00018120113791081412 -0.0011271411295822988 -0.0010378426464035489 1.5999999994631029 -1.4999999988361483 -1.7254473239965333 
2000.0000000000000 6000.0000000000000 -4333.3333333330002 -33729659.756153204 -10778840.087944208 -106174158.76772788 0.00021969351570772728 -0.00065170266450857413 -0.0010408350211409175 1.5999999994567398 -1.9999999984777419 -1.7254473241732209 
1000.0000000000000 6000.0000000000000 -4333.3333333330002 -33729659.757589422 -10778840.086957449 -106174158.76182391 3.7654745526794756e-06 -0.00055811504601473746 -0.00059678218684305884 1.7999999997018425 -1.9999999984786057 -1.7254473240480865 
1000.0000000000000 7000.0000000000000 -4333.3333333330002 -33729659.754996628 -10778840.086302131 -106174158.75125751 1.5004275670179079e-05 -0.0010654626342615802 -0.00079318655423043149 1.7999999997010472 -1.4999999988374226 -1.7254473238570989 
2000.0000000000000 7000.0000000000000 -4166.6666666669998 -32579156.657109369 -9628336.9907666463 -102095102.32609884 0.00017332683497452476 -0.0013181569146247713 -0.0013411255251963507 1.5999999994791474 -1.4999999988752348 -2.1195971207769779 
2000.0000000000000 6000.0000000000000 -4166.6666666669998 -32579156.659520332 -9628336.9912252259 -102095102.33557735 0.00021046275893534024 -0.00070011549218372971 -0.0013453722776210564 1.5999999994730325 -1.9999999985280648 -2.1195971209901487 
1000.0000000000000 6000.0000000000000 -4166.6666666669998 -32579156.661008049 -9628336.9903210755 -102095102.33001675 2.8023817758527631e-05 -0.00058918777969558600 -0.00077622622780517065 1.7999999997100016 -1.9999999985298251 -2.1195971208389719 
1000.0000000000000 7000.0000000000000 -4166.6666666669998 -32579156.658685520 -9628336.9898528866 -102095102.32047005 3.2597596065526811e-05 -0.0012450962474458910 -0.0010029252996040432 1.7999999997102505 -1.4999999988771415 -2.1195971206101429 
2000.0000000000000 7000.0000000000000 -4000.0000000000000 -31428550.548724785 -8477730.8821486514 -98015680.670575231 0.00016410487484758171 -0.0014779712378070922 -0.0016487588103350551 1.5999999994971483 -1.4999999989208150 -2.4988594383471505 
2000.0000000000000 6000.0000000000000 -4000.0000000000000 -31428550.550854139 -8477730.8824633583 -98015680.679145277 0.00019963303654545289 -0.00071410582428724082 -0.0016551408876909846 1.5999999994913257 -1.9999999985865742 -2.4988594385937120 
1000.0000000000000 6000.0000000000000 -4000.0000000000000 -31428550.552371785 -8477730.8816197440 -98015680.673845932 4.9259305190968997e-05 -0.00059059503467983991 -0.00096334651873756052 1.7999999997190252 -1.9999999985891215 -2.4988594384175684 
1000.0000000000000 7000.0000000000000 -4000.0000000000000 -31428550.550303131 -8477730.8813041225 -98015680.665275022 4.8046735869616409e-05 -0.0013968796499113966 -0.0012112460545450842 1.7999999997201888 -1.4999999989232746 -2.4988594381546285 
2000.0000000000000 7000.0000000000000 -3833.3333333330002 -30277841.419063866 -7327021.7522324678 -93935893.757996961 0.00015376884769386948 -0.0016105663377446143 -0.0019561980693856944 1.5999999995167917 -1.4999999989721324 -2.8632329437324495 
2000.0000000000000 6000.0000000000000 -3833.3333333330002 -30277841.420929395 -7327021.7524337489 -93935893.765689775 0.00018747523245175445 -0.00070096346936443347 -0.0019656399491201847 1.5999999995113023 -1.9999999986522905 -2.8632329440093276 
1000.0000000000000 6000.0000000000000 -3833.3333333330002 -30277841.422459356 -7327021.7516334420 -93935893.760587305 6.6854328330827499e-05 -0.00056965376275304870 -0.0011567649925781896 1.7999999997288099 -1.9999999986554930 -2.8632329438089674 
1000.0000000000000 7000.0000000000000 -3833.3333333330002 -30277841.420628257 -7327021.7514373176 -93935893.752947599 6.0854158690714849e-05 -0.0015248256706600532 -0.0014173958987567772 1.7999999997307385 -1.4999999989750474 -2.8632329435155239 
2000.0000000000000 7000.0000000000000 -3666.6666666669998 -29127029.258898802 -6176209.5917923572 -89855741.555619448 0.00014255915812676193 -0.0017199864635016123 -0.0022598280407573126 1.5999999995378607 -1.4999999990284727 -3.2127163038390512 
2000.0000000000000 6000.0000000000000 -3666.6666666669998 -29127029.260519281 -6176209.5919092717 -89855741.562469035 0.00017427153012630815 -0.00066784950083843657 -0.0022731833411516384 1.5999999995327381 -1.9999999987243164 -3.2127163041432114 
1000.0000000000000 6000.0000000000000 -3666.6666666669998 -29127029.262046136 -6176209.5911387056 -89855741.557513550 8.0683026413612752e-05 -0.00053324253796464632 -0.0013551302152026070 1.7999999997393030 -1.9999999987280346 -3.2127163039191418 
1000.0000000000000 7000.0000000000000 -3666.6666666669998 -29127029.260436475 -6176209.5910311248 -89855741.550759718 7.0877203698970132e-05 -0.0016327784923511513 -0.0016209315562919881 1.7999999997418459 -1.4999999990317390 -3.2127163035986657 
2000.0000000000000 7000.0000000000000 -3500.0000000000000 -27976114.058995601 -5025294.3915958870 -85775224.030679539 0.00013070791400248593 -0.0018101761711416264 -0.0025566538658925672 1.5999999995602159 -1.4999999990891675 -3.5473081854598112 
2000.0000000000000 6000.0000000000000 -3500.0000000000000 -27976114.060390022 -5025294.3916553352 -85775224.036722273 0.00016029361191549941 -0.00062156631533657569 -0.0025746329802880941 1.5999999995554879 -1.9999999988018364 -3.5473081857882844 
1000.0000000000000 6000.0000000000000 -3500.0000000000000 -27976114.061899390 -5025294.3909037299 -85775224.031875938 9.0903839729265906e-05 -0.00048770392219499401 -0.0015569314408633479 1.7999999997504901 -1.9999999988059352 -3.5473081855408348 
1000.0000000000000 7000.0000000000000 -3500.0000000000000 -27976114.060495384 -5025294.3908564486 -85775224.025962085 7.8182206765649000e-05 -0.0017243550845273273 -0.0018213734954162829 1.7999999997535010 -1.4999999990926829 -3.5473081851966559 
2000.0000000000000 7000.0000000000000 -3333.3333333330002 -26825095.810124256 -3874276.1424142830 -81694341.150432214 0.00011842781779130437 -0.0018847946360539029 -0.0028440520476954493 1.5999999995837841 -1.4999999991535975 -3.8670072552617034 
2000.0000000000000 6000.0000000000000 -3333.3333333330002 -26825095.811311349 -3874276.1424404439 -81694341.155706644 0.00014578845040948995 -0.00056837350716773885 -0.0028671848090864706 1.5999999995794720 -1.9999999988841197 -3.8670072556115942 
1000.0000000000000 6000.0000000000000 -3333.3333333330002 -26825095.812789038 -3874276.1416990953 -81694341.150941506 9.7824015593617411e-05 -0.00043873043508057933 -0.0017604381673633849 1.7999999997623812 -1.9999999988884729 -3.8670072553409769 
1000.0000000000000 7000.0000000000000 -3333.3333333330002 -26825095.811575338 -3874276.1416870207 -81694341.145821080 8.2947473533318233e-05 -0.0018027869889686448 -0.0020180232749786135 1.7999999997657290 -1.4999999991572646 -3.8670072549762784 
2000.0000000000000 7000.0000000000000 -3166.6666666669998 -25673974.503053524 -2723154.8350173198 -77613092.882132232 0.00010589914171022920 -0.0019470820925205537 -0.0031195766188442226 1.5999999996085494 -1.4999999992211903 -4.1718121797925063 
2000.0000000000000 6000.0000000000000 -3166.6666666669998 -25673974.504051417 -2723154.8350311210 -77613092.886678606 0.00013096541201845123 -0.00051385446757607823 -0.0031482051243980342 1.5999999996046663 -1.9999999989705159 -4.1718121801610168 
1000.0000000000000 6000.0000000000000 -3166.6666666669998 -25673974.505482845 -2723154.8342929468 -77613092.881975114 0.00010181311725871154 -0.00039133840013604634 -0.0019636558751131902 1.7999999997750122 -1.9999999989750081 -4.1718121798673726 
1000.0000000000000 7000.0000000000000 -3166.6666666669998 -25673974.504444689 -2723154.8342945799 -77613092.877601221 8.5402051778110276e-05 -0.0018708791483370429 -0.0022098858256669597 1.7999999997785776 -1.4999999992249209 -4.1718121794851735 
2000.0000000000000 7000.0000000000000 -3000.0000000000000 -24522750.128545731 -1571930.4601681607 -73531479.193015441 9.3267138023928522e-05 -0.0019998127817306261 -0.0033808299067809313 1.5999999996345435 -1.4999999992914219 -4.4617216254858931 
2000.0000000000000 6000.0000000000000 -3000.0000000000000 -24522750.129371699 -1571930.4601868663 -73531479.196875542 0.00011599000489740893 -0.00046287070744789464 -0.0034150967912915356 1.5999999996310970 -1.9999999990604498 -4.4617216258703332 
1000.0000000000000 6000.0000000000000 -3000.0000000000000 -24522750.130741499 -1571930.4594460668 -73531479.192221314 0.00010324760226935175 -0.00034979887685452992 -0.0021643299845797485 1.7999999997884364 -1.9999999990649804 -4.4617216255537713 
1000.0000000000000 7000.0000000000000 -3000.0000000000000 -24522750.129864760 -1571930.4594437932 -73531479.188546553 8.5789584972988385e-05 -0.0019309737337037539 -0.0023956586121523420 1.7999999997921157 -1.4999999992951341 -4.4617216251569358 
2000.0000000000000 7000.0000000000000 -2833.3333333330002 -23371422.677367222 -420603.00863381941 -69449500.050335482 8.0637123476475295e-05 -0.0020451779501470956 -0.0036252953349619234 1.5999999996618390 -1.4999999993638087 -4.7367342586504622 
2000.0000000000000 6000.0000000000000 -2833.3333333330002 -23371422.678037554 -420603.00867071428 -69449500.053552344 0.00010097960559559477 -0.00041946791996920902 -0.0036651549280791000 1.5999999996588341 -1.9999999991534199 -4.7367342590482702 
1000.0000000000000 6000.0000000000000 -2833.3333333330002 -23371422.679329146 -420603.00792246981 -69449500.048941165 0.00010247355648486803 -0.00031757809068562687 -0.0023599206882993972 1.7999999998027278 -1.9999999991578967 -4.7367342587089034 
1000.0000000000000 7000.0000000000000 -2833.3333333330002 -23371422.678600416 -420603.00790281250 -69449500.045917735 8.4340768095451699e-05 -0.0019848377668830386 -0.0025736722574677962 1.7999999998064296 -1.4999999993674300 -4.7367342583001175 
2000.0000000000000 7000.0000000000000 -2666.6666666669998 -22219992.140283253 730827.52881991211 -65367155.421345323 6.8074531363044899e-05 -0.0020847519820747593 -0.0038502697435367911 1.5999999996905510 -1.4999999994379092 -4.9968487454756279 
2000.0000000000000 6000.0000000000000 -2666.6666666669998 -22219992.140813135 730827.52875582129 -65367155.423963048 8.6000664542010196e-05 -0.00038683097679326976 -0.0038955308865872874 1.5999999996879881 -1.9999999992489850 -4.9968487458843818 
1000.0000000000000 6000.0000000000000 -2666.6666666669998 -22219992.142008379 730827.52951553650 -65367155.419394255 9.9786632589763676e-05 -0.00029733625274358451 -0.0025476136568188469 1.7999999998179788 -1.9999999992533295 -4.9968487455223594 
1000.0000000000000 7000.0000000000000 -2666.6666666669998 -22219992.141415119 730827.52956165338 -65367155.416973963 8.1261192357597414e-05 -0.0020336390424792261 -0.0027419008670902813 1.7999999998216221 -1.4999999994413733 -4.9968487451041277 
2000.0000000000000 7000.0000000000000 -2500.0000000000000 -21068458.508052878 1882361.1614335731 -61284445.273278832 5.5604855986771093e-05 -0.0021194205823749390 -0.0040527912804615620 1.5999999997208278 -1.4999999995133158 -5.2420637520358992 
2000.0000000000000 6000.0000000000000 -2500.0000000000000 -21068458.508456361 1882361.1613377694 -61284445.275342479 7.1071642889169578e-05 -0.00036727823486828375 -0.0041031039405513715 1.5999999997187084 -1.9999999993467648 -5.2420637524533271 
1000.0000000000000 6000.0000000000000 -2500.0000000000000 -21068458.509535246 1882361.1621123287 -61284445.270820439 9.5422687602490986e-05 -0.00029090555083645787 -0.0027243187612028680 1.7999999998342970 -1.9999999993509048 -5.2420637520688631 
1000.0000000000000 7000.0000000000000 -2500.0000000000000 -21068458.509065777 1882361.1621894252 -61284445.268954657 7.6727084005535735e-05 -0.0020778883352452972 -0.0028979781156237812 1.7999999998378104 -1.4999999995165645 -5.2420637516435029 
2000.0000000000000 7000.0000000000000 -2333.3333333330002 -19916821.771439448 3033997.8984435210 -57201369.573387541 4.3214180318614759e-05 -0.0021493593368118644 -0.0042294952670398085 1.5999999997528569 -1.4999999995896511 -5.4723779442815195 
2000.0000000000000 6000.0000000000000 -2333.3333333330002 -19916821.771729380 3033997.8983162083 -57201369.574942969 5.6163140956620803e-05 -0.00036221422756444485 -0.0042843509050275001 1.5999999997511800 -1.9999999994464270 -5.4723779447055145 
1000.0000000000000 6000.0000000000000 -2333.3333333330002 -19916821.772669677 3033997.8991084425 -57201369.570476867 8.9556737970053116e-05 -0.00029923432860630721 -0.0028865996373847003 1.7999999998518132 -1.9999999994502962 -5.4723779442989127 
1000.0000000000000 7000.0000000000000 -2333.3333333330002 -19916821.772313267 3033997.8992162915 -57201369.569116473 7.0885009246436946e-05 -0.0021174294578600928 -0.0030391301715099349 1.7999999998551315 -1.4999999995926303 -5.4723779438685378 
2000.0000000000000 7000.0000000000000 -2166.6666666669998 -18765081.921205591 4185737.7490869444 -53117928.288922422 3.0850450018231356e-05 -0.0021739904856007929 -0.0043765669168212441 1.5999999997868586 -1.4999999996665632 -5.6877899880435479 
2000.0000000000000 6000.0000000000000 -2166.6666666669998 -18765081.921393629 4185737.7489332198 -53117928.290016450 4.1201237762483469e-05 -0.00037211076611915985 -0.0044353503646145358 1.5999999997856262 -1.9999999995476794 -5.6877899884721810 
1000.0000000000000 6000.0000000000000 -2166.6666666669998 -18765081.922170404 4185737.7497455748 -53117928.285619788 8.2310867523142789e-05 -0.00032237043647175955 -0.0030306954243640698 1.7999999998706744 -1.9999999995512179 -5.6877899880438543 
1000.0000000000000 7000.0000000000000 -2166.6666666669998 -18765081.921917349 4185737.7498790245 -53117928.284715205 6.3852552916323171e-05 -0.0021513749003101074 -0.0031621767245762038 1.7999999998737395 -1.4999999996692244 -5.6877899876103779 
2000.0000000000000 7000.0000000000000 -2000.0000000000000 -17613238.948107995 5337580.7226070603 -49034121.387115106 1.8424934912949444e-05 -0.0021919178129573562 -0.0044896668939028725 1.5999999998230914 -1.4999999997437163 -5.8882985490373310 
2000.0000000000000 6000.0000000000000 -2000.0000000000000 -17613238.948204536 5337580.7224371508 -49034121.387795351 2.6069737049337494e-05 -0.00039650350984790108 -0.0045516495434805857 1.5999999998223087 -1.9999999996502635 -5.8882985494688631 
1000.0000000000000 6000.0000000000000 -2000.0000000000000 -17613238.948789779 5337580.7232717015 -49034121.383486159 7.3757199034350869e-05 -0.00035948329614199489 -0.0031524826963248123 1.7999999998910516 -1.9999999996534128 -5.8882985490193613 
1000.0000000000000 7000.0000000000000 -2000.0000000000000 -17613238.948631398 5337580.7234205101 -49034121.382987224 5.5722555380527882e-05 -0.0021780624506939649 -0.0032635167322765156 1.7999999998938105 -1.4999999997460138 -5.8882985485844737 
2000.0000000000000 7000.0000000000000 -1833.3333333329999 -16461292.842908032 6489526.8282424901 -44949948.835215107 5.8141903650462470e-06 -0.0022009452818224024 -0.0045638294745743080 1.5999999998618515 -1.4999999998207889 -6.0739022928547595 
2000.0000000000000 6000.0000000000000 -1833.3333333329999 -16461292.842922144 6489526.8280719919 -44949948.835529953 1.0608219802733829e-05 -0.00043393377081499436 -0.0046281664452860211 1.5999999998615275 -1.9999999997539439 -6.0739022932876487 
1000.0000000000000 6000.0000000000000 -1833.3333333329999 -16461292.843284162 6489526.8289305838 -44949948.831330709 6.3926364547638723e-05 -0.00040878433506284870 -0.0032474060267618783 1.7999999999131409 -1.9999999997566462 -6.0739022928176789 
1000.0000000000000 7000.0000000000000 -1833.3333333329999 -16461292.843212876 6489526.8290792163 -44949948.831186503 4.6568614776406579e-05 -0.0021950572086613870 -0.0033390706964787830 1.7999999999155436 -1.4999999998226801 -6.0739022923828463 
2000.0000000000000 7000.0000000000000 -1666.6666666670001 -15309243.596366599 7641576.0752324061 -40865410.600471132 -7.1378945748144136e-06 -0.0021979983708841884 -0.0045933251058077459 1.5999999999034773 -1.4999999998974631 -6.2445998849685243 
2000.0000000000000 6000.0000000000000 -1666.6666666670001 -15309243.596306058 7641576.0750824632 -40865410.600470074 -5.3845120738724744e-06 -0.00048191092501086174 -0.0046590603057427996 1.5999999999036267 -1.9999999998584987 -6.2445998854014491 
1000.0000000000000 6000.0000000000000 -1666.6666666670001 -15309243.596408762 7641576.0759668509 -40865410.596407630 5.2827171122789855e-05 -0.00046748594003333499 -0.0033103792188853682 1.7999999999371654 -1.9999999998606981 -6.2445998849118984 
1000.0000000000000 7000.0000000000000 -1666.6666666670001 -15309243.596418167 7641576.0760942316 -40865410.596566483 3.6453581642934810e-05 -0.0021990848642113674 -0.0033841543722410434 1.7999999999391640 -1.4999999998989071 -6.2445998844783457 
6000.0000000000000 7000.0000000000000 -4833.3333333330002 -37180551.059976205 -14229731.404856475 -118409137.07078131 -1.0420180224166623e-05 -0.00031803005913481013 0.00010271187128744593 0.79999999937503619 -1.4999999987328605 -0.45368638646562243 
6000.0000000000000 7000.0000000000000 -5000.0000000000000 -37755622.373211056 -14804802.718160015 -120448026.27226079 -1.6449494393413186e-05 -0.00016470705625848894 5.4528980078728159e-05 0.79999999937247179 -1.4999999987274162 0.0000000000000000 
6000.0000000000000 7000.0000000000000 -4666.6666666669998 -36030356.943714432 -13079537.288395675 -114331176.11309981 5.5657181099943069e-06 -0.00060270092329105392 0.00018677663074630533 0.79999999938251343 -1.4999999987486758 -0.89249062439825466 
6000.0000000000000 7000.0000000000000 -4500.0000000000000 -34880059.843245044 -11929240.187612321 -110252850.02958535 2.7202187121074696e-05 -0.00084522345923494248 0.00024726636652938838 0.79999999939446276 -1.4999999987738464 -1.3164113813098630 
6000.0000000000000 7000.0000000000000 -4333.3333333330002 -33729659.749327064 -10778840.093280813 -106174158.78748068 5.0819834952764354e-05 -0.0010494442102093895 0.00028658156566990577 0.79999999941043765 -1.4999999988074022 -1.7254473245848909 
6000.0000000000000 7000.0000000000000 -4166.6666666669998 -32579156.652720802 -9628336.9961743541 -102095102.35402834 7.4003704714957656e-05 -0.0012196146984065986 0.00030762198905177673 0.79999999943000522 -1.4999999988484234 -2.1195971214885394 
6000.0000000000000 7000.0000000000000 -4000.0000000000000 -31428550.544182122 -8477730.8870596737 -98015680.696452543 9.5217278641335326e-05 -0.0013601630072594718 0.00031348902524697077 0.79999999945275557 -1.4999999988960437 -2.4988594391734682 
6000.0000000000000 7000.0000000000000 -3833.3333333330002 -30277841.414472491 -7327021.7567073172 -93935893.781995565 0.00011353456746960686 -0.0014755161544668337 0.00030731314834200044 0.79999999947830824 -1.4999999989494541 -2.8632329446656177 
6000.0000000000000 7000.0000000000000 -3666.6666666669998 -29127029.254353579 -6176209.5958864577 -89855741.577899545 0.00012844582573068070 -0.0015699645424217454 0.00029211723841039808 0.79999999950631517 -1.4999999990079045 -3.2127163048716865 
6000.0000000000000 7000.0000000000000 -3500.0000000000000 -27976114.054581992 -5025294.3953597732 -85775224.051388115 0.00013972649249303231 -0.0016475439568019025 0.00027075384553147479 0.79999999953646062 -1.4999999990706991 -3.5473081865850311 
6000.0000000000000 7000.0000000000000 -3333.3333333330002 -26825095.805919528 -3874276.1458938220 -81694341.169702917 0.00014734064696394973 -0.0017119111290982104 0.00024586115101995630 0.79999999956846135 -1.4999999991372024 -3.8670072564730940 
6000.0000000000000 7000.0000000000000 -3166.6666666669998 -25673974.499127928 -2723154.8382539251 -77613092.900085300 0.00015136852295078300 -0.0017662712458688657 0.00021981402697315329 0.79999999960206380 -1.4999999992068302 -4.1718121810840820 
6000.0000000000000 7000.0000000000000 -3000.0000000000000 -24522750.124963712 -1571930.4631990776 -73531479.209757894 0.00015196308974378122 -0.0018133108734499830 0.00019471639908865031 0.79999999963704371 -1.4999999992790516 -4.4617216268520599 
6000.0000000000000 7000.0000000000000 -2833.3333333330002 -23371422.674188476 -420603.01149239595 -69449500.065961346 0.00014932117141689275 -0.0018551109635061753 0.00017235348650328789 0.79999999967320334 -1.4999999993533812 -4.7367342600859743 
6000.0000000000000 7000.0000000000000 -2666.6666666669998 -22219992.137563720 730827.52610395895 -65367155.435935915 0.00014365850969179589 -0.0018931341475363465 0.00015417251443638013 0.79999999971036828 -1.4999999994293782 -4.9968487469755436 
6000.0000000000000 7000.0000000000000 -2500.0000000000000 -21068458.505845688 1882361.1588338620 -61284445.286903180 0.00013519904931826049 -0.0019281583905880850 0.00014128416525435397 0.79999999974838498 -1.4999999995066395 -5.2420637535955379 
6000.0000000000000 7000.0000000000000 -2333.3333333330002 -19916821.769795612 3033997.8959368281 -57201369.586102493 0.00012417206024499530 -0.0019602290436385337 0.00013441940756201055 0.79999999978711867 -1.4999999995847946 -5.4723779458964152 
6000.0000000000000 7000.0000000000000 -2166.6666666669998 -18765081.920174632 4185737.7466530339 -53117928.300772868 0.00011080982390055226 -0.0019886646617387335 0.00013391445095337274 0.79999999982644965 -1.4999999996634996 -5.6877899897094020 
6000.0000000000000 7000.0000000000000 -2000.0000000000000 -17613238.947738647 5337580.7202283591 -49034121.398134768 9.5354595179292660e-05 -0.0020119847007258143 0.00013970500423916550 0.79999999986626957 -1.4999999997424320 -5.8882985507499717 
6000.0000000000000 7000.0000000000000 -1833.3333333329999 -16461292.843248565 6489526.8259040155 -44949948.845426515 7.8062070416445596e-05 -0.0020279055181166199 0.00015131227163161373 0.79999999990647974 -1.4999999998212823 -6.0739022946100860 
6000.0000000000000 7000.0000000000000 -1666.6666666670001 -15309243.597465187 7641576.0729215965 -40865410.609886125 5.9207701949300997e-05 -0.0020333012151911318 0.00016781243872966250 0.79999999994698689 -1.4999999998997475 -6.2445998867624786 
7000.0000000000000 4000.0000000000000 -4833.3333333330002 -37180551.075201184 -14229731.406467391 -118409137.13598657 0.00021952456387776856 0.00030061373564669680 0.00011620881624565934 0.59999999948520177 -2.9999999979320617 -0.45368638671689926 
6000.0000000000000 4000.0000000000000 -4833.3333333330002 -37180551.074102625 -14229731.405469466 -118409137.13281476 -4.4933421143178651e-05 0.00032969379307611101 0.00030721933076447577 0.79999999939147481 -2.9999999979297916 -0.45368638671963574 
7000.0000000000000 4000.0000000000000 -5000.0000000000000 -37755622.389151379 -14804802.720389526 -120448026.33984879 0.00021976187543230652 0.00013893524569111562 6.0426157108203055e-05 0.59999999948295257 -2.9999999979234775 0.0000000000000000 
6000.0000000000000 4000.0000000000000 -5000.0000000000000 -37755622.388034493 -14804802.719408976 -120448026.33678068 -5.5193201445852002e-05 0.00015266882961110652 0.00015617649718908174 0.79999999939038013 -2.9999999979208041 0.0000000000000000 
7000.0000000000000 4000.0000000000000 -4666.6666666669998 -36030356.957509935 -13079537.288848870 -114331176.17361490 0.00021868561766514802 0.00066579938256168178 0.00021861959509192843 0.59999999949173122 -2.9999999979567993 -0.89249062488647912 
6000.0000000000000 4000.0000000000000 -4666.6666666669998 -36030356.956487983 -13079537.287836274 -114331176.17027977 -1.8586832763609693e-05 0.00072727388874286518 0.00059467657402247293 0.79999999939528432 -2.9999999979555207 -0.89249062488807696 
7000.0000000000000 4000.0000000000000 -4500.0000000000000 -34880059.855638154 -11929240.187072055 -110252850.08556704 0.00021696983092985678 0.0011069473329884411 0.00030313866969780849 0.59999999950211513 -2.9999999979957255 -1.3164113820206707 
6000.0000000000000 4000.0000000000000 -4500.0000000000000 -34880059.854751512 -11929240.186079014 -110252850.08215111 1.4987852256763264e-05 0.0012017784201489724 0.00084655310308968078 0.79999999940257527 -2.9999999979956651 -1.3164113820179948 
7000.0000000000000 4000.0000000000000 -4333.3333333330002 -33729659.760384329 -10778840.091918342 -106174158.83909714 0.00021412487116832915 0.0016082521743037855 0.00037080191102181726 0.59999999951595273 -2.9999999980470289 -1.7254473255039235 
6000.0000000000000 4000.0000000000000 -4333.3333333330002 -33729659.759657480 -10778840.090968709 -106174158.83567184 4.8745555408333733e-05 0.0017336509934077230 0.0010541062396294421 0.79999999941365185 -2.9999999980481822 -1.7254473254945246 
7000.0000000000000 4000.0000000000000 -4166.6666666669998 -32579156.662531909 -9628336.9941615313 -102095102.40145747 0.00020999132261415615 0.0021534798257842858 0.00042301954994572525 0.59999999953286298 -2.9999999981090761 -2.1195971226015140 
6000.0000000000000 4000.0000000000000 -4166.6666666669998 -32579156.661968399 -9628336.9932713844 -102095102.39808340 7.8672781171415960e-05 0.0023048207090779946 0.0012149648173135905 0.79999999942853617 -2.9999999981113081 -2.1195971225835541 
7000.0000000000000 4000.0000000000000 -4000.0000000000000 -31428550.552849092 -8477730.8845641948 -98015680.739879698 0.00020450460768372584 0.0027268069829714651 0.00046150775159249283 0.59999999955248295 -2.9999999981804288 -2.4988594404662514 
6000.0000000000000 4000.0000000000000 -4000.0000000000000 -31428550.552439861 -8477730.8837436568 -98015680.736607060 0.00010278678510302688 0.0028988156159789318 0.0013307031944110744 0.79999999944708022 -2.9999999981835339 -2.4988594404384248 
7000.0000000000000 4000.0000000000000 -3833.3333333330002 -30277841.422102317 -7327021.7538892599 -93935893.821611345 0.00019767743013552377 0.0033133034682207969 0.00048818525561016447 0.59999999957447203 -2.9999999982598449 -2.8632329461243033 
6000.0000000000000 4000.0000000000000 -3833.3333333330002 -30277841.421831116 -7327021.7531438814 -93935893.818480626 0.00012042437859137792 0.0035008053891532821 0.0014052279233248189 0.79999999946903688 -2.9999999982636001 -2.8632329460857595 
7000.0000000000000 4000.0000000000000 -3666.6666666669998 -29127029.261053305 -6176209.5928958198 -89855741.613897532 0.00018957837013098227 0.0038991598187345803 0.00050505487140252252 0.59999999959851058 -2.9999999983462784 -3.2127163064826694 
6000.0000000000000 4000.0000000000000 -3666.6666666669998 -29127029.260900214 -6176209.5922276704 -89855741.610940218 0.00013174372768213628 0.0040974868068471906 0.0014437274800731044 0.79999999949410749 -2.9999999983504644 -3.2127163064329385 
7000.0000000000000 4000.0000000000000 -3500.0000000000000 -27976114.060455378 -5025294.3923347685 -85775224.083962649 0.00018030558629148074 0.0044718232839502286 0.00051413147512140243 0.59999999962430228 -2.9999999984388706 -3.5473081883350690 
6000.0000000000000 4000.0000000000000 -3500.0000000000000 -27976114.060399152 -5025294.3917432800 -85775224.081201941 0.00013736644347229850 0.0046770157240444829 0.0014519629731324676 0.79999999952197343 -2.9999999984432941 -3.5473081882739943 
7000.0000000000000 4000.0000000000000 -3333.3333333330002 -26825095.811064843 -3874276.1429597894 -81694341.199047238 0.00016996319250487806 0.0050199862795091872 0.00051733042001878254 0.59999999965157513 -2.9999999985369445 -3.8670072583493544 
6000.0000000000000 4000.0000000000000 -3333.3333333330002 -26825095.811084524 -3874276.1424425091 -81694341.196499169 0.00013814405096089651 0.0052288135601526852 0.0014357670227774504 0.79999999955231715 -2.9999999985414387 -3.8670072582770372 
7000.0000000000000 4000.0000000000000 -3166.6666666669998 -25673974.503636669 -2723154.8355227746 -77613092.926390111 0.00015865165069730972 0.0055334571105890894 0.00051641175724434127 0.59999999968008100 -2.9999999986399803 -4.1718121830741959 
6000.0000000000000 4000.0000000000000 -3166.6666666669998 -25673974.503712591 -2723154.8350759004 -77613092.924064383 0.00013500518291673441 0.0057433492227335747 0.0014007567627122349 0.79999999958483337 -2.9999999986444128 -4.1718121829909363 
7000.0000000000000 4000.0000000000000 -3000.0000000000000 -24522750.128919721 -1571930.4607689243 -73531479.233209968 0.00014645519378249979 0.0060030447476513522 0.00051293864444487810 0.59999999970959650 -2.9999999987476116 -4.4617216289441517 
6000.0000000000000 4000.0000000000000 -3000.0000000000000 -24522750.129034180 -1571930.4603877473 -73531479.231110811 0.00012884589258316563 0.0062120596530355603 0.0013521389877783089 0.79999999961923995 -2.9999999987518824 -4.4617216288504062 
7000.0000000000000 4000.0000000000000 -2833.3333333330002 -23371422.677667562 -420603.00944743963 -69449500.086742595 0.00013343708713728112 0.0064204891475669289 0.00050821274908774677 0.59999999973992135 -2.9999999988596078 -4.7367342622686897 
6000.0000000000000 4000.0000000000000 -2833.3333333330002 -23371422.677805237 -420603.00912671990 -69449500.084869713 0.00012047605801549993 0.0066271375400970113 0.0012945639643992428 0.79999999965527990 -2.9999999988636441 -4.7367342621650304 
7000.0000000000000 4000.0000000000000 -2666.6666666669998 -22219992.140633546 730827.52769341809 -65367155.454222903 0.00011963206258393765 0.0067782537860873737 0.00050327747690610467 0.59999999977087670 -2.9999999989758610 -4.9968487492380760 
6000.0000000000000 4000.0000000000000 -2666.6666666669998 -22219992.140781697 730827.52795920835 -65367155.452572212 0.00011058256044792350 0.0069814041824894420 0.0012320898274253320 0.79999999969272451 -2.9999999989796149 -4.9968487491251574 
7000.0000000000000 4000.0000000000000 -2500.0000000000000 -21068458.508565720 1882361.1599114768 -61284445.302866586 0.00010504762538981350 0.0070694594504170918 0.00049888531947308462 0.59999999980230523 -2.9999999990963744 -5.2420637559276395 
6000.0000000000000 4000.0000000000000 -2500.0000000000000 -21068458.508714415 1882361.1601278549 -61284445.301431164 9.9715089548739250e-05 0.0072682380598342337 0.0011681392287096407 0.79999999973137204 -2.9999999990998165 -5.2420637558061687 
7000.0000000000000 4000.0000000000000 -2333.3333333330002 -19916821.772217385 3033997.8964601546 -57201369.599907435 8.9665041893843717e-05 0.0072877269132577398 0.00049548507927865758 0.59999999983406760 -2.9999999992212492 -5.4723779482884112 
6000.0000000000000 4000.0000000000000 -2333.3333333330002 -19916821.772359487 3033997.8966324972 -57201369.598678045 8.8286428078980495e-05 0.0074814105084108594 0.0011054785639721162 0.79999999977104652 -2.9999999992243636 -5.4723779481591288 
7000.0000000000000 4000.0000000000000 -2166.6666666669998 -18765081.922341809 4185737.7465937287 -53117928.312579021 7.3434456917044702e-05 0.0074270524050791776 0.00049322971519873279 0.59999999986604002 -2.9999999993506767 -5.6877899921522053 
6000.0000000000000 4000.0000000000000 -2166.6666666669998 -18765081.922473058 4185737.7467271243 -53117928.311544664 7.6572198476815859e-05 0.0076150285394900527 0.0010462278872508046 0.79999999981159331 -2.9999999993534554 -5.6877899920158663 
7000.0000000000000 4000.0000000000000 -2000.0000000000000 -17613238.949687082 5337580.7195725329 -49034121.408096634 5.6284231953613121e-05 0.0074818126963171593 0.00049197009389144951 0.59999999989811303 -2.9999999994849245 -5.8882985532350878 
6000.0000000000000 4000.0000000000000 -2000.0000000000000 -17613238.949806202 5337580.7196716052 -49034121.407245249 6.4727320985430285e-05 0.0076635350615063816 0.00099185462064078781 0.79999999985287640 -2.9999999994873647 -5.8882985530924490 
7000.0000000000000 4000.0000000000000 -1833.3333333329999 -16461292.845006460 6489526.8246526597 -44949948.853694431 3.8123899371901748e-05 0.0074466820742587177 0.00049124638060984375 0.59999999993018804 -2.9999999996243325 -6.0739022971296288 
6000.0000000000000 4000.0000000000000 -1833.3333333329999 -16461292.845115228 6489526.8247214491 -44949948.853013225 5.2810112434663587e-05 0.0076216064029574256 0.00094314497040365677 0.79999999989477033 -2.9999999996264295 -6.0739022969814433 
7000.0000000000000 4000.0000000000000 -1666.6666666670001 -15309243.599052973 7641576.0710913371 -40865410.616607226 1.8841636937087001e-05 0.0073165803407735141 0.00049027473661884097 0.59999999996217424 -2.9999999997692983 -6.2445998893091836 
6000.0000000000000 4000.0000000000000 -1666.6666666670001 -15309243.599156398 7641576.0711331991 -40865410.616082914 4.0814890066586860e-05 0.0074841873045845371 0.00090017827297783984 0.79999999993715765 -2.9999999997710463 -6.2445998891561825 
0.0000000000000000 7000.0000000000000 -4833.3333333330002 -37180551.064191677 -14229731.394633763 -118409137.02118425 -8.5211951896042263e-05 -0.00030399688243853263 -0.00011864660223584437 2.0000000000000000 -1.4999999987615651 -0.45368638624360813 
0.0000000000000000 8000.0000000000000 -4833.3333333330002 -37180551.061930761 -14229731.392842019 -118409137.01229280 -4.8769404245824044e-05 -0.00028858074741209064 -0.00015595814667535490 2.0000000000000000 -0.99999999917519033 -0.45368638620862417 
1000.0000000000000 8000.0000000000000 -4833.3333333330002 -37180551.061330266 -14229731.393499777 -118409137.01595801 -1.3624406059542622e-05 -0.00029718763144008314 -0.00021808255277110526 1.7999999996788654 -0.99999999917733073 -0.45368638623078894 
0.0000000000000000 7000.0000000000000 -5000.0000000000000 -37755622.376881197 -14804802.707324322 -120448026.22041710 -9.0797391293632280e-05 -0.00015779233056515050 -5.8325862543662886e-05 2.0000000000000000 -1.4999999987560655 0.0000000000000000 
0.0000000000000000 8000.0000000000000 -5000.0000000000000 -37755622.374507539 -14804802.705414955 -120448026.21109238 -5.2308401628508142e-05 -0.00014796016651442685 -7.7142793195972812e-05 2.0000000000000000 -0.99999999917154181 0.0000000000000000 
1000.0000000000000 8000.0000000000000 -5000.0000000000000 -37755622.373967223 -14804802.706154369 -120448026.21507439 -1.6933722994968732e-05 -0.00015203274605363009 -0.00010646169308783373 1.7999999996767797 -0.99999999917382998 0.0000000000000000 
0.0000000000000000 7000.0000000000000 -4666.6666666669998 -36030356.948872805 -13079537.279303731 -114331176.06771275 -7.0631487772443281e-05 -0.00057490914743126942 -0.00024129877120755675 2.0000000000000000 -1.4999999987774499 -0.89249062397296419 
0.0000000000000000 8000.0000000000000 -4666.6666666669998 -36030356.946826130 -13079537.277737178 -114331176.05966958 -3.9514815993179196e-05 -0.00055588089594440560 -0.00031409333639030888 2.0000000000000000 -0.99999999918575899 -0.89249062390651179 
1000.0000000000000 8000.0000000000000 -4666.6666666669998 -36030356.946142048 -13079537.278257430 -114331176.06277800 -5.0078202064299137e-06 -0.00057399132127543577 -0.00044774525052311418 1.7999999996843437 -0.99999999918752791 -0.89249062394656764 
0.0000000000000000 7000.0000000000000 -4500.0000000000000 -34880059.849082388 -11929240.179477166 -110252849.98788106 -5.1393085328497727e-05 -0.00080587322799201820 -0.00036530727945763205 2.0000000000000000 -1.4999999988025559 -1.3164113806975615 
0.0000000000000000 8000.0000000000000 -4500.0000000000000 -34880059.847230814 -11929240.178115424 -110252849.98064964 -2.7267521480024695e-05 -0.00079664697715719492 -0.00046934672214625289 2.0000000000000000 -0.99999999920252480 -1.3164113806029973 
1000.0000000000000 8000.0000000000000 -4500.0000000000000 -34880059.846519358 -11929240.178541867 -110252849.98333852 6.2883439609822599e-06 -0.00082438359867490580 -0.00068430917177727960 1.7999999996919576 -0.99999999920381744 -1.3164113806577673 
0.0000000000000000 7000.0000000000000 -4333.3333333330002 -33729659.755633235 -10778840.085957620 -106174158.74900477 -3.0944425546572014e-05 -0.0010025862850812444 -0.00048731178412632679 2.0000000000000000 -1.4999999988358317 -1.7254473237997261 
0.0000000000000000 8000.0000000000000 -4333.3333333330002 -33729659.753962971 -10778840.084780017 -106174158.74254887 -1.4213143425997056e-05 -0.0010134237522682846 -0.00061667482156680981 2.0000000000000000 -0.99999999922482341 -1.7254473236802461 
1000.0000000000000 8000.0000000000000 -4333.3333333330002 -33729659.753253214 -10778840.085143028 -106174158.74492566 1.8145297746897609e-05 -0.0010497453859652822 -0.00091894499957079234 1.7999999997009422 -0.99999999922561056 -1.7254473237474282 
0.0000000000000000 7000.0000000000000 -4166.6666666669998 -32579156.659323726 -9628336.9895410948 -102095102.31838898 -1.1300072148315332e-05 -0.0011700309240536872 -0.00060682340140232212 2.0000000000000000 -1.4999999988763237 -2.1195971205428599 
0.0000000000000000 8000.0000000000000 -4166.6666666669998 -32579156.657824107 -9628336.9885270800 -102095102.31267285 -1.6537589291374135e-06 -0.0012084675851341928 -0.00075510049709688230 2.0000000000000000 -0.99999999925203820 -2.1195971204014987 
1000.0000000000000 8000.0000000000000 -4166.6666666669998 -32579156.657130029 -9628336.9888479505 -102095102.31482103 2.9296360657564660e-05 -0.0012517271823874344 -0.0011475836830898217 1.7999999997108398 -0.99999999925233685 -2.1195971204794719 
0.0000000000000000 7000.0000000000000 -4000.0000000000000 -31428550.550937198 -8477730.8810124658 -98015680.663311765 6.4362284499628728e-06 -0.0013126774515460906 -0.00072445053352866240 2.0000000000000000 -1.4999999989231614 -2.4988594380780982 
0.0000000000000000 8000.0000000000000 -4000.0000000000000 -31428550.549599327 -8477730.8801420238 -98015680.658299834 9.6805173815930689e-06 -0.0013838182352353028 -0.00088540721255532268 2.0000000000000000 -0.99999999928359529 -2.4988594379177340 
1000.0000000000000 8000.0000000000000 -4000.0000000000000 -31428550.548926823 -8477730.8804357685 -98015680.660283685 3.9036317014080375e-05 -0.0014321196641921084 -0.0013686740567995202 1.7999999997213865 -0.99999999928344885 -2.4988594380053955 
0.0000000000000000 7000.0000000000000 -3833.3333333330002 -30277841.421255171 -7327021.7511569578 -93935893.751061976 2.1737267667526905e-05 -0.0014345624516688459 -0.00084100103123589827 2.0000000000000000 -1.4999999989755497 -2.8632329434300994 
0.0000000000000000 8000.0000000000000 -3833.3333333330002 -30277841.420071103 -7327021.7504110159 -93935893.746718854 1.9424978807810830e-05 -0.0015413443127964021 -0.0010089363314002707 2.0000000000000000 -0.99999999931895811 -2.8632329432534549 
1000.0000000000000 8000.0000000000000 -3833.3333333330002 -30277841.419422120 -7327021.7506882818 -93935893.748587474 4.7024945098123570e-05 -0.0015927717376737289 -0.0015818709617167739 1.7999999997324438 -0.99999999931842454 -2.8632329433500878 
0.0000000000000000 7000.0000000000000 -3666.6666666669998 -29127029.261054125 -6176209.5907558100 -89855741.548922330 3.4430486841499230e-05 -0.0015393553822357470 -0.00095715758919373084 2.0000000000000000 -1.4999999990327599 -3.2127163035044890 
0.0000000000000000 8000.0000000000000 -3666.6666666669998 -29127029.260016400 -6176209.5901166424 -89855741.545212671 2.7443312059598510e-05 -0.0016827573936881710 -0.0011270706210323330 2.0000000000000000 -0.99999999935762507 -3.2127163033141324 
1000.0000000000000 8000.0000000000000 -3666.6666666669998 -29127029.259391304 -6176209.5903850170 -89855741.547003031 5.3149939275944819e-05 -0.0017355103556990206 -0.0017873579991757940 1.7999999997439529 -0.99999999935676853 -3.2127163034193029 
0.0000000000000000 7000.0000000000000 -3500.0000000000000 -27976114.061101612 -5025294.3905817606 -85775224.024152040 4.4549107714934055e-05 -0.0016303841246102678 -0.0010732687128597040 2.0000000000000000 -1.4999999990941262 -3.5473081850937271 
0.0000000000000000 8000.0000000000000 -3500.0000000000000 -27976114.060202930 -5025294.3900333010 -85775224.021040201 3.3736468313298517e-05 -0.0018096010218846552 -0.0012409032677275500 2.0000000000000000 -0.99999999939912743 -3.5473081848920756 
1000.0000000000000 8000.0000000000000 -3500.0000000000000 -27976114.059601858 -5025294.3902982045 -85775224.022779644 5.7439362721091657e-05 -0.0018620734354747449 -0.0019853635174562419 1.7999999997559084 -0.99999999939801199 -3.5473081850055488 
0.0000000000000000 7000.0000000000000 -3333.3333333330002 -26825095.812167399 -3874276.1414098442 -81694341.144024253 5.2236355227740458e-05 -0.0017105152743442796 -0.0011892690001816613 2.0000000000000000 -1.4999999991590385 -3.8670072548645131 
0.0000000000000000 8000.0000000000000 -3333.3333333330002 -26825095.811400577 -3874276.1409380832 -81694341.141474336 3.8380788149005398e-05 -0.0019231858072994055 -0.0013511053090382590 2.0000000000000000 -0.99999999944302609 -3.8670072546538310 
1000.0000000000000 8000.0000000000000 -3333.3333333330002 -26825095.810824167 -3874276.1412033830 -81694341.143182546 5.9998310872922359e-05 -0.0019740162266925639 -0.0021759163122068775 1.7999999997683422 -0.99999999944171403 -3.8670072547755092 
0.0000000000000000 7000.0000000000000 -3166.6666666669998 -25673974.505018979 -2723154.8340127068 -77613092.875808775 5.7692281899116683e-05 -0.0017821857313412462 -0.0013046988316423216 2.0000000000000000 -1.4999999992269388 -4.1718121793644505 
0.0000000000000000 8000.0000000000000 -3166.6666666669998 -25673974.504376896 -2723154.8336060029 -77613092.873784393 4.1495185966752754e-05 -0.0020245743180502870 -0.0014579382004294408 2.0000000000000000 -0.99999999948891072 -4.1718121791468494 
1000.0000000000000 8000.0000000000000 -3166.6666666669998 -25673974.503826670 -2723154.8338744631 -77613092.875474930 6.0967963121492865e-05 -0.0020726467981671856 -0.0023587496721927115 1.7999999997813112 -0.99999999948746077 -4.1718121792767198 
0.0000000000000000 7000.0000000000000 -3000.0000000000000 -24522750.130416706 -1571930.4591556843 -73531479.186753973 6.1133346304444267e-05 -0.0018473630559371376 -0.0014187581360227525 2.0000000000000000 -1.4999999992973181 -4.4617216250271188 
0.0000000000000000 8000.0000000000000 -3000.0000000000000 -24522750.129892305 -1571930.4588050181 -73531479.185218111 4.3213617944280938e-05 -0.0021145766231221680 -0.0015612670137183338 2.0000000000000000 -0.99999999953639673 -4.4617216248045528 
1000.0000000000000 8000.0000000000000 -3000.0000000000000 -24522750.129370891 -1571930.4590786123 -73531479.186899602 6.0502522856284755e-05 -0.0021590259406358654 -0.0025332412156556221 1.7999999997948923 -0.99999999953486285 -4.4617216249426539 
0.0000000000000000 7000.0000000000000 -2833.3333333330002 -23371422.679124389 -420603.00760740112 -69449500.044124007 6.2768133778431088e-05 -0.0019074610433214235 -0.0015303058627425003 2.0000000000000000 -1.4999999993697088 -4.7367342581610892 
0.0000000000000000 8000.0000000000000 -2833.3333333330002 -23371422.678710755 -420603.00730665668 -69449500.043038920 4.3669602857070665e-05 -0.0021936681995999635 -0.0016605589512953291 2.0000000000000000 -0.99999999958512376 -4.7367342579353551 
1000.0000000000000 8000.0000000000000 -2833.3333333330002 -23371422.678222004 -420603.00758680521 -69449500.044716030 5.8752666477130425e-05 -0.0022338705633450579 -0.0026983642553488224 1.7999999998091811 -0.99999999958355523 -4.7367342580817384 
0.0000000000000000 7000.0000000000000 -2666.6666666669998 -22219992.141904365 730827.52986510564 -65367155.415180884 6.2790628751784402e-05 -0.0019633119519650325 -0.0016379047912910786 2.0000000000000000 -1.4999999994436837 -4.9968487449558063 
0.0000000000000000 8000.0000000000000 -2666.6666666669998 -22219992.141594786 730827.53011893691 -65367155.414508067 4.2992892961144587e-05 -0.0022619391662349487 -0.0017549331266668543 2.0000000000000000 -0.99999999963475306 -4.9968487447285348 
1000.0000000000000 8000.0000000000000 -2666.6666666669998 -22219992.141143806 730827.52983121038 -65367155.416182213 5.5858061559132798e-05 -0.0022975019000685648 -0.0028526642968440159 1.7999999998242873 -0.99999999963319375 -4.9968487448832493 
0.0000000000000000 7000.0000000000000 -2500.0000000000000 -21068458.509512417 1882361.1625014027 -61284445.267166525 6.1370744645144825e-05 -0.0020151151262120756 -0.0017398827258869611 2.0000000000000000 -1.4999999995188480 -5.2420637514858557 
0.0000000000000000 8000.0000000000000 -2500.0000000000000 -21068458.509300504 1882361.1627079453 -61284445.266866803 4.1303173317660422e-05 -0.0023191089468347910 -0.0018432015414099195 2.0000000000000000 -0.99999999968496300 -5.2420637512585069 
1000.0000000000000 8000.0000000000000 -2500.0000000000000 -21068458.508893691 1882361.1624119363 -61284445.268536486 5.1943486643334273e-05 -0.0023498416210874424 -0.0029942964190673659 1.7999999998403362 -0.99999999968345299 -5.2420637514215791 
0.0000000000000000 7000.0000000000000 -2333.3333333330002 -19916821.772708189 3033997.8995371107 -57201369.567339659 5.8658552090929559e-05 -0.0020624317752243031 -0.0018342828260209864 2.0000000000000000 -1.4999999995948357 -5.4723779437015976 
0.0000000000000000 8000.0000000000000 -2333.3333333330002 -19916821.772587918 3033997.8996924683 -57201369.567373037 3.8710742196426009e-05 -0.0023644660337237967 -0.0019238524083431087 2.0000000000000000 -0.99999999973544895 -5.4723779434754576 
1000.0000000000000 8000.0000000000000 -2333.3333333330002 -19916821.772233084 3033997.8993876348 -57201369.569034465 4.7118638571435684e-05 -0.0023903648575758999 -0.0031209853040644370 1.7999999998574696 -0.99999999973402354 -5.4723779436468725 
0.0000000000000000 7000.0000000000000 -2166.6666666669998 -18765081.922250114 4185737.7502088998 -53117928.282957934 5.4786202114696311e-05 -0.0021041190988122221 -0.0019188763258363520 2.0000000000000000 -1.4999999996713045 -5.6877899874342459 
0.0000000000000000 8000.0000000000000 -2166.6666666669998 -18765081.922215879 4185737.7503054850 -53117928.283283547 3.5316577033382873e-05 -0.0023968253583798267 -0.0019950619683304811 2.0000000000000000 -0.99999999978591736 -5.6877899872104178 
1000.0000000000000 8000.0000000000000 -2166.6666666669998 -18765081.921922300 4185737.7499914099 -53117928.284930743 4.1475528033055775e-05 -0.0024180530732435430 -0.0032299745469383237 1.7999999998758474 -0.99999999978460807 -5.6877899873901105 
0.0000000000000000 7000.0000000000000 -2000.0000000000000 -17613238.948890094 5337580.7237596055 -49034121.381259471 4.9869425800033470e-05 -0.0021383049042182534 -0.0019911989704311326 2.0000000000000000 -1.4999999997479279 -5.8882985483993382 
0.0000000000000000 8000.0000000000000 -2000.0000000000000 -17613238.948936794 5337580.7237859499 -49034121.381835587 3.1216031521134221e-05 -0.0024145209041961345 -0.0020546900329442589 2.0000000000000000 -0.99999999983608379 -5.8882985481787351 
1000.0000000000000 8000.0000000000000 -2000.0000000000000 -17613238.948715366 5337580.7234622855 -49034121.383460566 3.5094814087741486e-05 -0.0024313722497655362 -0.0033180164289682494 1.7999999998956489 -0.99999999983491772 -5.8882985483665760 
0.0000000000000000 7000.0000000000000 -1833.3333333329999 -16461292.843383841 6489526.8294277526 -44949948.829499677 4.4013394090260764e-05 -0.0021623556965804525 -0.0020484924178412736 2.0000000000000000 -1.4999999998243914 -6.0739022921889827 
0.0000000000000000 8000.0000000000000 -1833.3333333329999 -16461292.843506936 6489526.8293683426 -44949948.830283791 2.6504264951278957e-05 -0.0024153541624436564 -0.0021002572950904719 2.0000000000000000 -0.99999999988566779 -6.0739022919723222 
1000.0000000000000 8000.0000000000000 -1833.3333333329999 -16461292.843370471 6489526.8290346721 -44949948.831876867 2.8051287314722811e-05 -0.0024282513638142706 -0.0033813448333839314 1.7999999999170773 -0.99999999988466837 -6.0739022921681061 
0.0000000000000000 7000.0000000000000 -1666.6666666670001 -15309243.596485764 7641576.0764524937 -40865410.594933622 3.7319986997411054e-05 -0.0021728522399491156 -0.0020876151478374828 2.0000000000000000 -1.4999999999003837 -6.2445998842761297 
0.0000000000000000 8000.0000000000000 -1666.6666666670001 -15309243.596681321 7641576.0762875825 -40865410.595882431 2.1276589359062225e-05 -0.0023966072959961597 -0.0021288765943681515 2.0000000000000000 -0.99999999993438993 -6.2445998840639270 
1000.0000000000000 8000.0000000000000 -1666.6666666670001 -15309243.596644778 7641576.0759434225 -40865410.597432017 2.0412347583620320e-05 -0.0024060534074239396 -0.0034155589102503004 1.7999999999403635 -0.99999999993357580 -6.2445998842673660 
4000.0000000000000 4000.0000000000000 -4833.3333333330002 -37180551.073618807 -14229731.402122762 -118409137.11842760 0.00040827319927943167 0.00037230302003378408 -0.00021846097515463062 1.1999999991861083 -2.9999999979327177 -0.45368638666553673 
5000.0000000000000 4000.0000000000000 -4833.3333333330002 -37180551.073201351 -14229731.404253015 -118409137.12868620 8.3800791534470093e-05 0.00037461647703524923 6.5130265667067970e-05 0.99999999926970329 -2.9999999979243630 -0.45368638671343303 
5000.0000000000000 3000.0000000000000 -4833.3333333330002 -37180551.079221852 -14229731.401529299 -118409137.15990737 0.00015616496157234516 0.00058501987423535164 8.5217964441389185e-05 0.99999999926762251 -3.4999999980569991 -0.45368638685492624 
4000.0000000000000 4000.0000000000000 -5000.0000000000000 -37755622.387434736 -14804802.715963241 -120448026.32206868 0.00041594367970561829 0.00017298762605072145 -0.00010381321199132730 1.1999999991819332 -2.9999999979233865 0.0000000000000000 
5000.0000000000000 4000.0000000000000 -5000.0000000000000 -37755622.387118950 -14804802.718215179 -120448026.33277923 7.9518578283714419e-05 0.00017399483501116946 3.4341166522921973e-05 0.99999999926710492 -2.9999999979148866 0.0000000000000000 
5000.0000000000000 3000.0000000000000 -5000.0000000000000 -37755622.393518925 -14804802.715839053 -120448026.36543342 0.00015433716514411902 0.00027879242773072696 4.3761783647568172e-05 0.99999999926519256 -3.4999999980480592 0.0000000000000000 
4000.0000000000000 4000.0000000000000 -4666.6666666669998 -36030356.956250265 -13079537.284693932 -114331176.15654680 0.00038797069780971194 0.00081662454776258698 -0.00046444837226963933 1.1999999991978429 -2.9999999979593062 -0.89249062478210850 
5000.0000000000000 4000.0000000000000 -4666.6666666669998 -36030356.955658622 -13079537.286596069 -114331176.16594052 9.4777793513784497e-05 0.00082184723141472951 0.00011833916399045612 0.99999999927730066 -2.9999999979513103 -0.89249062487321384 
5000.0000000000000 3000.0000000000000 -4666.6666666669998 -36030356.960980907 -13079537.283268478 -114331176.19445108 0.00016017756840172557 0.0012439695113751013 0.00016112950151947225 0.99999999927480654 -3.4999999980821239 -0.89249062514439603 
4000.0000000000000 4000.0000000000000 -4500.0000000000000 -34880059.854775429 -11929240.183150733 -110252850.06908160 0.00036053510624714085 0.0013393460756036019 -0.00073529798459585145 1.1999999992157051 -2.9999999980005310 -1.3164113818622101 
5000.0000000000000 4000.0000000000000 -4500.0000000000000 -34880059.854059905 -11929240.184852744 -110252850.07768485 0.00010864842667035190 0.0013476573781117445 0.00015285360776568218 0.99999999928953209 -2.9999999979929837 -1.3164113819923335 
5000.0000000000000 3000.0000000000000 -4500.0000000000000 -34880059.858794257 -11929240.181089973 -110252850.10378392 0.00016357819392671480 0.0019810769301828899 0.00021938530506549164 0.99999999928654071 -3.4999999981204080 -1.3164113823825065 
4000.0000000000000 4000.0000000000000 -4333.3333333330002 -33729659.759935863 -10778840.088258484 -106174158.82327464 0.00033051145758593184 0.0019163791859216834 -0.0010163405345222805 1.1999999992385406 -2.9999999980541401 -1.7254473252908868 
5000.0000000000000 4000.0000000000000 -4333.3333333330002 -33729659.759134226 -10778840.089784093 -106174158.83115476 0.00012226834501742501 0.0019273559240710633 0.00016594348483167139 0.99999999930606698 -2.9999999980470631 -1.7254473254562934 
5000.0000000000000 3000.0000000000000 -4333.3333333330002 -33729659.763371259 -10778840.085728860 -106174158.85511653 0.00016445447728222139 0.0027698897030823764 0.00025467723482868799 0.99999999930260919 -3.4999999981694683 -1.7254473259558600 
4000.0000000000000 4000.0000000000000 -4166.6666666669998 -32579156.662477311 -9628336.9907779023 -102095102.38636479 0.00030066077374684146 0.0025271489589540680 -0.0012970231405749308 1.1999999992654329 -2.9999999981182310 -2.1195971223340035 
5000.0000000000000 4000.0000000000000 -4166.6666666669998 -32579156.661620114 -9628336.9921477772 -102095102.39358281 0.00013374668635811882 0.0025401545944277164 0.00015710764675660210 0.99999999932657146 -2.9999999981116123 -2.1195971225313577 
5000.0000000000000 3000.0000000000000 -4166.6666666669998 -32579156.665435474 -9628336.9879206792 -102095102.41565473 0.00016208250731418895 0.0035894925853169417 0.00026531522054948017 0.99999999932274719 -3.4999999982274401 -2.1195971231317690 
4000.0000000000000 4000.0000000000000 -4000.0000000000000 -31428550.553144019 -8477730.8814611156 -98015680.725569397 0.00027248246273304903 0.0031541947026548604 -0.0015698146175900814 1.1999999992956596 -2.9999999981912207 -2.4988594401449262 
5000.0000000000000 4000.0000000000000 -4000.0000000000000 -31428550.552257475 -8477730.8826935757 -98015680.732180744 0.00014209593524800902 0.0031685507099903296 0.00012763556928770183 0.99999999935070971 -2.9999999981850367 -2.4988594403712452 
5000.0000000000000 3000.0000000000000 -4000.0000000000000 -31428550.555715263 -8477730.8783968911 -98015680.752583355 0.00015643652936099580 0.0044230425662602438 0.00025229418573913443 0.99999999934665262 -3.4999999982928682 -2.4988594410649125 
4000.0000000000000 4000.0000000000000 -3833.3333333330002 -30277841.422688492 -7327021.7510629892 -93935893.808122128 0.00024662004046899851 0.0037826582892517466 -0.0018293493798202057 1.1999999993286590 -2.9999999982718113 -2.8632329457503300 
5000.0000000000000 4000.0000000000000 -3833.3333333330002 -30277841.421795905 -7327021.7521744296 -93935893.814176992 0.00014694269595810967 0.0037977315390925353 8.0088874458471870e-05 0.99999999937814721 -2.9999999982660381 -2.8632329460029342 
5000.0000000000000 3000.0000000000000 -3833.3333333330002 -30277841.424951058 -7327021.7478955202 -93935893.833104551 0.00014786284798310175 0.0052566115429588207 0.00021839555227379478 0.99999999937399842 -3.4999999983646370 -2.8632329467831243 
4000.0000000000000 4000.0000000000000 -3666.6666666669998 -29127029.261865508 -6176209.5903365863 -89855741.601254866 0.00022316502817035146 0.0043997051353261724 -0.0020717559139076785 1.1999999993639989 -2.9999999983589607 -3.2127163060576618 
5000.0000000000000 4000.0000000000000 -3666.6666666669998 -29127029.260988057 -6176209.5913417516 -89855741.606798604 0.00014831629179704972 0.0044149776947966088 1.7888127782626998e-05 0.99999999940856032 -2.9999999983535770 -3.2127163063341300 
5000.0000000000000 3000.0000000000000 -3666.6666666669998 -29127029.263888188 -6176209.5871560834 -89855741.624420479 0.00013688549191624380 0.0060782584545529721 0.00016750326476102170 0.99999999940445228 -3.4999999984419108 -3.2127163071948566 
4000.0000000000000 4000.0000000000000 -3500.0000000000000 -27976114.061426427 -5025294.3900284804 -85775224.072179914 0.00020187377542125152 0.0049942289795882047 -0.0022942329777525341 1.1999999994013537 -2.9999999984518491 -3.5473081878610211 
5000.0000000000000 4000.0000000000000 -3500.0000000000000 -27976114.060583506 -5025294.3909406140 -85775224.077253312 0.00014648489200735126 0.0050093038471230667 -5.5081656926748740e-05 0.99999999944164664 -2.9999999984468433 -3.5473081881591564 
5000.0000000000000 3000.0000000000000 -3500.0000000000000 -27976114.063270211 -5025294.3869143017 -85775224.093715459 0.00012407868006973025 0.0068775032053875725 0.00010404555590591636 0.99999999943769347 -3.4999999985240824 -3.5473081890950704 
4000.0000000000000 4000.0000000000000 -3333.3333333330002 -26825095.812129043 -3874276.1408894961 -81694341.188127339 0.00018231985320445377 0.0055564901303791258 -0.0024946711468859240 1.1999999994404849 -2.9999999985498524 -3.8670072578285835 
5000.0000000000000 4000.0000000000000 -3333.3333333330002 -26825095.811338510 -3874276.1417205106 -81694341.192766979 0.00014184596679951337 0.0055710666509394937 -0.00013476303216576832 0.99999999947712936 -2.9999999985452201 -3.8670072581463732 
5000.0000000000000 3000.0000000000000 -3333.3333333330002 -26825095.813848350 -3874276.1379124848 -81694341.208193600 0.00010999210558331062 0.0076448847290432990 3.2599763983869268e-05 0.99999999947342411 -3.4999999986107508 -3.8670072591526603 
4000.0000000000000 4000.0000000000000 -3166.6666666669998 -25673974.504732095 -2723154.8336697887 -77613092.916326970 0.00016400098139657588 0.0060777819221483178 -0.0026713863809508472 1.1999999994812265 -2.9999999986525165 -4.1718121825092700 
5000.0000000000000 4000.0000000000000 -3166.6666666669998 -25673974.504010390 -2723154.8344303863 -77613092.920565590 0.00013484865886526413 0.0060916236207982652 -0.00021710847876754865 0.99999999951476226 -2.9999999986482608 -4.1718121828448664 
5000.0000000000000 3000.0000000000000 -3166.6666666669998 -25673974.506375641 -2723154.8308942388 -77613092.935060948 9.5123980045063147e-05 0.0083715129426219954 -4.2367970104182148e-05 0.99999999951137497 -3.4999999987016852 -4.1718121839171403 
4000.0000000000000 4000.0000000000000 -3000.0000000000000 -24522750.129989758 -1571930.4591137443 -73531479.223990202 0.00014640675321796702 0.0065502455554395881 -0.0028230038760449789 1.1999999995234731 -2.9999999987595385 -4.4617216283378349 
5000.0000000000000 4000.0000000000000 -3000.0000000000000 -24522750.129351936 -1571930.4598134807 -73531479.227856785 0.00012593616777991485 0.0065631965920026035 -0.00029825415179979460 0.99999999955433172 -2.9999999987556709 -4.4617216286895269 
5000.0000000000000 3000.0000000000000 -3000.0000000000000 -24522750.131601177 -1571930.4565990018 -73531479.241506740 7.9902603581899097e-05 0.0090488293696814569 -0.00011668023954891906 0.99999999955131080 -3.4999999987968029 -4.4617216298237459 
4000.0000000000000 4000.0000000000000 -2833.3333333330002 -23371422.678661846 -420603.00797046162 -69449500.078346878 0.00012906392025236748 0.0069666892345282352 -0.0029483186236574548 1.1999999995671704 -2.9999999988707478 -4.7367342616238988 
5000.0000000000000 4000.0000000000000 -2833.3333333330002 -23371422.678121641 -420603.00861785637 -69449500.081867144 0.00011551869007685249 0.0069786008644644676 -0.00037462756483538668 0.99999999959565677 -2.9999999988672807 -4.7367342619900823 
5000.0000000000000 3000.0000000000000 -2833.3333333330002 -23371422.680280119 -420603.00577223516 -69449500.094740421 6.4679467095356936e-05 0.0096683751226368207 -0.00018656004806671123 0.99999999959303143 -3.4999999988961581 -4.7367342631824636 
4000.0000000000000 4000.0000000000000 -2666.6666666669998 -22219992.141508609 730827.52901133301 -65367155.446627520 0.00011155395102333144 0.0073203946273355022 -0.0030462083329047358 1.1999999996123061 -2.9999999989860835 -4.9968487485578228 
5000.0000000000000 4000.0000000000000 -2666.6666666669998 -22219992.141078372 730827.52840875427 -65367155.449824043 0.00010395039314287097 0.0073311314225738920 -0.00044299787038356268 0.99999999963858788 -2.9999999989830384 -4.9968487489369950 
5000.0000000000000 3000.0000000000000 -2666.6666666669998 -22219992.143168427 730827.53083980712 -65367155.461973816 4.9735542522669717e-05 0.010221580533102357 -0.00024868804016670140 0.99999999963637098 -3.4999999989999258 -4.9968487501839389 
4000.0000000000000 4000.0000000000000 -2500.0000000000000 -21068458.509285394 1882361.1610885563 -61284445.296044700 9.3531575461457616e-05 0.0076050342588875391 -0.0031155749574856731 1.1999999996589052 -2.9999999991055919 -5.2420637552150007 
5000.0000000000000 4000.0000000000000 -2500.0000000000000 -21068458.508976117 1882361.1605241646 -61284445.298937321 9.1522031451454839e-05 0.0076144909651700522 -0.00050052630695052972 0.99999999968300468 -2.9999999991029878 -5.2420637556057388 
5000.0000000000000 3000.0000000000000 -2500.0000000000000 -21068458.511017509 1882361.1624954860 -61284445.310402647 3.5290273883213434e-05 0.010699618004216999 -0.00030023919434036427 0.99999999968119657 -3.4999999991083923 -5.2420637569037547 
4000.0000000000000 4000.0000000000000 -2333.3333333330002 -19916821.772753026 3033997.8975134175 -57201369.593830012 7.4729349856543457e-05 0.0078146133993009063 -0.0031553446679099379 1.1999999997070250 -2.9999999992294031 -5.4723779475464971 
5000.0000000000000 4000.0000000000000 -2333.3333333330002 -19916821.772574291 3033997.8969814135 -57201369.596436150 7.8461470751201549e-05 0.0078226479928081259 -0.00054482544274552164 0.99999999972881404 -2.9999999992272639 -5.4723779479474439 
5000.0000000000000 3000.0000000000000 -2333.3333333330002 -19916821.774584375 3033997.8984477264 -57201369.607242897 2.1510325323699853e-05 0.011093187877938121 -0.00033891225398497674 0.99999999972740461 -3.4999999992219424 -5.4723779492930955 
4000.0000000000000 4000.0000000000000 -2166.6666666669998 -18765081.922672689 4185737.7475386630 -53117928.307215750 5.4953900752466648e-05 0.0079433743351737512 -0.0031644657686301209 1.1999999997567501 -2.9999999993577302 -5.6877899913841254 
5000.0000000000000 4000.0000000000000 -2166.6666666669998 -18765081.922632527 4185737.7470340389 -53117928.309550717 6.4932403630614481e-05 0.0079498459723780675 -0.00057398453112607177 0.99999999977594389 -2.9999999993560782 -5.6877899917939860 
5000.0000000000000 3000.0000000000000 -2166.6666666669998 -18765081.924626529 4185737.7479492771 -53117928.319712877 8.5147119161112218e-06 0.011392458531760656 -0.00036294237041179086 0.99999999977491705 -3.4999999993410644 -5.6877899931838352 
4000.0000000000000 4000.0000000000000 -2000.0000000000000 -17613238.949800730 5337580.7204228509 -49034121.403416611 3.4085206357758440e-05 0.0079857976054207597 -0.0031418699289271568 1.1999999998081883 -2.9999999994908531 -5.8882985524439357 
5000.0000000000000 4000.0000000000000 -2000.0000000000000 -17613238.949905526 5337580.7199413273 -49034121.405493982 5.1038279195546831e-05 0.0079905871185065452 -0.00058658410455912136 0.99999999982434162 -2.9999999994897104 -5.8882985528614711 
5000.0000000000000 3000.0000000000000 -2000.0000000000000 -17613238.951896846 5337580.7202580683 -49034121.415015072 -3.6188337094093246e-06 0.011586934019404745 -0.00037109997809736499 0.99999999982367693 -3.4999999994663327 -5.8882985542920281 
4000.0000000000000 4000.0000000000000 -1833.3333333329999 -16461292.844899185 6489526.8254200704 -44949948.849666573 1.2062748945494717e-05 0.0079365579139025460 -0.0030864781954556757 1.1999999998614712 -2.9999999996291105 -6.0739022963184635 
5000.0000000000000 4000.0000000000000 -1833.3333333329999 -16461292.845153505 6489526.8249580432 -44949948.851498507 3.6839333985755797e-05 0.0079395431079528189 -0.00058175176770924950 0.99999999987396737 -2.9999999996285007 -6.0739022967424781 
5000.0000000000000 3000.0000000000000 -1833.3333333329999 -16461292.847153846 6489526.8246271703 -44949948.860372476 -1.4846647698720160e-05 0.011665286677665244 -0.00036274047802594496 0.99999999987364308 -3.4999999995984146 -6.0739022982101716 
4000.0000000000000 4000.0000000000000 -1666.6666666670001 -15309243.598730568 7641576.0717853718 -40865410.613200009 -1.1134494564359642e-05 0.0077905505124190822 -0.0029972339987573734 1.1999999999167497 -2.9999999997729025 -6.2445998884809999 
5000.0000000000000 4000.0000000000000 -1666.6666666670001 -15309243.599136932 7641576.0713398540 -40865410.614797778 2.2374389187508368e-05 0.0077916277161554151 -0.00055922156611680452 0.99999999992478728 -2.9999999997728461 -6.2445998889103524 
5000.0000000000000 3000.0000000000000 -1666.6666666670001 -15309243.601156645 7641576.0703101605 -40865410.623010516 -2.5145926119729005e-05 0.011615284462093494 -0.00033784570064652347 0.99999999992478261 -3.4999999997380646 -6.2445998904114877 
9000.0000000000000 7000.0000000000000 -4833.3333333330002 -37180551.061322041 -14229731.408310756 -118409137.08378497 0.00029770642002732055 -0.00029550516538407145 4.7450872491348539e-05 0.19999999982127872 -1.4999999987074271 -0.45368638651668169 
9000.0000000000000 6000.0000000000000 -4833.3333333330002 -37180551.064795949 -14229731.409898074 -118409137.09945092 0.00039902198180134330 -0.00016790044337001427 2.5144427322700410e-05 0.19999999980889660 -1.9999999983139407 -0.45368638657988070 
9000.0000000000000 7000.0000000000000 -5000.0000000000000 -37755622.374719843 -14804802.721796762 -120448026.28591064 0.00030337289340068009 -0.00015399923718407613 2.5252818900515294e-05 0.19999999982026004 -1.4999999987016632 0.0000000000000000 
9000.0000000000000 6000.0000000000000 -5000.0000000000000 -37755622.378379866 -14804802.723566817 -120448026.30227247 0.00040686406624261849 -9.2581634954004929e-05 1.4846878549912754e-05 0.19999999980763619 -1.9999999983063876 0.0000000000000000 
9000.0000000000000 7000.0000000000000 -4666.6666666669998 -36030356.944759578 -13079537.291493010 -114331176.12483683 0.00028204570597308221 -0.00055504458108823599 8.6461669166446373e-05 0.19999999982419661 -1.4999999987241068 -0.89249062449567085 
9000.0000000000000 6000.0000000000000 -4666.6666666669998 -36030356.947877519 -13079537.292736875 -114331176.13914070 0.00037742555071853005 -0.00028688844327668343 3.8141155932478809e-05 0.19999999981248073 -1.9999999983357080 -0.89249062461676221 
9000.0000000000000 7000.0000000000000 -4500.0000000000000 -34880059.844038174 -11929240.190369859 -110252850.04010859 0.00025927850525628467 -0.00077055239496522023 0.00011604535190476362 0.19999999982874297 -1.4999999987505197 -1.3164113814490699 
9000.0000000000000 6000.0000000000000 -4500.0000000000000 -34880059.846830301 -11929240.191314295 -110252850.05310947 0.00034622161892418948 -0.00034815221009060264 3.8691656183540751e-05 0.19999999981799907 -1.9999999983699941 -1.3164113816229290 
9000.0000000000000 7000.0000000000000 -4333.3333333330002 -33729659.749913119 -10778840.095717553 -106174158.79684512 0.00023216831320331944 -0.00094776835047404452 0.00013868368732012059 0.19999999983466338 -1.4999999987855690 -1.7254473247614717 
9000.0000000000000 6000.0000000000000 -4333.3333333330002 -33729659.752405651 -10778840.096406218 -106174158.80860189 0.00030934366162461746 -0.00036243062365378932 3.1791531394202940e-05 0.19999999982508501 -1.9999999984152725 -1.7254473249831663 
9000.0000000000000 7000.0000000000000 -4166.6666666669998 -32579156.653140649 -9628336.9983103517 -102095102.36229101 0.00020285276499305922 -0.0010922010031508263 0.00015643668731181183 0.19999999984172698 -1.4999999988282418 -2.1195971216982383 
9000.0000000000000 6000.0000000000000 -4166.6666666669998 -32579156.655357044 -9628336.9987858590 -102095102.37286229 0.00026979052780491452 -0.00033967840917155438 2.1403354435367200e-05 0.19999999983341429 -1.9999999984701644 -2.1195971219630363 
9000.0000000000000 7000.0000000000000 -4000.0000000000000 -31428550.544472344 -8477730.8889154214 -98015680.703672051 0.00017293425776787464 -0.0012090705337347775 0.00017091800865894720 0.19999999984972938 -1.4999999988775998 -2.4988594394122057 
9000.0000000000000 6000.0000000000000 -4000.0000000000000 -31428550.546434119 -8477730.8892187234 -98015680.713116348 0.00022976623017257811 -0.00028911460381288368 1.0460594804379475e-05 0.19999999984270950 -1.9999999985334347 -2.4988594397155754 
9000.0000000000000 7000.0000000000000 -3833.3333333330002 -30277841.414665330 -7327021.7583033536 -93935893.788231984 0.00014357790964683953 -0.0013032917085730349 0.00018334216816436887 0.19999999985848932 -1.4999999989327828 -2.8632329449295040 
9000.0000000000000 6000.0000000000000 -3833.3333333330002 -30277841.416392539 -7327021.7584731244 -93935893.796607897 0.00019082724904705541 -0.00021924449451662687 1.0017848252837067e-06 0.19999999985273556 -1.9999999986039751 -2.8632329452671148 
9000.0000000000000 7000.0000000000000 -3666.6666666669998 -29127029.254476968 -6176209.5972430510 -89855741.583214149 0.00011560127578920979 -0.0013794030690548469 0.00019459196856012000 0.19999999986784811 -1.4999999989930015 -3.2127163051570373 
9000.0000000000000 6000.0000000000000 -3666.6666666669998 -29127029.255988449 -6176209.5973150805 -89855741.590580255 0.00015401898971469037 -0.00013782032815995275 -5.6677959944779780e-06 0.19999999986329661 -1.9999999986808006 -3.2127163055247645 
9000.0000000000000 7000.0000000000000 -3500.0000000000000 -27976114.054659598 -5025294.3964966945 -85775224.055842966 8.9550477216281081e-05 -0.0014415201885843829 0.00020525373716091886 0.19999999987766715 -1.4999999990575346 -3.5473081868883769 
9000.0000000000000 6000.0000000000000 -3500.0000000000000 -27976114.055973150 -5025294.3965033935 -85775224.062257931 0.00011999094072363908 -5.1800813663419531e-05 -8.8418384703533887e-06 0.19999999987422898 -1.9999999987630377 -3.5473081872823040 
9000.0000000000000 7000.0000000000000 -3333.3333333330002 -26825095.805970844 -3874276.1468302002 -81694341.173360810 6.5764136177397364e-05 -0.0014932987572185974 0.00021567898396125976 0.19999999988782544 -1.4999999991257249 -3.8670072567911911 
9000.0000000000000 6000.0000000000000 -3333.3333333330002 -26825095.807103317 -3874276.1468001744 -81694341.178883374 8.9095117163862271e-05 3.2680655630332054e-05 -8.2744548392136991e-06 0.19999999988539680 -1.9999999988499206 -3.8670072572076113 
9000.0000000000000 7000.0000000000000 -3166.6666666669998 -25673974.499168418 -2723154.8390081548 -77613092.903009579 4.4422392106741793e-05 -0.0015378454002065128 0.00022602534908266431 0.19999999989821718 -1.4999999991969768 -4.1718121814139257 
9000.0000000000000 6000.0000000000000 -3166.6666666669998 -25673974.500135753 -2723154.8389658900 -77613092.907698542 6.1466634676233061e-05 0.00011035995046933492 -4.0716613416026315e-06 0.19999999989668707 -1.9999999989407777 -4.1718121818493481 
9000.0000000000000 7000.0000000000000 -3000.0000000000000 -24522750.125004832 -1571930.4637886886 -73531479.212012023 2.5583271968371007e-05 -0.0015776893023854864 0.00023629861421928689 0.19999999990875075 -1.4999999992707524 -4.4617216271908839 
9000.0000000000000 6000.0000000000000 -3000.0000000000000 -24522750.125822056 -1571930.4637542567 -73531479.215926170 3.7084848568385351e-05 0.00017685173134150497 3.4026077209436424e-06 0.19999999990800624 -1.9999999990350279 -4.4617216276420484 
9000.0000000000000 7000.0000000000000 -2833.3333333330002 -23371422.674237818 -420603.01193402131 -69449500.067608878 9.2123424844005393e-06 -0.0016147465217111372 0.00024637619738786118 0.19999999991934689 -1.4999999993465638 -4.7367342604312688 
9000.0000000000000 6000.0000000000000 -2833.3333333330002 -23371422.674919058 -420603.01192289521 -69449500.070806921 1.5818961678898478e-05 0.00022865478061647379 1.3593426003069128e-05 0.19999999991927739 -1.9999999991321700 -4.7367342608951324 
9000.0000000000000 7000.0000000000000 -2666.6666666669998 -22219992.137625128 730827.52579461760 -65367155.437040389 -4.7953347015735108e-06 -0.0016502864134267494 0.00025602442684550993 0.19999999992993647 -1.4999999994239717 -4.9968487473250542 
9000.0000000000000 6000.0000000000000 -2666.6666666669998 -22219992.138183627 730827.52577169205 -65367155.439581029 -2.5362960955230391e-06 0.00026315286346432115 2.5814618709951460e-05 0.19999999993043668 -1.9999999992317752 -4.9968487477988122 
9000.0000000000000 7000.0000000000000 -2500.0000000000000 -21068458.505919237 1882361.1586421744 -61284445.287527531 -1.6603918219747856e-05 -0.0016848869178322846 0.00026493981138152128 0.19999999994046028 -1.4999999995025777 -5.2420637539472699 
9000.0000000000000 6000.0000000000000 -2500.0000000000000 -21068458.506367344 1882361.1585792878 -61284445.289469406 -1.8238113812105550e-05 0.00027863087702471726 3.9309413974916520e-05 0.19999999994143269 -1.9999999993334758 -5.2420637544283606 
9000.0000000000000 7000.0000000000000 -2333.3333333330002 -19916821.769877817 3033997.8958491534 -57201369.586309306 -2.6428580474573880e-05 -0.0017184273952187959 0.00027275752279688385 0.19999999995086776 -1.4999999995820192 -5.4723779462486348 
9000.0000000000000 6000.0000000000000 -2333.3333333330002 -19916821.770226963 3033997.8957453845 -57201369.587710872 -3.1583859049925906e-05 0.00027424158006361736 5.3281493212703609e-05 0.19999999995222442 -1.9999999994369608 -5.4723779467347438 
9000.0000000000000 7000.0000000000000 -2166.6666666669998 -18765081.920258451 4185737.7466568388 -53117928.300623938 -3.4530461029400775e-05 -0.0017500776560974722 0.00027905622121492926 0.19999999996111573 -1.4999999996619642 -5.6877899900606437 
9000.0000000000000 6000.0000000000000 -2166.6666666669998 -18765081.920519173 4185737.7465162920 -53117928.301543593 -4.2905208561732869e-05 0.00025001504919354238 6.6925775907073035e-05 0.19999999996278020 -1.9999999995419642 -5.6877899905497040 
9000.0000000000000 7000.0000000000000 -2000.0000000000000 -17613238.947813455 5337580.7203123365 -49034121.397690654 -4.1216650117104668e-05 -0.0017782460561314921 0.00028338713712442880 0.19999999997116727 -1.4999999997421034 -5.8882985510990329 
9000.0000000000000 6000.0000000000000 -2000.0000000000000 -17613238.947995424 5337580.7201442560 -49034121.398186773 -5.2573293825529397e-05 0.00020688049344341601 7.9468244045113130e-05 0.19999999997307638 -1.9999999996482567 -5.8882985515892425 
9000.0000000000000 7000.0000000000000 -1833.3333333329999 -16461292.843300281 6489526.8260580888 -44949948.844746515 -4.6842117028622209e-05 -0.0018005899937902571 0.00028528230391498024 0.19999999998099136 -1.4999999998221460 -6.0739022949560280 
9000.0000000000000 6000.0000000000000 -1833.3333333329999 -16461292.843412248 6489526.8258770443 -44949948.844877355 -6.1006616810465983e-05 0.00014665409031001182 9.0192010944770568e-05 0.19999999998309692 -1.9999999997556390 -6.0739022954458415 
9000.0000000000000 7000.0000000000000 -1666.6666666670001 -15309243.597476259 7641576.0731370226 -40865410.609027952 -5.1814716806672587e-05 -0.0018139710870321163 0.00028424865641794915 0.19999999999056123 -1.4999999999018103 -6.2445998871046191 
9000.0000000000000 6000.0000000000000 -1666.6666666670001 -15309243.597526101 7641576.0729630599 -40865410.608851701 -6.8684881087578719e-05 7.2049483412184117e-05 9.8450800881629821e-05 0.19999999999283280 -1.9999999998639308 -6.2445998875927700 
8000.0000000000000 4000.0000000000000 -4833.3333333330002 -37180551.075342208 -14229731.407916235 -118409137.14303096 0.00048388410041155322 0.00033304555104864733 -0.00012757196891628115 0.39999999959512017 -2.9999999979161176 -0.45368638675873368 
8000.0000000000000 3000.0000000000000 -4833.3333333330002 -37180551.081488356 -14229731.405114608 -118409137.17348491 0.00023426163189610750 0.00057191156031697373 -0.00017838768326204393 0.39999999958019788 -3.4999999980438403 -0.45368638689244045 
7000.0000000000000 3000.0000000000000 -4833.3333333330002 -37180551.081409931 -14229731.403641995 -118409137.16574439 0.00018127377272176445 0.00055608635003436598 0.00011098456349969666 0.59999999947881555 -3.4999999980523744 -0.45368638684327195 
8000.0000000000000 4000.0000000000000 -5000.0000000000000 -37755622.389390163 -14804802.721971722 -120448026.34740992 0.00049479885414786080 0.00015441373136823643 -6.1004213701622791e-05 0.39999999959172766 -2.9999999979071172 0.0000000000000000 
8000.0000000000000 3000.0000000000000 -5000.0000000000000 -37755622.395882070 -14804802.719476791 -120448026.37911060 0.00023962735823721741 0.00027277157174089014 -8.5875824382792337e-05 0.39999999957633769 -3.4999999980352285 0.0000000000000000 
7000.0000000000000 3000.0000000000000 -5000.0000000000000 -37755622.395687595 -14804802.717847310 -120448026.37074654 0.00018168140212046084 0.00026522046394567581 5.7568750475231277e-05 0.59999999947655369 -3.4999999980440637 0.0000000000000000 
8000.0000000000000 4000.0000000000000 -4666.6666666669998 -36030356.957501441 -13079537.290055251 -114331176.17968138 0.00045515843688081749 0.00073374290500506916 -0.00026661290366410747 0.39999999960433086 -2.9999999979418948 -0.89249062496329767 
8000.0000000000000 3000.0000000000000 -4666.6666666669998 -36030356.962993525 -13079537.286712248 -114331176.20775151 0.00022118508518469804 0.0012160578734103874 -0.00036975053311176119 0.39999999959054988 -3.4999999980682652 -0.89249062522125833 
7000.0000000000000 3000.0000000000000 -4666.6666666669998 -36030356.963087931 -13079537.285517840 -114331176.20117566 0.00018005806868421774 0.0011832237399228935 0.00020946082223427190 0.59999999948537674 -3.4999999980761269 -0.89249062513160016 
8000.0000000000000 4000.0000000000000 -4500.0000000000000 -34880059.855553433 -11929240.188078875 -110252850.09076066 0.00041673019319022524 0.0012115834583167049 -0.00040916656909463668 0.39999999961772092 -2.9999999979821372 -1.3164113821264831 
8000.0000000000000 3000.0000000000000 -4500.0000000000000 -34880059.860465333 -11929240.184331581 -110252850.11666076 0.00020614175574133612 0.0019392115977610804 -0.00056302400463187081 0.39999999960533067 -3.4999999981059102 -1.3164113824999431 
7000.0000000000000 3000.0000000000000 -4500.0000000000000 -34880059.860639453 -11929240.183354098 -110252850.11109541 0.00017803064498899025 0.0018897206846021813 0.00029129436499509615 0.59999999949581140 -3.4999999981130623 -1.3164113823772772 
8000.0000000000000 4000.0000000000000 -4333.3333333330002 -33729659.760267057 -10778840.092758961 -106174158.84351137 0.00037522198843121661 0.0017476085793563514 -0.00054215703381035245 0.39999999963414007 -2.9999999980348235 -1.7254473256335228 
8000.0000000000000 3000.0000000000000 -4333.3333333330002 -33729659.764669798 -10778840.088730423 -106174158.86744313 0.00019309435789836870 0.0027175585322362409 -0.00074167949610600033 0.39999999962313548 -3.4999999981546024 -1.7254473261144005 
7000.0000000000000 3000.0000000000000 -4333.3333333330002 -33729659.764870718 -10778840.087925205 -106174158.86275485 0.00017515571796550695 0.0026533802656444035 0.00035691919549568879 0.59999999950972560 -3.4999999981611678 -1.7254473259650924 
8000.0000000000000 4000.0000000000000 -4166.6666666669998 -32579156.662408166 -9628336.9948624372 -102095102.40517564 0.00033461935215043189 0.0023239702494343021 -0.00065826819566223711 0.39999999965276040 -2.9999999980981964 -2.1195971227503834 
8000.0000000000000 3000.0000000000000 -4166.6666666669998 -32579156.666368719 -9628336.9906618781 -102095102.42732733 0.00018365116161779145 0.0035304488276360164 -0.00089729472635268447 0.39999999964300070 -3.4999999982125485 -2.1195971233312405 
7000.0000000000000 3000.0000000000000 -4166.6666666669998 -32579156.666566931 -9628336.9899959117 -102095102.42340112 0.00017139485175806307 0.0034537402256116742 0.00040731713514034393 0.59999999952674610 -3.4999999982186973 -2.1195971231606587 
8000.0000000000000 4000.0000000000000 -4000.0000000000000 -31428550.552734341 -8477730.8851467036 -98015680.742976129 0.00029708903107713598 0.0029242158012550371 -0.00075387572564106404 0.39999999967297523 -2.9999999981707557 -2.4988594406304760 
8000.0000000000000 3000.0000000000000 -4000.0000000000000 -31428550.556314737 -8477730.8808705099 -98015680.763521612 0.00017806029287786737 0.0043601558548120901 -0.0010264340342730808 0.39999999966426131 -3.4999999982782972 -2.4988594413044787 
7000.0000000000000 3000.0000000000000 -4000.0000000000000 -31428550.556494374 -8477730.8803190030 -98015680.760258675 0.00016674020089755694 0.0042726173394683035 0.00044394326329609362 0.59999999954651428 -3.4999999982841947 -2.4988594411171303 
8000.0000000000000 4000.0000000000000 -3833.3333333330002 -30277841.422005586 -7327021.7543707369 -93935893.824152499 0.00026357350124093387 0.0035333813251283404 -0.00082772181800607207 0.39999999969433142 -2.9999999982512389 -2.8632329463004913 
8000.0000000000000 3000.0000000000000 -3833.3333333330002 -30277841.425262477 -7327021.7501038527 -93935893.843250781 0.00017582971492598930 0.0051914274698709236 -0.0011286605747747058 0.39999999968645494 -3.4999999983506855 -2.8632329470613658 
7000.0000000000000 3000.0000000000000 -3833.3333333330002 -30277841.425415531 -7327021.7496478921 -93935893.840566382 0.00016121203689585523 0.0050941223452722166 0.00046859868096753928 0.59999999956869055 -3.4999999983564725 -2.8632329468610247 
8000.0000000000000 4000.0000000000000 -3666.6666666669998 -29127029.260979649 -6176209.5932905730 -89855741.615943164 0.00023422146726004303 0.0041379384482229256 -0.00088005085044116026 0.39999999971648625 -2.9999999983386023 -3.2127163066678754 
8000.0000000000000 3000.0000000000000 -3666.6666666669998 -29127029.263964176 -6176209.5891081337 -89855741.633738160 0.00017610928613455754 0.0060110225760653174 -0.0012052609752829296 0.39999999970925904 -3.4999999984288235 -3.2127163075098655 
7000.0000000000000 3000.0000000000000 -3666.6666666669998 -29127029.264087096 -6176209.5887329746 -89855741.631559402 0.00015484684812717351 0.0059043790034807395 0.00048326235219241990 0.59999999959295469 -3.4999999984345971 -3.2127163072996932 
8000.0000000000000 4000.0000000000000 -3500.0000000000000 -27976114.060407318 -5025294.3926546965 -85775224.085566625 0.00020869788247501977 0.0047257583183089470 -0.00091202960735972498 0.39999999973917721 -2.9999999984320058 -3.5473081885267383 
8000.0000000000000 3000.0000000000000 -3500.0000000000000 -27976114.063165162 -5025294.3886236306 -85775224.102187201 0.00017792360901103564 0.0068073944688585531 -0.0012584313422858338 0.39999999973244588 -3.4999999985120458 -3.5473081894445566 
7000.0000000000000 3000.0000000000000 -3500.0000000000000 -27976114.063256916 -5025294.3883175477 -85775224.100451261 0.00014768909167117995 0.0066913016744301257 0.00048998577341175301 0.59999999961900741 -3.4999999985178651 -3.5473081892271985 
8000.0000000000000 4000.0000000000000 -3333.3333333330002 -26825095.811043248 -3874276.1432148931 -81694341.200258523 0.00018639395063364139 0.0052859872565441850 -0.00092538265478526885 0.39999999976220058 -2.9999999985307921 -3.8670072585452751 
8000.0000000000000 3000.0000000000000 -3333.3333333330002 -26825095.813614838 -3874276.1393954912 -81694341.215818524 0.00018029806887407388 0.0075702604043293232 -0.0012907778191183484 0.39999999975585376 -3.4999999985998924 -3.8670072595340477 
7000.0000000000000 3000.0000000000000 -3333.3333333330002 -26825095.813675851 -3874276.1391489785 -81694341.214471057 0.00013978271604062954 0.0074442357875639034 0.00049076001012579454 0.59999999964657358 -3.4999999986057770 -3.8670072593117308 
8000.0000000000000 4000.0000000000000 -3166.6666666669998 -25673974.503641199 -2723154.8357215165 -77613092.927253306 0.00016656607227299739 0.0058088494335118025 -0.00092214452767118546 0.39999999978539602 -2.9999999986344688 -4.1718121832724515 
8000.0000000000000 3000.0000000000000 -3166.6666666669998 -25673974.506062094 -2723154.8321689079 -77613092.941852048 0.00018232716841010171 0.0082902057778983292 -0.0013049954407103371 0.39999999977936523 -3.4999999986920800 -4.1718121843276679 
7000.0000000000000 3000.0000000000000 -3166.6666666669998 -25673974.506093625 -2723154.8319740826 -77613092.940845817 0.00013115945719947234 0.0081535709209483095 0.00048743843985206696 0.59999999967540207 -3.4999999986980197 -4.1718121841022713 
8000.0000000000000 4000.0000000000000 -3000.0000000000000 -24522750.128949165 -1571930.4609185455 -73531479.233766094 0.00014844239643065706 0.0062855333737483017 -0.00090447657464742370 0.39999999980863576 -2.9999999987426977 -4.4617216291430895 
8000.0000000000000 3000.0000000000000 -3000.0000000000000 -24522750.131250449 -1571930.4576840471 -73531479.247488827 0.00018321406658115938 0.0089584586052775181 -0.0013036854730143898 0.39999999980289319 -3.4999999987884900 -4.4617216302605511 
7000.0000000000000 3000.0000000000000 -3000.0000000000000 -24522750.131254222 -1571930.4575341998 -73531479.246782303 0.00012183875871958361 0.0088104672026874387 0.00048166793764128782 0.59999999970526685 -3.4999999987944430 -4.4617216300336677 
8000.0000000000000 4000.0000000000000 -2833.3333333330002 -23371422.677719995 -420603.00955422921 -69449500.087029800 0.00013128190553204818 0.0067080423086275870 -0.00087458305142273658 0.39999999983181705 -2.9999999988552699 -4.7367342624668956 
8000.0000000000000 3000.0000000000000 -2833.3333333330002 -23371422.679928649 -420603.00668648607 -69449500.099948019 0.00018227338442153594 0.0095665572217248241 -0.0012892638744329288 0.39999999982637119 -3.4999999988891437 -4.7367342636426590 
7000.0000000000000 3000.0000000000000 -2833.3333333330002 -23371422.679906748 -420603.00657579169 -69449500.099504352 0.00011182792973157990 0.0094065727490635024 0.00047483713763865761 0.59999999973596518 -3.4999999988950461 -4.7367342634156451 
8000.0000000000000 4000.0000000000000 -2666.6666666669998 -22219992.140706390 730827.52762396145 -65367155.454276815 0.00011440612705428162 0.0070690251308019418 -0.00083464867293349962 0.39999999985485563 -2.9999999989721009 -4.9968487494343430 
8000.0000000000000 3000.0000000000000 -2666.6666666669998 -22219992.142845701 730827.53007796372 -65367155.466448843 0.00017892525844990563 0.010106144258636986 -0.0012639169272604266 0.39999999984974627 -3.4999999989941903 -4.9968487506646762 
7000.0000000000000 3000.0000000000000 -2666.6666666669998 -22219992.142800536 730827.53015461878 -65367155.466235079 0.00010111382907471604 0.0099337305078223657 0.00046807372535558533 0.59999999976731810 -3.4999999989999604 -4.9968487504386934 
8000.0000000000000 4000.0000000000000 -2500.0000000000000 -21068458.508655749 1882361.1598745256 -61284445.302720733 9.7224436899727418e-05 0.0073617152273146181 -0.00078679675811319817 0.39999999987768214 -2.9999999990932116 -5.2420637561209631 
8000.0000000000000 3000.0000000000000 -2500.0000000000000 -21068458.510745745 1882361.1618685045 -61284445.314192370 0.00017269170693269884 0.010568789752521412 -0.0012295969070538907 0.39999999987297480 -3.4999999991038990 -5.2420637574022786 
7000.0000000000000 3000.0000000000000 -2500.0000000000000 -21068458.510680068 1882361.1619157032 -61284445.314178593 8.9669546095684133e-05 0.010383812045314886 0.00046219563607471903 0.59999999979916741 -3.4999999991094377 -5.2420637571783244 
8000.0000000000000 4000.0000000000000 -2333.3333333330002 -19916821.772320766 3033997.8964513899 -57201369.599593729 7.9237466620759502e-05 0.0075797528248534810 -0.00073306987137099200 0.39999999990023893 -2.9999999992187161 -5.4723779484779680 
8000.0000000000000 3000.0000000000000 -2333.3333333330002 -19916821.774378568 3033997.8979390357 -57201369.610398747 0.00016318218779877926 0.010945741686850349 -0.0011880351352717229 0.39999999989602031 -3.4999999992186477 -5.4723779498067842 
7000.0000000000000 3000.0000000000000 -2333.3333333330002 -19916821.774295487 3033997.8979609348 -57201369.610557355 7.7453327971643664e-05 0.010748439094829835 0.00045771224208465087 0.59999999983137453 -3.4999999992238431 -5.4723779495857139 
8000.0000000000000 4000.0000000000000 -2166.6666666669998 -18765081.922454167 4185737.7466091998 -53117928.312128223 6.0038198661128059e-05 0.0077171403052916001 -0.00067541349637880105 0.39999999992247931 -2.9999999993488196 -5.6877899923373416 
8000.0000000000000 3000.0000000000000 -2166.6666666669998 -18765081.924494304 4185737.7475435324 -53117928.322288834 0.00015008568547713498 0.011227757335303866 -0.0011407414811211455 0.39999999991885071 -3.4999999993389146 -5.6877899937102336 
7000.0000000000000 3000.0000000000000 -2166.6666666669998 -18765081.924397312 4185737.7475439617 -53117928.322593927 6.4407423718535080e-05 0.011018789058389116 0.00045483252446499044 0.59999999986381780 -3.4999999993436473 -5.6877899934927800 
8000.0000000000000 4000.0000000000000 -2000.0000000000000 -17613238.949803486 5337580.7196086142 -49034121.407538436 3.9300231131048802e-05 0.0077682076995089864 -0.00061566429563922613 0.39999999994436580 -2.9999999994837978 -5.8882985534153169 
8000.0000000000000 3000.0000000000000 -2000.0000000000000 -17613238.951838300 5337580.7199413721 -49034121.417066261 0.00013315791688078420 0.011404966514549114 -0.0010890352053604005 0.39999999994144014 -3.4999999994652775 -5.8882985548288707 
7000.0000000000000 3000.0000000000000 -2000.0000000000000 -17613238.951731250 5337580.7199239358 -49034121.417493023 5.0463268796435340e-05 0.011185469590328420 0.00045344634116102286 0.59999999989638997 -3.4999999994694195 -5.8882985546156483 
8000.0000000000000 4000.0000000000000 -1833.3333333329999 -16461292.845121462 6489526.8247059593 -44949948.853057712 1.6751466846279092e-05 0.0077275417310260237 -0.00055552978169481286 0.39999999996587099 -2.9999999996239946 -6.0739022973046310 
8000.0000000000000 3000.0000000000000 -1833.3333333329999 -16461292.847161323 6489526.8243872207 -44949948.861954212 0.00011220230440848028 0.011466778396730349 -0.0010340486730107854 0.39999999996376762 -3.4999999995984079 -6.0739022987553914 
7000.0000000000000 3000.0000000000000 -1833.3333333329999 -16461292.847048441 6489526.8243553508 -44949948.862478539 3.5545871282217157e-05 0.011238377101137681 0.00045313298757078982 0.59999999992899500 -3.4999999996018230 -6.0739022985469058 
8000.0000000000000 4000.0000000000000 -1666.6666666670001 -15309243.599160751 7641576.0711585712 -40865410.615920246 -7.8510043230701475e-06 0.0075899447279626402 -0.00049656558956778470 0.39999999998697883 -2.9999999997698130 -6.2445998894787955 
8000.0000000000000 3000.0000000000000 -1666.6666666670001 -15309243.601214262 7641576.0701364763 -40865410.624177247 8.7061807631085312e-05 0.011401624844600123 -0.00097671208940637165 0.39999999998582059 -3.4999999997390669 -6.2445998909632365 
7000.0000000000000 3000.0000000000000 -1666.6666666670001 -15309243.601100016 7641576.0700935535 -40865410.624775201 1.9570996526433303e-05 0.011166498968324990 0.00045314857436559795 0.59999999996154596 -3.4999999997416191 -6.2445998907598801 
2000.0000000000000 5000.0000000000000 -4833.3333333330002 -37180551.070973091 -14229731.398366045 -118409137.06549865 0.00024934779204644988 -5.2335284510243970e-06 -0.00022584101614110303 1.5999999994170848 -2.4999999980955603 -0.45368638642677983 
2000.0000000000000 4000.0000000000000 -4833.3333333330002 -37180551.076782539 -14229731.397074234 -118409137.09091693 0.00022799404978881088 0.00029282694440535545 -0.00023096997941622277 1.5999999994093672 -2.9999999979687817 -0.45368638652956472 
2000.0000000000000 5000.0000000000000 -5000.0000000000000 -37755622.384197116 -14804802.711575268 -120448026.26670247 0.00025040085187233771 -1.1913855133442738e-05 -0.00010840074243365662 1.5999999994144884 -2.4999999980877412 0.0000000000000000 
2000.0000000000000 4000.0000000000000 -5000.0000000000000 -37755622.390280642 -14804802.710517382 -120448026.29304948 0.00022874096969030343 0.00013517350641487563 -0.00011128665311388211 1.5999999994067220 -2.9999999979603347 0.0000000000000000 
2000.0000000000000 5000.0000000000000 -4666.6666666669998 -36030356.954653710 -13079537.282089943 -114331176.10828491 0.00024620290798549435 4.3236093824678493e-05 -0.00047620876256384453 1.5999999994243621 -2.4999999981182430 -0.89249062432384896 
2000.0000000000000 4000.0000000000000 -4666.6666666669998 -36030356.959922917 -13079537.280371604 -114331176.13189022 0.00022570189184737809 0.00064946926600641065 -0.00048489819238255942 1.5999999994167615 -2.9999999979931142 -0.89249062452352335 
2000.0000000000000 5000.0000000000000 -4500.0000000000000 -34880059.853983410 -11929240.181488700 -110252850.02507925 0.00024100225413287361 0.00015728707194066684 -0.00075295863890333602 1.5999999994354019 -2.4999999981542533 -1.3164113812026057 
2000.0000000000000 4000.0000000000000 -4500.0000000000000 -34880059.858735763 -11929240.179426819 -110252850.04696162 0.00022177228036104253 0.0010811161051426856 -0.00076398042254256673 1.5999999994279550 -2.9999999980313898 -1.3164113814933824 
2000.0000000000000 5000.0000000000000 -4333.3333333330002 -33729659.759749159 -10778840.087346001 -106174158.78314123 0.00023381157621394857 0.00032687004558845298 -0.0010478317007433491 1.5999999994494816 -2.4999999982021066 -1.7254473244469217 
2000.0000000000000 4000.0000000000000 -4333.3333333330002 -33729659.764019743 -10778840.085023014 -106174158.80339243 0.00021617169851379710 0.0015720349790748949 -0.0010610374286578312 1.5999999994422252 -2.9999999980818188 -1.7254473248231306 
2000.0000000000000 5000.0000000000000 -4166.6666666669998 -32579156.662734374 -9628336.9904418588 -102095102.34973148 0.00022476495537853368 0.00054084840782847934 -0.0013542580107967443 1.5999999994660410 -2.4999999982604115 -2.1195971213214477 
2000.0000000000000 4000.0000000000000 -4166.6666666669998 -32579156.666564360 -9628336.9879375026 -102095102.36844414 0.00020897354657054649 0.0021061367729499404 -0.0013701984140887320 1.5999999994590157 -2.9999999981427901 -2.1195971217775504 
2000.0000000000000 5000.0000000000000 -4000.0000000000000 -31428550.553713616 -8477730.8815474529 -98015680.692092344 0.00021407193160912576 0.00078777876437201896 -0.0016669019401636103 1.5999999994846485 -2.4999999983278935 -2.4988594389783327 
2000.0000000000000 4000.0000000000000 -4000.0000000000000 -31428550.557146497 -8477730.8789372668 -98015680.709358916 0.00020035223347515541 0.0026677662176774267 -0.0016864556714508505 1.5999999994779013 -2.9999999982128824 -2.4988594395089412 
2000.0000000000000 5000.0000000000000 -3833.3333333330002 -30277841.423463318 -7327021.7514357138 -93935893.777484149 0.00020199184625978436 0.0010563985103928862 -0.0019813183415157507 1.5999999995049849 -2.4999999984034069 -2.8632329444430571 
2000.0000000000000 4000.0000000000000 -3833.3333333330002 -30277841.426542386 -7327021.7487901077 -93935893.793395758 0.00019054121747654111 0.0032422140897114325 -0.0020054365458976329 1.5999999994985594 -2.9999999982908752 -2.8632329450429532 
2000.0000000000000 5000.0000000000000 -3666.6666666669998 -29127029.262756869 -6176209.5908763725 -89855741.573166490 0.00018880884764129477 0.0013359432387671890 -0.0022937478639321199 1.5999999995268199 -2.4999999984859387 -3.2127163046219240 
2000.0000000000000 4000.0000000000000 -3666.6666666669998 -29127029.265523646 -6176209.5882601505 -89855741.587811679 0.00017979061282395243 0.0038159328746646430 -0.0023232623867774386 1.5999999995207568 -2.9999999983757379 -3.2127163052860719 
2000.0000000000000 5000.0000000000000 -3500.0000000000000 -27976114.062359758 -5025294.3906310387 -85775224.046379358 0.00017479862414930921 0.0016164086641835848 -0.0026008678262761089 1.5999999995500005 -2.4999999985746086 -3.5473081863079554 
2000.0000000000000 4000.0000000000000 -3500.0000000000000 -27976114.064853080 -5025294.3881033016 -85775224.059843361 0.00016833140956784145 0.0043766260286123345 -0.0026364016846176950 1.5999999995443337 -2.9999999984666270 -3.5473081870315117 
2000.0000000000000 5000.0000000000000 -3333.3333333330002 -26825095.813040432 -3874276.1414639861 -81694341.164380252 0.00016020634322180675 0.0018886923623040886 -0.0028996428755668933 1.5999999995744394 -2.4999999986686645 -3.8670072561683275 
2000.0000000000000 4000.0000000000000 -3333.3333333330002 -26825095.815295916 -3874276.1390782269 -81694341.176744014 0.00015635559258572846 0.0049132814011793287 -0.0029415815735391424 1.5999999995691945 -2.9999999985628736 -3.8670072569466529 
2000.0000000000000 5000.0000000000000 -3166.6666666669998 -25673974.505565327 -2723154.8341371836 -77613092.894425392 0.00014523835111049933 0.0021446149247590757 -0.0031872167542202931 1.5999999996001060 -2.4999999987674753 -4.1718121807510471 
2000.0000000000000 4000.0000000000000 -3166.6666666669998 -25673974.507615205 -2723154.8319415506 -77613092.905764922 0.00014400929936114032 0.0054159845133753722 -0.0032356900336648897 1.5999999995953027 -2.9999999986639669 -4.1718121815797069 
2000.0000000000000 5000.0000000000000 -3000.0000000000000 -24522750.130694039 -1571930.4594053533 -73531479.203751296 0.00013004978675970188 0.0023769574507695322 -0.0034607475070117322 1.5999999996270196 -2.4999999988705217 -4.4617216264900499 
2000.0000000000000 4000.0000000000000 -3000.0000000000000 -24522750.132567134 -1571930.4574430368 -73531479.214137316 0.00013138204461365872 0.0058758210932630568 -0.0035156539739191529 1.5999999996226715 -2.9999999987695491 -4.4617216273648141 
2000.0000000000000 5000.0000000000000 -2833.3333333330002 -23371422.679189995 -420603.00802668167 -69449500.059611991 0.00011473863868991488 0.0025794674069487618 -0.0037173235762142046 1.5999999996552463 -2.4999999989773909 -4.7367342596942175 
2000.0000000000000 4000.0000000000000 -2833.3333333330002 -23371422.680911846 -420603.00633628771 -69449500.069109574 0.00011850686609967292 0.0062847948721045837 -0.0037783812796993018 1.5999999996513632 -2.9999999988793888 -4.7367342606110574 
2000.0000000000000 5000.0000000000000 -2666.6666666669998 -22219992.141815349 730827.52924228378 -65367155.429260202 9.9348088224215786e-05 0.0027468413533845745 -0.0039539103413220970 1.5999999996848944 -2.4999999990877622 -4.9968487465532734 
2000.0000000000000 4000.0000000000000 -2666.6666666669998 -22219992.143408436 730827.53062637011 -65367155.437928684 0.00010536633368628071 0.0066356091192902953 -0.0040206599465262031 1.5999999996814838 -2.9999999989933817 -4.9968487475083494 
2000.0000000000000 5000.0000000000000 -2500.0000000000000 -21068458.509326126 1882361.1616515806 -61284445.279929481 8.3871664586319052e-05 0.0028746548759630230 -0.0041672112264765195 1.5999999997161110 -2.4999999992013962 -5.2420637531420518 
2000.0000000000000 4000.0000000000000 -2500.0000000000000 -21068458.510810070 1882361.1626988880 -61284445.287822336 9.1899537373102866e-05 0.0069215560281672382 -0.0042390566443773455 1.5999999997131804 -2.9999999991115276 -5.2420637541317099 
2000.0000000000000 5000.0000000000000 -2333.3333333330002 -19916821.772482660 3033997.8984473469 -57201369.578870915 6.8253043556678743e-05 0.0029593830679027875 -0.0043535679241498522 1.5999999997490824 -2.4999999993181308 -5.4723779454111412 
2000.0000000000000 4000.0000000000000 -2333.3333333330002 -19916821.773874555 3033997.8991310159 -57201369.586036071 7.8002184492785418e-05 0.0071364373448862713 -0.0044298233635474138 1.5999999997466419 -2.9999999992339266 -5.4723779464318971 
2000.0000000000000 5000.0000000000000 -2166.6666666669998 -18765081.922044568 4185737.7488769079 -53117928.293335006 5.2385485098154795e-05 0.0029983860191087836 -0.0045089266179712531 1.5999999997840353 -2.4999999994378634 -5.6877899891919634 
2000.0000000000000 4000.0000000000000 -2166.6666666669998 -18765081.923359189 4185737.7491735751 -53117928.299814865 6.3528009118280830e-05 0.0072744454505305799 -0.0045887858701291959 1.5999999997820973 -2.9999999993607633 -5.6877899902404891 
2000.0000000000000 5000.0000000000000 -2000.0000000000000 -17613238.948765621 5337580.7221939433 -49034121.390553154 3.6118439518712280e-05 0.0029898169616976349 -0.0046287159058388538 1.5999999998212338 -2.4999999995605453 -5.8882985502002461 
2000.0000000000000 4000.0000000000000 -2000.0000000000000 -17613238.950015690 5337580.7220836366 -49034121.396385096 4.8291233318419952e-05 0.0073300359173715871 -0.0047112755268042157 1.5999999998198169 -2.9999999994922999 -5.8882985512733574 
2000.0000000000000 5000.0000000000000 -1833.3333333329999 -16461292.843404207 6489526.8276480110 -44949948.837774731 1.9257880730285894e-05 0.0029327361612146116 -0.0047077238482274488 1.5999999998609840 -2.4999999996861706 -6.0739022940282670 
2000.0000000000000 4000.0000000000000 -1833.3333333329999 -16461292.844600631 6489526.8271142477 -44949948.842991523 3.2072892133444573e-05 0.0072979686107955688 -0.0047919783960060532 1.5999999998601147 -2.9999999996288698 -6.0739022951229185 
2000.0000000000000 5000.0000000000000 -1666.6666666670001 -15309243.596718324 7641576.0744896978 -40865410.602249034 1.5678926998327644e-06 0.0028271002940073327 -0.0047399911240079487 1.5999999999036378 -2.4999999998147633 -6.2445998861491470 
2000.0000000000000 4000.0000000000000 -1666.6666666670001 -15309243.597870249 7641576.0735197393 -40865410.606879078 1.4625072211190051e-05 0.0071732311508511115 -0.0048248153083864749 1.5999999999033485 -2.9999999997708642 -6.2445998872623978 
6000.0000000000000 3000.0000000000000 -4833.3333333330002 -37180551.080235362 -14229731.402689021 -118409137.16315429 0.00011183446125817933 0.00056683667697123420 0.00035986154148174844 0.79999999939412980 -3.4999999980552206 -0.45368638685278923 
6000.0000000000000 3000.0000000000000 -5000.0000000000000 -37755622.394516319 -14804802.716938723 -120448026.36838380 0.00010661937660243674 0.00027024795857517360 0.00018225052321057636 0.79999999939355082 -3.4999999980466425 0.0000000000000000 
6000.0000000000000 3000.0000000000000 -4666.6666666669998 -36030356.961962223 -13079537.284509111 -114331176.19820578 0.00012398377072227971 0.0012058057632687671 0.00069963590577401297 0.79999999939672162 -3.4999999980795522 -0.89249062514484823 
6000.0000000000000 3000.0000000000000 -4500.0000000000000 -34880059.859644979 -11929240.182344876 -110252850.10788544 0.00013648553615004701 0.0019235424498275575 0.00099968840485346899 0.79999999940261124 -3.4999999981170484 -1.3164113823895545 
6000.0000000000000 3000.0000000000000 -4333.3333333330002 -33729659.764043912 -10778840.086952196 -106174158.85942397 0.00014492935418563025 0.0026961681627465264 0.0012479851366272181 0.79999999941239364 -3.4999999981655412 -1.7254473259727374 
6000.0000000000000 3000.0000000000000 -4166.6666666669998 -32579156.665916238 -9628336.9890825301 -102095102.42004846 0.00014766356612502763 0.0035031036394833318 0.0014415086703248789 0.79999999942623468 -3.4999999982232342 -2.1195971231609501 
6000.0000000000000 3000.0000000000000 -4000.0000000000000 -31428550.556011632 -8477730.8794791810 -98015680.756964654 0.00014457677672133571 0.0043267351353871138 0.0015825812717434238 0.79999999944403788 -3.4999999982886751 -2.4988594411081597 
6000.0000000000000 3000.0000000000000 -3833.3333333330002 -30277841.425083231 -7327021.7488887617 -93935893.837394089 0.00013635273596399289 0.0051519994330974797 0.0016764837226637044 0.79999999946555345 -3.4999999983607077 -2.8632329468415736 
6000.0000000000000 3000.0000000000000 -3666.6666666669998 -29127029.263883106 -6176209.5880568838 -89855741.628556594 0.00012402622998448407 0.0059658314382050439 0.0017299347266092539 0.79999999949045009 -3.4999999984384411 -3.2127163072691007 
6000.0000000000000 3000.0000000000000 -3500.0000000000000 -27976114.063157573 -5025294.3877235055 -85775224.097652078 0.00010872170543462890 0.0067567953450031392 0.0017501225419007834 0.79999999951836132 -3.4999999985212122 -3.5473081891852543 
6000.0000000000000 3000.0000000000000 -3333.3333333330002 -26825095.813657951 -3874276.1386337578 -81694341.211898059 9.1512800875197663e-05 0.0075147239809675069 0.0017440723105306203 0.79999999954891721 -3.4999999986085646 -3.8670072592585640 
6000.0000000000000 3000.0000000000000 -3166.6666666669998 -25673974.506135669 -2723154.8315330166 -77613092.938511848 7.3355837332319534e-05 0.0082302920826661085 0.0017182891205616030 0.79999999958176271 -3.4999999987002144 -4.1718121840382674 
6000.0000000000000 3000.0000000000000 -3000.0000000000000 -24522750.131337147 -1571930.4571617255 -73531479.244691953 5.5054413014576490e-05 0.0088947796403079631 0.0016785643514837930 0.79999999961656887 -3.4999999987960453 -4.4617216299593920 
6000.0000000000000 3000.0000000000000 -2833.3333333330002 -23371422.680014346 -420603.00626586075 -69449500.097655535 3.7263201075479969e-05 0.0094997987643321308 0.0016298662195061663 0.79999999965304025 -3.4999999988960764 -4.7367342633317753 
6000.0000000000000 3000.0000000000000 -2666.6666666669998 -22219992.142919678 730827.53040820872 -65367155.464620441 2.0496926774133187e-05 0.010037006041350299 0.0015763238713887265 0.79999999969091617 -3.4999999990004591 -4.9968487503459658 
6000.0000000000000 3000.0000000000000 -2500.0000000000000 -21068458.510800827 1882361.1621190477 -61284445.312786825 5.1443990620049090e-06 0.010498007930286615 0.0015212233159072033 0.79999999972997038 -3.4999999991094599 -5.2420637570774957 
6000.0000000000000 3000.0000000000000 -2333.3333333330002 -19916821.774411049 3033997.8981199358 -57201369.609374076 -8.5159651082995849e-06 0.010874047707331866 0.0014670434435819881 0.79999999977000946 -3.4999999992234523 -5.4723779494775311 
6000.0000000000000 3000.0000000000000 -2166.6666666669998 -18765081.924504030 4185737.7476641480 -53117928.321602762 -2.0305351527300503e-05 0.011155885950983184 0.0014155001001629620 0.79999999981086833 -3.4999999993429123 -5.6877899933779457 
6000.0000000000000 3000.0000000000000 -2000.0000000000000 -17613238.951828662 5337580.7200103337 -49034121.416676491 -3.0128475931324746e-05 0.011333708548711675 0.0013675807941516563 0.79999999985240522 -3.4999999994684137 -5.8882985544948161 
6000.0000000000000 3000.0000000000000 -1833.3333333329999 -16461292.847139342 6489526.8244123617 -44949948.861818783 -3.7958733154356918e-05 0.011396896901089554 0.0013235568885213778 0.79999999989449677 -3.4999999996006208 -6.0739022984206645 
6000.0000000000000 3000.0000000000000 -1666.6666666670001 -15309243.601190671 7641576.0701248078 -40865410.624254800 -4.3821943815502267e-05 0.011333981571036411 0.0012829758871630750 0.79999999993702819 -3.4999999997402926 -6.2445998906287619 
3000.0000000000000 5000.0000000000000 -4833.3333333330002 -37180551.069448985 -14229731.400639223 -118409137.07737495 0.00058252086321101699 2.7394786444626387e-05 -0.00028760127704494196 1.3999999992435013 -2.4999999980771617 -0.45368638648421300 
3000.0000000000000 4000.0000000000000 -4833.3333333330002 -37180551.075146124 -14229731.399417708 -118409137.10379738 0.00050646266793243132 0.00032501832221519024 -0.00036119862724993225 1.3999999992220351 -2.9999999979523717 -0.45368638659617844 
3000.0000000000000 5000.0000000000000 -5000.0000000000000 -37755622.382804856 -14804802.714004453 -120448026.27915473 0.00059431112790598369 3.7821305530111444e-06 -0.00013820130205665927 1.3999999992397358 -2.4999999980689012 0.0000000000000000 
3000.0000000000000 4000.0000000000000 -5000.0000000000000 -37755622.388793349 -14804802.713043049 -120448026.30661741 0.00051742062208477203 0.00015053529594627962 -0.00017437489244599870 1.3999999992177137 -2.9999999979435037 0.0000000000000000 
3000.0000000000000 5000.0000000000000 -4666.6666666669998 -36030356.952909127 -13079537.284075100 -114331176.11907506 0.00055084863501885634 0.00011114032470079743 -0.00060443386244352732 1.3999999992540944 -2.4999999981009640 -0.89249062443367777 
3000.0000000000000 4000.0000000000000 -4666.6666666669998 -36030356.958044805 -13079537.282383556 -114331176.14347993 0.00047758898105485463 0.00071698125814191366 -0.00075343764731720963 1.3999999992340493 -2.9999999979777607 -0.89249062464979445 
3000.0000000000000 5000.0000000000000 -4500.0000000000000 -34880059.852096334 -11929240.183231248 -110252850.03490999 0.00050687606861094252 0.00026157035250325519 -0.00094946524733317817 1.3999999992702286 -2.4999999981384384 -1.3164113813602094 
3000.0000000000000 4000.0000000000000 -4500.0000000000000 -34880059.856714331 -11929240.181168064 -110252850.05742183 0.00043887775979881100 0.0011852461977138950 -0.0011719551069298518 1.3999999992520527 -2.9999999980173833 -1.3164113816730867 
3000.0000000000000 5000.0000000000000 -4333.3333333330002 -33729659.757782049 -10778840.088886272 -106174158.79212952 0.00045707249962255816 0.00046591883188041227 -0.0013085182437950745 1.3999999992908363 -2.4999999981878993 -1.7254473246481119 
3000.0000000000000 4000.0000000000000 -4333.3333333330002 -33729659.761927925 -10778840.086545169 -106174158.81287029 0.00039693522934961987 0.0017109292130969987 -0.0015978717317277631 1.3999999992747012 -2.9999999980692347 -1.7254473250507554 
3000.0000000000000 5000.0000000000000 -4166.6666666669998 -32579156.660736647 -9628336.9918153007 -102095102.35798401 0.00040568071608649973 0.00071145938092983293 -0.0016703714634873868 1.3999999993150534 -2.4999999982478336 -2.1195971215624652 
3000.0000000000000 4000.0000000000000 -4166.6666666669998 -32579156.664456338 -9628336.9892841317 -102095102.37707239 0.00035572227892662794 0.0022762990893620766 -0.0020175965370026290 1.3999999993009555 -2.9999999981315786 -2.1195971220482526 
3000.0000000000000 5000.0000000000000 -4000.0000000000000 -31428550.551724222 -8477730.8827849440 -98015680.699705467 0.00035535698208233850 0.00098591479515527393 -0.0020263572113179691 1.3999999993421921 -2.4999999983168952 -2.4988594392558294 
3000.0000000000000 4000.0000000000000 -4000.0000000000000 -31428550.555062693 -8477730.8801449351 -98015680.717255980 0.00031737195619215166 0.0028650519245821404 -0.0024216394107422178 1.3999999993300243 -2.9999999982029339 -2.4988594398184936 
3000.0000000000000 5000.0000000000000 -3833.3333333330002 -30277841.421513002 -7327021.7525639692 -93935893.784544200 0.00030764379320727549 0.0012777077240902688 -0.0023699044434761078 1.3999999993717185 -2.4999999983939003 -2.8632329447540736 
3000.0000000000000 4000.0000000000000 -3833.3333333330002 -30277841.424513303 -7327021.7498893933 -93935893.800666451 0.00028280116389725412 0.0034624344980982639 -0.0028035761895088942 1.3999999993613221 -2.9999999982820524 -2.8632329453876868 
3000.0000000000000 5000.0000000000000 -3666.6666666669998 -29127029.260870185 -6176209.5919183670 -89855741.579750121 0.00026331403578266178 0.0015760277431160522 -0.0026960912007775078 1.3999999994032306 -2.4999999984778163 -3.2127163049638594 
3000.0000000000000 4000.0000000000000 -3666.6666666669998 -29127029.263572726 -6176209.5892765382 -89855741.594547927 0.00025214243492660868 0.0040551262864672085 -0.0031591730624305238 1.3999999993944274 -2.9999999983679047 -3.2127163056628203 
3000.0000000000000 5000.0000000000000 -3500.0000000000000 -27976114.060556833 -5025294.3916064855 -85775224.052554190 0.00022262444757767798 0.0018710299340874402 -0.0030012733669678624 1.3999999994364385 -2.4999999985677590 -3.5473081866785385 
3000.0000000000000 4000.0000000000000 -3500.0000000000000 -27976114.062998988 -5025294.3890580079 -85775224.066125050 0.00022505392552851460 0.0046312244286266140 -0.0034857351733567380 1.3999999994290528 -2.9999999984596624 -3.5473081874375549 
3000.0000000000000 5000.0000000000000 -3333.3333333330002 -26825095.811338395 -3874276.1423897352 -81694341.170205280 0.00018549563661075154 0.0021538757998013410 -0.0032827041044568351 1.3999999994711456 -2.4999999986629793 -3.8670072565655818 
3000.0000000000000 4000.0000000000000 -3333.3333333330002 -26825095.813554272 -3874276.1399888722 -81694341.182639807 0.00020093259684477783 0.0051801541972896284 -0.0037815552371247372 1.3999999994650185 -2.9999999985566776 -3.8670072573796554 
3000.0000000000000 5000.0000000000000 -3166.6666666669998 -25673974.503979504 -2723154.8350275871 -77613092.899951532 0.00015164350317134823 0.0024167105954510750 -0.0035382712671615190 1.3999999995072381 -2.4999999987628558 -4.1718121811732614 
3000.0000000000000 4000.0000000000000 -3166.6666666669998 -25673974.505999938 -2723154.8328227811 -77613092.911333188 0.00017905788766721940 0.0056923935118931525 -0.0040455027563514444 1.3999999995022328 -2.9999999986584651 -4.1718121820376766 
3000.0000000000000 5000.0000000000000 -3000.0000000000000 -24522750.129238911 -1571930.4602726314 -73531479.209021866 0.00012067655487985083 0.0026526604403828832 -0.0037662713885102668 1.3999999995446688 -2.4999999988668797 -4.4617216269357476 
3000.0000000000000 4000.0000000000000 -3000.0000000000000 -24522750.131091557 -1571930.4583070246 -73531479.219426945 0.00015868467283218987 0.0061593582906055641 -0.0042767525820883705 1.3999999995406738 -2.9999999987646899 -4.4617216278460399 
3000.0000000000000 5000.0000000000000 -2833.3333333330002 -23371422.677880023 -420603.00888120494 -69449500.064663023 9.2160381863499126e-05 0.0028558110450717438 -0.0039652007628491279 1.3999999995834522 -2.4999999989746509 -4.7367342601621196 
3000.0000000000000 4000.0000000000000 -2833.3333333330002 -23371422.679589480 -420603.00719310669 -69449500.074160472 0.00013910501331100298 0.0065733235512905434 -0.0044745585199663443 1.3999999995803825 -2.9999999988751487 -4.7367342611140701 
3000.0000000000000 5000.0000000000000 -2666.6666666669998 -22219992.140665788 730827.52839164273 -65367155.434121065 6.5657109745920642e-05 0.0030211856327216000 -0.0041336309315985944 1.3999999996236547 -2.4999999990858615 -4.9968487470422724 
3000.0000000000000 4000.0000000000000 -2666.6666666669998 -22219992.142253805 730827.52976828581 -65367155.442772888 0.00011968034346193112 0.0069271694404807668 -0.0046380981495938332 1.3999999996214478 -2.9999999989897543 -4.9968487480318791 
3000.0000000000000 5000.0000000000000 -2500.0000000000000 -21068458.508353561 1882361.1607972388 -61284445.284622990 4.0753035832758270e-05 0.0031446873826823010 -0.0042700334793484892 1.3999999996653898 -2.4999999992002837 -5.2420637536511814 
3000.0000000000000 4000.0000000000000 -2500.0000000000000 -21068458.509839311 1882361.1618324674 -61284445.292484403 9.9863115499164963e-05 0.0072142976270602654 -0.0047663336126091962 1.3999999996640040 -2.9999999991085278 -5.2420637546746400 
3000.0000000000000 5000.0000000000000 -2333.3333333330002 -19916821.771705605 3033997.8975828188 -57201369.583413459 1.7074705380435505e-05 0.0032230765466742472 -0.0043726944210442584 1.3999999997088146 -2.4999999993177653 -5.4723779459395416 
3000.0000000000000 4000.0000000000000 -2333.3333333330002 -19916821.773105890 3033997.8982503535 -57201369.590533420 7.9205130964425771e-05 0.0074285611096160976 -0.0048579321651559633 1.3999999997082240 -2.9999999992315809 -5.4723779469932374 
3000.0000000000000 5000.0000000000000 -2166.6666666669998 -18765081.921484038 4185737.7479965859 -53117928.297736697 -5.7095193100232503e-06 0.0032539355260365415 -0.0044396218962243954 1.3999999997541268 -2.4999999994382147 -5.6877899897388522 
3000.0000000000000 4000.0000000000000 -2166.6666666669998 -18765081.922813531 4185737.7482736539 -53117928.304158241 5.7355214857807045e-05 0.0075641206651824704 -0.0049111872163606378 1.3999999997543187 -2.9999999993591127 -5.6877899908193319 
3000.0000000000000 5000.0000000000000 -2000.0000000000000 -17613238.948445693 5337580.7212929204 -49034121.394817799 -2.7892236050196784e-05 0.0032356781335462692 -0.0044684412341354871 1.3999999998015640 -2.4999999995615920 -5.8882985507648833 
3000.0000000000000 4000.0000000000000 -2000.0000000000000 -17613238.949717190 5337580.7211601352 -49034121.400578849 3.4056664124593177e-05 0.0076154084545955745 -0.0049239628615604276 1.3999999998025348 -2.9999999994913940 -5.8882985518688447 
3000.0000000000000 5000.0000000000000 -1833.3333333329999 -16461292.843352621 6489526.8267219504 -44949948.841899768 -4.9746019348222231e-05 0.0031675504404514452 -0.0044563128609652588 1.3999999998514026 -2.4999999996878981 -6.0739022946099306 
3000.0000000000000 4000.0000000000000 -1833.3333333329999 -16461292.844577286 6489526.8261633134 -44949948.847033881 9.1299841517893293e-06 0.0075771129008726096 -0.0048936029651192843 1.3999999998531540 -2.9999999996287632 -6.0739022957342135 
3000.0000000000000 5000.0000000000000 -1666.6666666670001 -15309243.596967060 7641576.0735347159 -40865410.606225044 -7.1553205419809171e-05 0.0030496506470308053 -0.0043998444097599577 1.3999999999039563 -2.4999999998171671 -6.2445998867470784 
3000.0000000000000 4000.0000000000000 -1666.6666666670001 -15309243.598154524 7641576.0725378469 -40865410.610761926 -1.7553344953117783e-05 0.0074441516397006184 -0.0048168645989126058 1.3999999999064963 -2.9999999997716169 -6.2445998878886524 
9000.0000000000000 3000.0000000000000 -4833.3333333330002 -37180551.081149377 -14229731.406504223 -118409137.18189986 0.00016299231095714920 0.00059364399920241182 -6.7542405478334650e-05 0.19999999976692079 -3.4999999980356753 -0.45368638693966801 
9000.0000000000000 3000.0000000000000 -5000.0000000000000 -37755622.395696342 -14804802.721065020 -120448026.38832279 0.00016710161492893032 0.00028304064163441127 -2.8341899458900649e-05 0.19999999976469524 -3.4999999980267837 0.0000000000000000 
9000.0000000000000 3000.0000000000000 -4666.6666666669998 -36030356.962426484 -13079537.287752049 -114331176.21467410 0.00015289562962562687 0.0012618264603609427 -0.00016245137106976241 0.19999999977306210 -3.4999999980607401 -0.89249062530833156 
9000.0000000000000 3000.0000000000000 -4500.0000000000000 -34880059.859801359 -11929240.185105843 -110252850.12228775 0.00014114518589352062 0.0020093169183867396 -0.00028118120123556752 0.19999999978210570 -3.4999999980990717 -1.3164113826200408 
9000.0000000000000 3000.0000000000000 -4333.3333333330002 -33729659.763995349 -10778840.089304196 -106174158.87195516 0.00013090247556117468 0.0028097563328216193 -0.00040773444987478969 0.19999999979318209 -3.4999999981483367 -1.7254473262613614 
9000.0000000000000 3000.0000000000000 -4166.6666666669998 -32579156.665737778 -9628336.9910846781 -102095102.43088688 0.00012360771499740923 0.0036419843001496005 -0.00053069099006890295 0.19999999980559838 -3.4999999982066710 -2.1195971234995969 
9000.0000000000000 3000.0000000000000 -4000.0000000000000 -31428550.555758286 -8477730.8811796699 -98015680.766272604 0.00011960935932379401 0.0044887289784861133 -0.00064262075815515757 0.19999999981883065 -3.4999999982726098 -2.4988594414894547 
9000.0000000000000 3000.0000000000000 -3833.3333333330002 -30277841.424795557 -7327021.7503273124 -93935893.845319152 0.00011860712147474138 0.0053355611442174504 -0.00073924886216347751 0.19999999983249639 -3.4999999983450181 -2.8632329472588434 
9000.0000000000000 3000.0000000000000 -3666.6666666669998 -29127029.263591141 -6176209.5892666988 -89855741.635232866 0.00011995451136401412 0.0061701552390689965 -0.00081862633308965084 0.19999999984632691 -3.4999999984230423 -3.2127163077163319 
9000.0000000000000 3000.0000000000000 -3500.0000000000000 -27976114.062883485 -5025294.3887327742 -85775224.103201821 0.00012285859680241729 0.0069817429401252008 -0.00088044999909604477 0.19999999986014008 -3.4999999985060635 -3.5473081896570440 
9000.0000000000000 3000.0000000000000 -3333.3333333330002 -26825095.813417852 -3874276.1394667313 -81694341.216432884 0.00012649560874145079 0.0077606104527182728 -0.00092550777266020730 0.19999999987381709 -3.4999999985936694 -3.8670072597500686 
9000.0000000000000 3000.0000000000000 -3166.6666666669998 -25673974.505940836 -2723154.8322108397 -77613092.942134038 0.00013008203823345788 0.0084976844710035124 -0.00095525740442725638 0.19999999988728343 -3.4999999986856229 -4.1718121845451579 
9000.0000000000000 3000.0000000000000 -3000.0000000000000 -24522750.131194908 -1571930.4577031510 -73531479.247495964 0.00013291488958957554 0.0091842948351617548 -0.00097151405996730893 0.19999999990049575 -3.4999999987818380 -4.4617216304778040 
9000.0000000000000 3000.0000000000000 -2833.3333333330002 -23371422.679928664 -420603.00668775063 -69449500.099729270 0.00013438935524961548 0.0098118765702029393 -0.00097624257105938174 0.19999999991343101 -3.4999999988823700 -4.7367342638582786 
9000.0000000000000 3000.0000000000000 -2666.6666666669998 -22219992.142891459 730827.53009061317 -65367155.466046058 0.00013399710783038339 0.010371792217333982 -0.00097142943304440665 0.19999999992607875 -3.4999999989873989 -4.9968487508775299 
9000.0000000000000 3000.0000000000000 -2500.0000000000000 -21068458.510828152 1882361.1618918546 -61284445.313641712 0.00013132247979880023 0.010855143389956681 -0.00095897668791273833 0.19999999993843676 -3.4999999990972137 -5.2420637576114624 
9000.0000000000000 3000.0000000000000 -2333.3333333330002 -19916821.774489429 3033997.8979703551 -57201369.609731898 0.00012603607861391767 0.011252615377836370 -0.00094063408529655116 0.19999999995050832 -3.4999999992122111 -5.4723779500115901 
9000.0000000000000 3000.0000000000000 -2166.6666666669998 -18765081.924626585 4185737.7475803085 -53117928.321534246 0.00011788069265410705 0.011554323473108030 -0.00091795647393543510 0.19999999996230095 -3.4999999993328830 -5.6877899939101226 
9000.0000000000000 3000.0000000000000 -2000.0000000000000 -17613238.951986320 5337580.7199811283 -49034121.416250147 0.00010666006542692349 0.011749657296729190 -0.00089226336279605656 0.19999999997382620 -3.4999999994598165 -5.8882985550234599 
9000.0000000000000 3000.0000000000000 -1833.3333333329999 -16461292.847321063 6489526.8244272992 -44949948.861101516 9.2219031952203462e-05 0.011827238071916379 -0.00086458718436916988 0.19999999998510243 -3.4999999995936903 -6.0739022989444411 
9000.0000000000000 3000.0000000000000 -1666.6666666670001 -15309243.601383762 7641576.0701738410 -40865410.623312309 7.4425278914265185e-05 0.011774709615293909 -0.00083560937318939504 0.19999999999615714 -3.4999999997352722 -6.2445998911466480 
7.2332027070000006e-30 3000.0000000000000 -4833.3333333330002 -37180551.083533362 -14229731.392824840 -118409137.11394018 -6.2058771456677776e-06 0.00056645547048761154 0.00017346442749247923 2.0000000000000000 -3.4999999980835192 -0.45368638665207772 
1000.0000000000000 3000.0000000000000 -4833.3333333330002 -37180551.083573863 -14229731.393073365 -118409137.11448656 4.4170553416441477e-05 0.00055490252429007578 8.2248497779508181e-05 1.7999999997006193 -3.4999999980850065 -0.45368638663946520 
0.0000000000000000 3000.0000000000000 -5000.0000000000000 -37755622.397303671 -14804802.706554363 -120448026.31732836 -1.2296641125225072e-05 0.00026986405130617012 8.9949681414309475e-05 2.0000000000000000 -3.4999999980746708 0.0000000000000000 
1000.0000000000000 3000.0000000000000 -5000.0000000000000 -37755622.397341512 -14804802.706766473 -120448026.31768781 3.9044622449843927e-05 0.00026442683573145659 4.4688347434255244e-05 1.7999999997007039 -3.4999999980765497 0.0000000000000000 
0.0000000000000000 3000.0000000000000 -4666.6666666669998 -36030356.966206834 -13079537.275630301 -114331176.15249334 8.0720434721152068e-06 0.0012049478751082910 0.00032326870796942964 2.0000000000000000 -3.4999999981083603 -0.89249062475480567 
1000.0000000000000 3000.0000000000000 -4666.6666666669998 -36030356.966216750 -13079537.275934545 -114331176.15338805 5.6108059514923743e-05 0.0011810178682557923 0.00013966598518044772 1.7999999997008733 -3.4999999981089926 -0.89249062473417140 
0.0000000000000000 3000.0000000000000 -4500.0000000000000 -34880059.864679940 -11929240.174343223 -110252850.06533547 2.3178959401111785e-05 0.0019196213121421407 0.00043299138764658326 2.0000000000000000 -3.4999999981461665 -1.3164113818203260 
1000.0000000000000 3000.0000000000000 -4500.0000000000000 -34880059.864607573 -11929240.174675193 -110252850.06652652 6.8493889043758896e-05 0.0018845921222791326 0.00015723943675172326 1.7999999997022320 -3.4999999981459493 -1.3164113817959018 
0.0000000000000000 3000.0000000000000 -4333.3333333330002 -33729659.769705139 -10778840.079723923 -106174158.81973772 3.4503470532823308e-05 0.0026849573414878584 0.00049607290972971242 2.0000000000000000 -3.4999999981945935 -1.7254473252335669 
1000.0000000000000 3000.0000000000000 -4333.3333333330002 -33729659.769530632 -10778840.080066161 -106174158.82117382 7.7288264161770741e-05 0.0026419218781782213 0.00012988966802537552 1.7999999997050600 -3.4999999981937373 -1.7254473252090623 
0.0000000000000000 3000.0000000000000 -4166.6666666669998 -32579156.672041558 -9628336.9825296998 -102095102.38295931 4.0638710685004477e-05 0.0034808177166385608 0.00051310227454734437 2.0000000000000000 -3.4999999982518140 -2.1195971222603918 
1000.0000000000000 3000.0000000000000 -4166.6666666669998 -32579156.671763290 -9628336.9828719571 -102095102.38459322 8.1218545637281757e-05 0.0034328276486616945 5.8498567007293610e-05 1.7999999997094813 -3.4999999982505865 -2.1195971222389471 
0.0000000000000000 3000.0000000000000 -4000.0000000000000 -31428550.562446225 -8477730.8735106010 -98015680.722232491 4.1771568651706029e-05 0.0042908697330756073 0.00048831123093238938 2.0000000000000000 -3.4999999983164121 -2.4988594400542121 
1000.0000000000000 3000.0000000000000 -4000.0000000000000 -31428550.562072620 -8477730.8738474902 -98015680.724022835 8.0439927957750768e-05 0.0042401320290757077 -5.2748088099956221e-05 1.7999999997154812 -3.4999999983150647 -2.4988594400384141 
5.6604683390000002e-31 3000.0000000000000 -3833.3333333330002 -30277841.431682389 -7327021.7434204724 -93935893.804801896 3.8791734514837443e-05 0.0051015128396519763 0.00042752542502336069 2.0000000000000000 -3.4999999983872949 -2.8632329456417542 
1000.0000000000000 3000.0000000000000 -3833.3333333330002 -30277841.431226939 -7327021.7437498318 -93935893.806713760 7.5759591864553059e-05 0.0050491950651179035 -0.00019806702536962593 1.7999999997229730 -3.4999999983860310 -2.8632329456336865 
6.4691066730000002e-31 3000.0000000000000 -3666.6666666669998 -29127029.270513132 -6176209.5830123108 -89855741.597908139 3.2816944620123874e-05 0.0059010031606123508 0.00033699389098887811 2.0000000000000000 -3.4999999984636383 -3.2127163059305053 
1000.0000000000000 3000.0000000000000 -3666.6666666669998 -29127029.269991431 -6176209.5833339924 -89855741.599912703 6.8208320911353014e-05 0.0058473343754703016 -0.00037112468091069552 1.7999999997318457 -3.4999999984626067 -3.2127163059318105 
0.0000000000000000 3000.0000000000000 -3500.0000000000000 -27976114.069695525 -5025294.3830333203 -85775224.068770587 2.4942690284085547e-05 0.0066790219461922741 0.00022283328979942724 2.0000000000000000 -3.4999999985448431 -3.5473081877145880 
1000.0000000000000 3000.0000000000000 -3500.0000000000000 -27976114.069123589 -5025294.3833484249 -85775224.070844799 5.8806588455694768e-05 0.0066234537521520451 -0.00056558113808504091 1.7999999997419847 -3.4999999985441397 -3.5473081877265424 
0.0000000000000000 3000.0000000000000 -3333.3333333330002 -26825095.819990642 -3874276.1342355264 -81694341.184625313 1.6134269693513891e-05 0.0074260843436209679 9.0670808468268837e-05 2.0000000000000000 -3.4999999986305008 -3.8670072576621766 
1000.0000000000000 3000.0000000000000 -3333.3333333330002 -26825095.819384072 -3874276.1345458953 -81694341.186751097 4.8455679210814974e-05 0.0073675931360802664 -0.00077543316196528533 1.7999999997532912 -3.4999999986301704 -3.8670072576857524 
-3.2380848400000000e-29 3000.0000000000000 -3166.6666666669998 -25673974.512158260 -2723154.8273707479 -77613092.912707493 7.1844779154668931e-06 0.0081334265889957055 -5.4461871810614049e-05 2.0000000000000000 -3.4999999987203720 -4.1718121823221814 
1000.0000000000000 3000.0000000000000 -3166.6666666669998 -25673974.511531785 -2723154.8276785635 -77613092.914870754 3.7895288998028974e-05 0.0080706851089835403 -0.00099514392729069668 1.7999999997656937 -3.4999999987204231 -4.1718121823581074 
0.0000000000000000 3000.0000000000000 -3000.0000000000000 -24522750.136951603 -1571930.4531854652 -73531479.220233515 -1.2966130412420454e-06 0.0087925787416459483 -0.00020810769144034133 2.0000000000000000 -3.4999999988143613 -4.4617216281293350 
1000.0000000000000 3000.0000000000000 -3000.0000000000000 -24522750.136319071 -1571930.4534930575 -73531479.222423404 2.7697880174713481e-05 0.0087241672508564360 -0.0012196490310125347 1.7999999997791500 -3.4999999988147730 -4.4617216281781458 
0.0000000000000000 3000.0000000000000 -2833.3333333330002 -23371422.685127802 -420603.00243126706 -69449500.074438527 -8.8481478243764840e-06 0.0093950895511691473 -0.00036634108316975587 2.0000000000000000 -3.4999999989125077 -4.7367342613932273 
1000.0000000000000 3000.0000000000000 -2833.3333333330002 -23371422.684502292 -420603.00274096674 -69449500.076646492 1.8291107178729777e-05 0.0093197260027505797 -0.0014443172094053976 1.7999999997936540 -3.4999999989132382 -4.7367342614553047 
-6.3602258699999998e-29 3000.0000000000000 -2666.6666666669998 -22219992.147442613 730827.53414049768 -65367155.442557879 -1.5144976868478931e-05 0.0099326156597201332 -0.00052563815387991764 2.0000000000000000 -3.4999999990149693 -4.9968487483042043 
1000.0000000000000 3000.0000000000000 -2666.6666666669998 -22219992.146836676 730827.53382645070 -65367155.444776796 9.9656897690973577e-06 0.0098491899128517399 -0.0016648187077586431 1.7999999998092340 -3.4999999990159556 -4.9968487483798105 
-6.8145277199999996e-29 3000.0000000000000 -2500.0000000000000 -21068458.514645383 1882361.1657838486 -61284445.291809425 -1.9981048994790268e-05 0.010396512304582370 -0.00068279439741614537 2.0000000000000000 -3.4999999991220112 -5.2420637549376492 
1000.0000000000000 3000.0000000000000 -2500.0000000000000 -21068458.514071386 1882361.1654633356 -61284445.294032887 2.8977691414870636e-06 0.010304225301707597 -0.0018770393273609171 1.7999999998259530 -3.4999999991231863 -5.2420637550269404 
0.0000000000000000 3000.0000000000000 -2333.3333333330002 -19916821.777489528 3033997.9017478218 -57201369.589430906 -2.3239709714951751e-05 0.010777762972775985 -0.00083478246248180779 2.0000000000000000 -3.4999999992340065 -5.4723779472446381 
1000.0000000000000 3000.0000000000000 -2333.3333333330002 -19916821.776960004 3033997.9014188861 -57201369.591652259 -2.8308465957609649e-06 0.010676191044677558 -0.0020769241201498163 1.7999999998439118 -3.4999999992352921 -5.4723779473476890 
-4.8621958700000000e-29 3000.0000000000000 -2166.6666666669998 -18765081.926727191 4185737.7512819665 -53117928.302661031 -2.4890743558582623e-05 0.011066895419823905 -0.00097861509993030140 2.0000000000000000 -3.4999999993514193 -5.6877899910570333 
1000.0000000000000 3000.0000000000000 -2166.6666666669998 -18765081.926255234 4185737.7509428058 -53117928.304872841 -7.2293498329923413e-06 0.010956009364693825 -0.0022603128213188627 1.7999999998632445 -3.4999999993527378 -5.6877899911738332 
0.0000000000000000 3000.0000000000000 -2000.0000000000000 -17613238.953104191 5337580.7236415399 -49034121.398721941 -2.4980154134769020e-05 0.011253717062213460 -0.0011111949741034518 2.0000000000000000 -3.4999999994748086 -5.8882985520909683 
1000.0000000000000 3000.0000000000000 -2000.0000000000000 -17613238.952703863 5337580.7232905068 -49034121.400915213 -1.0386581829166618e-05 0.011133932162254240 -0.0024228063444278140 1.7999999998841256 -3.4999999994760822 -5.8882985522214204 
0.0000000000000000 3000.0000000000000 -1833.3333333329999 -16461292.847370356 6489526.8280773629 -44949948.844856106 -2.3622874094403143e-05 0.011327281512652058 -0.0012292503716422383 2.0000000000000000 -3.4999999996048223 -6.0739022959391162 
1000.0000000000000 3000.0000000000000 -1833.3333333329999 -16461292.847057080 6489526.8277129894 -44949948.847019523 -1.2464298105637336e-05 0.011199440246273141 -0.0025596308256717296 1.7999999999067635 -3.4999999996059787 -6.0739022960830260 
0.0000000000000000 3000.0000000000000 -1666.6666666670001 -15309243.600274296 7641576.0738412235 -40865410.608308092 -2.1014817992449091e-05 0.011275850505241937 -0.0013291806804599567 2.0000000000000000 -3.4999999997421956 -6.2445998880749753 
1000.0000000000000 3000.0000000000000 -1666.6666666670001 -15309243.600065215 7641576.0734622469 -40865410.610427327 -1.3702125671761336e-05 0.011141200427002555 -0.0026654621214314625 1.7999999999314049 -3.4999999997431712 -6.2445998882320302 
3000.0000000000000 8000.0000000000000 -4833.3333333330002 -37180551.058791086 -14229731.397104328 -118409137.03418322 0.00028397466816322276 -0.00029797014928976268 -0.00013813246847963208 1.3999999992943997 -0.99999999916880900 -0.45368638631426578 
2000.0000000000000 8000.0000000000000 -4833.3333333330002 -37180551.060022652 -14229731.395110575 -118409137.02448615 0.00013724284956237597 -0.00030588342268451875 -0.00022116802562871011 1.5999999994368910 -0.99999999917725968 -0.45368638627497482 
3000.0000000000000 8000.0000000000000 -5000.0000000000000 -37755622.371646374 -14804802.710006217 -120448026.23420171 0.00028901952436455433 -0.00015246577429068133 -6.4516779490616751e-05 1.3999999992918313 -0.99999999916526450 0.0000000000000000 
2000.0000000000000 8000.0000000000000 -5000.0000000000000 -37755622.372778058 -14804802.707910575 -120448026.22414997 0.00013791762239115219 -0.00015616021263352613 -0.00010563126927638327 1.5999999994344085 -0.99999999917388860 0.0000000000000000 
3000.0000000000000 8000.0000000000000 -4666.6666666669998 -36030356.943235323 -13079537.281413779 -114331176.07934436 0.00027019856857002172 -0.00057519501931524463 -0.00030284940534273626 1.3999999993018908 -0.99999999917913462 -0.89249062410673474 
2000.0000000000000 8000.0000000000000 -4666.6666666669998 -36030356.944650732 -13079537.279614083 -114331176.07032189 0.00013523439558657584 -0.00059220779409002830 -0.00046891838036198363 1.5999999994438663 -0.99999999918713367 -0.89249062402954116 
3000.0000000000000 8000.0000000000000 -4500.0000000000000 -34880059.843368232 -11929240.181335043 -110252849.99851646 0.00025051455997047523 -0.00082529210746831976 -0.00050043641210755570 1.3999999993138363 -0.99999999919563010 -1.3164113808887603 
2000.0000000000000 8000.0000000000000 -4500.0000000000000 -34880059.844931565 -11929240.179708699 -110252849.99009977 0.00013193843070227011 -0.00085213276947173277 -0.00074431744483381007 1.5999999994544627 -0.99999999920301508 -1.3164113807751561 
3000.0000000000000 8000.0000000000000 -4333.3333333330002 -33729659.749953583 -10778840.087643690 -106174158.75894699 0.00022742376402839289 -0.0010493937492629907 -0.00072575413112027263 1.3999999993297225 -0.99999999921770044 -1.7254473240442203 
2000.0000000000000 8000.0000000000000 -4333.3333333330002 -33729659.751624621 -10778840.086168636 -106174158.75106940 0.00012743301559129668 -0.0010858406258070006 -0.0010372138146978217 1.5999999994679670 -0.99999999922438476 -1.7254473238957411 
3000.0000000000000 8000.0000000000000 -4166.6666666669998 -32579156.653756134 -9628336.9911146201 -102095102.32788323 0.00020268778189431753 -0.0012490523911978654 -0.00097244824531479788 1.3999999993490511 -0.99999999924476857 -2.1195971208377906 
2000.0000000000000 8000.0000000000000 -4166.6666666669998 -32579156.655496079 -9628336.9897692464 -102095102.32048152 0.00012183044460520379 -0.0012943275102919915 -0.0013397711819997280 1.5999999994838179 -0.99999999925071581 -2.1195971206559583 
3000.0000000000000 8000.0000000000000 -4000.0000000000000 -31428550.545536481 -8477730.8825168945 -98015680.672553971 0.00017753548480239001 -0.0014260860957651699 -0.0012339445553355454 1.3999999993713703 -0.99999999927627858 -2.4988594384216358 
2000.0000000000000 8000.0000000000000 -4000.0000000000000 -31428550.547310270 -8477730.8812809531 -98015680.665569440 0.00011527447902238561 -0.0014791109136947300 -0.0016460105945804559 1.5999999995015892 -0.99999999928148586 -2.4988594382079197 
3000.0000000000000 8000.0000000000000 -3833.3333333330002 -30277841.416061193 -7327021.7526240433 -93935893.760206386 0.00015281404542558634 -0.0015824581881361377 -0.0015039571671949029 1.3999999993962904 -0.99999999931169981 -2.8632329438212301 
2000.0000000000000 8000.0000000000000 -3833.3333333330002 -30277841.417838119 -7327021.7514790362 -93935893.753585473 0.00010792949357058379 -0.0016420174556230768 -0.0019513417274832395 1.5999999995209728 -0.99999999931618500 -2.8632329435770134 
3000.0000000000000 8000.0000000000000 -3666.6666666669998 -29127029.256097365 -6176209.5922088288 -89855741.558087736 0.00012909164322415755 -0.0017201575780427440 -0.0017767483630228866 1.3999999994234942 -0.99999999935052652 -3.2127163039428295 
2000.0000000000000 8000.0000000000000 -3666.6666666669998 -29127029.257850762 -6176209.5911381282 -89855741.551782310 9.9963450717503038e-05 -0.0017850018937182904 -0.0022522134992201100 1.5999999995417551 -0.99999999935432260 -3.2127163036693931 
3000.0000000000000 8000.0000000000000 -3500.0000000000000 -27976114.056407105 -5025294.3920380045 -85775224.033426881 0.00010673528299407362 -0.0018410964145918439 -0.0020471698661517447 1.3999999994527330 -0.99999999939228168 -3.5473081855793671 
2000.0000000000000 8000.0000000000000 -3500.0000000000000 -27976114.058113679 -5025294.3910267930 -85775224.027394384 9.1542143276782351e-05 -0.0019100204436291617 -0.0025457303207179855 1.5999999995638030 -0.99999999939542961 -3.5473081852778816 
3000.0000000000000 8000.0000000000000 -3333.3333333330002 -26825095.807757691 -3874276.1428826218 -81694341.153470933 8.5966311975256958e-05 -0.0019470333117542634 -0.0023106217114177677 1.3999999994838248 -0.99999999943651574 -3.8670072553978727 
2000.0000000000000 8000.0000000000000 -3333.3333333330002 -26825095.809396680 -3874276.1419177642 -81694341.147674382 8.2818056271883331e-05 -0.0020189135690922145 -0.0028293903725523087 1.5999999995870497 -0.99999999943906215 -3.8670072550694030 
3000.0000000000000 8000.0000000000000 -3166.6666666669998 -25673974.500916280 -2723154.8355128947 -77613092.885467052 6.6899849408849407e-05 -0.0020394909431676583 -0.0025629880268723858 1.3999999995166517 -0.99999999948280671 -4.1718121799461656 
2000.0000000000000 8000.0000000000000 -3166.6666666669998 -25673974.502468649 -2723154.8345828019 -77613092.879875064 7.3920329248520453e-05 -0.0021132900078468611 -0.0031008972303738927 1.5999999996114824 -0.99999999948480123 -4.1718121795916687 
3000.0000000000000 8000.0000000000000 -3000.0000000000000 -24522750.126644548 -1571930.4606929622 -73531479.196643561 4.9570951697383106e-05 -0.0021197063796228144 -0.0028005318489530665 1.3999999995511527 -0.99999999953075946 -4.4617216256579324 
2000.0000000000000 8000.0000000000000 -3000.0000000000000 -24522750.128092207 -1571930.4597874361 -73531479.191230252 6.4953817248381435e-05 -0.0021945042627762625 -0.0033579940998668522 1.5999999996371377 -0.99999999953225149 -4.4617216252782752 
3000.0000000000000 8000.0000000000000 -2833.3333333330002 -23371422.675709032 -420603.00919131760 -69449500.054246992 3.3951126943667140e-05 -0.0021885610908163179 -0.0030197716917313767 1.3999999995873209 -0.99999999958000441 -4.7367342588417545 
2000.0000000000000 8000.0000000000000 -2833.3333333330002 -23371422.677034143 -420603.00830139726 -69449500.048991844 5.5995843270921829e-05 -0.0022635591375752520 -0.0035983190157719822 1.5999999996640921 -0.99999999958104280 -4.7367342584377283 
3000.0000000000000 8000.0000000000000 -2666.6666666669998 -22219992.138875961 730827.52822434402 -65367155.425523311 1.9964521437979296e-05 -0.0022465468557458716 -0.0032173580745036871 1.3999999996251964 -0.99999999963019381 -4.9968487456870028 
2000.0000000000000 8000.0000000000000 -2666.6666666669998 -22219992.140060272 730827.52910652629 -65367155.420411207 4.7096314566822756e-05 -0.0023210576919307029 -0.0038192723159449788 1.5999999996924616 -0.99999999963082575 -4.9968487452593422 
3000.0000000000000 8000.0000000000000 -2500.0000000000000 -21068458.506906021 1882361.1607922800 -61284445.277699552 7.4954362076113664e-06 -0.0022937287987479138 -0.0033900278861554167 1.3999999996648662 -0.99999999968100173 -5.2420637522681091 
2000.0000000000000 8000.0000000000000 -2500.0000000000000 -21068458.507930256 1882361.1616736280 -61284445.272720605 3.8276509367437488e-05 -0.0023671693185462793 -0.0040180063033887440 1.5999999997223979 -0.99999999968127007 -5.2420637518175086 
3000.0000000000000 8000.0000000000000 -2333.3333333330002 -19916821.770564850 3033997.8977462277 -57201369.578020528 -3.6097324445344777e-06 -0.0023297095086265342 -0.0035344755528383333 1.3999999997064576 -0.99999999973211817 -5.4723779445352028 
2000.0000000000000 8000.0000000000000 -2333.3333333330002 -19916821.771408215 3033997.8986327439 -57201369.573170245 2.9530283212451927e-05 -0.0024015941816444399 -0.0041912976775372191 1.5999999997540864 -0.99999999973206222 -5.4723779440623437 
3000.0000000000000 8000.0000000000000 -2166.6666666669998 -18765081.920617886 4185737.7483205218 -53117928.293730274 -1.3538515530112433e-05 -0.0023535949490488006 -0.0036472268786616642 1.3999999997501378 -0.99999999978324783 -5.6877899883191940 
2000.0000000000000 8000.0000000000000 -2166.6666666669998 -18765081.921257500 4185737.7492174194 -53117928.289009579 2.0822098903992958e-05 -0.0024235241423645744 -0.0043354170981243952 1.5999999997877472 -0.99999999978290144 -5.6877899878247655 
3000.0000000000000 8000.0000000000000 -2000.0000000000000 -17613238.947825249 5337580.7217552140 -49034121.392053567 -2.2509957852150370e-05 -0.0023639569530367103 -0.0037246270414300810 1.3999999997961101 -0.99999999983410537 -5.8882985493352447 
2000.0000000000000 8000.0000000000000 -2000.0000000000000 -17613238.948235616 5337580.7226670012 -49034121.387468889 1.2091962903558730e-05 -0.0024315935336515597 -0.0044461056001767621 1.5999999998236367 -0.99999999983349508 -5.8882985488199742 
3000.0000000000000 8000.0000000000000 -1833.3333333329999 -16461292.842952339 6489526.8272855263 -44949948.840232894 -3.0778825398214047e-05 -0.0023588382635075225 -0.0037627506474647524 1.3999999998446155 -0.99999999988441168 -6.0739022931750108 
2000.0000000000000 8000.0000000000000 -1833.3333333329999 -16461292.843104851 6489526.8282160386 -44949948.835796393 3.2575550644495911e-06 -0.0024238896579099941 -0.0045184905086360586 1.5999999998620478 -0.99999999988355703 -6.0739022926396879 
3000.0000000000000 8000.0000000000000 -1666.6666666670001 -15309243.596764660 7641576.0741470242 -40865410.605509616 -3.8635561947325809e-05 -0.0023357040163373968 -0.0037573151398417200 1.3999999998959285 -0.99999999993388911 -6.2445998853109206 
2000.0000000000000 8000.0000000000000 -1666.6666666670001 -15309243.596627058 7641576.0750994720 -40865410.601239465 -5.7891976859324905e-06 -0.0023978942028729734 -0.0045469333751165615 1.5999999999033143 -0.99999999993280042 -6.2445998847564335 
3000.0000000000000 9000.0000000000000 -4833.3333333330002 -37180551.057441115 -14229731.395760886 -118409137.02965729 0.00014334688922123054 -0.00017572557673800485 -0.00012109534758264612 1.3999999993018670 -0.49999999958691438 -0.45368638629838948 
3000.0000000000000 10000.000000000000 -4833.3333333330002 -37180551.057006411 -14229731.395260785 -118409137.02827314 7.2426239501386958e-05 -9.4755124968105955e-05 -0.00011553545369202581 1.3999999993044046 0.0000000000000000 -0.45368638629370095 
4000.0000000000000 10000.000000000000 -4833.3333333330002 -37180551.056181215 -14229731.397301054 -118409137.03757417 6.5866184554585734e-05 -9.1577834954024968e-05 -9.5205807246359094e-05 1.1999999992500412 0.0000000000000000 -0.45368638633074188 
3000.0000000000000 9000.0000000000000 -5000.0000000000000 -37755622.370235868 -14804802.708603336 -120448026.22946694 0.00014592843648980971 -8.9541890593350615e-05 -5.6107783534926580e-05 1.3999999992994685 -0.49999999958515479 0.0000000000000000 
3000.0000000000000 10000.000000000000 -5000.0000000000000 -37755622.369781792 -14804802.708083943 -120448026.22801635 7.3777520882191975e-05 -4.8209900798251026e-05 -5.3358156637323148e-05 1.3999999993020693 0.0000000000000000 0.0000000000000000 
4000.0000000000000 10000.000000000000 -5000.0000000000000 -37755622.369033724 -14804802.710199855 -120448026.23757060 6.6851755988967188e-05 -4.6690962437033744e-05 -4.4480824362177934e-05 1.1999999992470796 0.0000000000000000 0.0000000000000000 
3000.0000000000000 9000.0000000000000 -4666.6666666669998 -36030356.942006484 -13079537.280187933 -114331176.07523237 0.00013630869545790543 -0.00034132059603376698 -0.00026857939219096858 1.3999999993089163 -0.49999999959204805 -0.89249062407647017 
3000.0000000000000 10000.000000000000 -4666.6666666669998 -36030356.941610701 -13079537.279726408 -114331176.07398012 6.8756517857658791e-05 -0.00018448649405460016 -0.00025743907948226629 1.3999999993112924 0.0000000000000000 -0.89249062406756385 
4000.0000000000000 10000.000000000000 -4666.6666666669998 -36030356.940634407 -13079537.281616168 -114331176.08278525 6.3131274854440832e-05 -0.00017782627399033957 -0.00020840878908868793 1.1999999992585542 0.0000000000000000 -0.89249062414018654 
3000.0000000000000 9000.0000000000000 -4500.0000000000000 -34880059.842259921 -11929240.180223268 -110252849.99481046 0.00012627464336064395 -0.00049340738383086581 -0.00044965410522723525 1.3999999993202630 -0.49999999960026564 -1.3164113808455591 
3000.0000000000000 10000.000000000000 -4500.0000000000000 -34880059.841903150 -11929240.179799937 -110252849.99368794 6.3556700623645823e-05 -0.00026746833664404254 -0.00043323620446846531 1.3999999993224228 0.0000000000000000 -1.3164113808328937 
4000.0000000000000 10000.000000000000 -4500.0000000000000 -34880059.840788119 -11929240.181543045 -110252850.00201872 5.9128565119046563e-05 -0.00025720515085234764 -0.00034349242148926876 1.1999999992719355 0.0000000000000000 -1.3164113809397433 
3000.0000000000000 9000.0000000000000 -4333.3333333330002 -33729659.748963781 -10778840.086640753 -106174158.75563800 0.00011452669473071327 -0.00063217820792971203 -0.00066024321960819288 1.3999999993354688 -0.49999999961128083 -1.7254473239894976 
3000.0000000000000 10000.000000000000 -4333.3333333330002 -33729659.748645611 -10778840.086254582 -106174158.75464258 5.7505653463553829e-05 -0.00034369926762927762 -0.00063920054846470977 1.3999999993373875 0.0000000000000000 -1.7254473239735204 
4000.0000000000000 10000.000000000000 -4333.3333333330002 -33729659.747413859 -10778840.087858757 -106174158.76252192 5.4321993345135907e-05 -0.00033005978073825498 -0.00049713487381588596 1.1999999992896082 0.0000000000000000 -1.7254473241133030 
3000.0000000000000 9000.0000000000000 -4166.6666666669998 -32579156.652881600 -9628336.9902141057 -102095102.32496108 0.00010195899351588895 -0.00075805709337084548 -0.00089455769907017125 1.3999999993540864 -0.49999999962481173 -2.1195971207729234 
3000.0000000000000 10000.000000000000 -4166.6666666669998 -32579156.652601201 -9628336.9898636043 -102095102.32408974 5.1064880890115725e-05 -0.00041330289480601384 -0.00086971342776595302 1.3999999993557557 0.0000000000000000 -2.1195971207540705 
4000.0000000000000 10000.000000000000 -4166.6666666669998 -32579156.651280079 -9628336.9913390428 -102095102.33154169 4.9069160180096428e-05 -0.00039672483539128273 -0.00066569440601936633 1.1999999993110684 0.0000000000000000 -2.1195971209255280 
3000.0000000000000 9000.0000000000000 -4000.0000000000000 -31428550.544773050 -8477730.8817116842 -98015680.670007199 8.9193827745235959e-05 -0.00087163952514486521 -0.0011462256705742436 1.3999999993756964 -0.49999999964058350 -2.4988594383479668 
3000.0000000000000 10000.000000000000 -4000.0000000000000 -31428550.544529255 -8477730.8813950736 -98015680.669256464 4.4550971881707313e-05 -0.00047649978694229477 -0.0011184497210390758 1.3999999993771208 0.0000000000000000 -2.4988594383266607 
4000.0000000000000 10000.000000000000 -4000.0000000000000 -31428550.543148294 -8477730.8827533778 -98015680.676305875 4.3639213814364671e-05 -0.00045753652440545366 -0.00084518967858900084 1.1999999993358761 0.0000000000000000 -2.4988594385285561 
3000.0000000000000 9000.0000000000000 -3833.3333333330002 -30277841.415403984 -7327021.7519067302 -93935893.758022159 7.6661997855010863e-05 -0.00097362635358669389 -0.0014089667406397854 1.3999999993999344 -0.49999999965833009 -2.8632329437400590 
3000.0000000000000 10000.000000000000 -3833.3333333330002 -30277841.415195357 -7327021.7516220752 -93935893.757388070 3.8179902482645935e-05 -0.00053356725707073718 -0.0013791206113385097 1.3999999994011239 0.0000000000000000 -2.8632329437167119 
4000.0000000000000 10000.000000000000 -3833.3333333330002 -30277841.413784292 -7327021.7528754901 -93935893.764059961 3.8229047750819205e-05 -0.00051281403340112952 -0.0010315006087116101 1.1999999993636463 0.0000000000000000 -2.8632329439478257 
3000.0000000000000 9000.0000000000000 -3666.6666666669998 -29127029.255540989 -6176209.5915721254 -89855741.556251794 6.4655193005669725e-05 -0.0010647664183077417 -0.0016769173375752150 1.3999999994264944 -0.49999999967779540 -3.2127163038554127 
3000.0000000000000 10000.000000000000 -3666.6666666669998 -29127029.255365893 -6176209.5913174786 -89855741.555729881 3.2097726861742339e-05 -0.00058481904064068969 -0.0016458004575091605 1.3999999994274650 0.0000000000000000 -3.2127163038304207 
4000.0000000000000 10000.000000000000 -3666.6666666669998 -29127029.253953427 -6176209.5924782977 -89855741.562048867 3.2977085918852510e-05 -0.00056285633723711891 -0.0012204354247322370 1.1999999993940491 0.0000000000000000 -3.2127163040895494 
3000.0000000000000 9000.0000000000000 -3500.0000000000000 -27976114.055945892 -5025294.3914751289 -85775224.031923726 5.3364630885055236e-05 -0.0011457941177019570 -0.0019447094907492572 1.3999999994551375 -0.49999999969873438 -3.5473081854869113 
3000.0000000000000 10000.000000000000 -3500.0000000000000 -27976114.055802580 -5025294.3912486639 -85775224.031509057 2.6399868140529864e-05 -0.00063056540165499575 -0.0019130343534849254 1.3999999994559071 0.0000000000000000 -3.5473081854606563 
4000.0000000000000 10000.000000000000 -3500.0000000000000 -27976114.054415759 -5025294.3923288444 -85775224.037498698 2.7976942816368716e-05 -0.00060793645823815836 -0.0014078886343273627 1.1999999994268080 0.0000000000000000 -3.5473081857466124 
3000.0000000000000 9000.0000000000000 -3333.3333333330002 -26825095.807385813 -3874276.1423875941 -81694341.152283698 4.2907824296674498e-05 -0.0012173887583072514 -0.0022074802104393994 1.3999999994856867 -0.49999999972091352 -3.8670072553015311 
3000.0000000000000 10000.000000000000 -3333.3333333330002 -26825095.807272453 -3874276.1421877095 -81694341.151970834 2.1143914145082261e-05 -0.00067108981843526502 -0.0021758644557389843 1.3999999994862748 0.0000000000000000 -3.8670072552743773 
4000.0000000000000 10000.000000000000 -3333.3333333330002 -26825095.805936486 -3874276.1431986513 -81694341.157653257 2.3287525419113551e-05 -0.00064828660840386958 -0.0015899092939718781 1.1999999994616974 0.0000000000000000 -3.8670072555859938 
3000.0000000000000 9000.0000000000000 -3166.6666666669998 -25673974.500627868 -2723154.8350808313 -77613092.884577602 3.3347761769501670e-05 -0.0012801348345145890 -0.0024608218773898875 1.3999999995180259 -0.49999999974411130 -4.1718121798470316 
3000.0000000000000 10000.000000000000 -3166.6666666669998 -25673974.500542603 -2723154.8349062572 -77613092.884360656 1.6360687848918678e-05 -0.00070664415136833842 -0.0024297815218905926 1.3999999995184524 0.0000000000000000 -4.1718121798193204 
4000.0000000000000 10000.000000000000 -3166.6666666669998 -25673974.499280866 -2723154.8358585862 -77613092.889755934 1.8941586824863015e-05 -0.00068408519231304469 -0.0017627366051515456 1.1999999994985413 0.0000000000000000 -4.1718121801554471 
3000.0000000000000 9000.0000000000000 -3000.0000000000000 -24522750.126433801 -1571930.4603203244 -73531479.196032569 2.4705435140553345e-05 -0.0013344932572193497 -0.0027007136539716780 1.3999999995520940 -0.49999999976811699 -4.4617216255570300 
3000.0000000000000 10000.000000000000 -3000.0000000000000 -24522750.126374777 -1571930.4601702015 -73531479.195905223 1.2058933825785569e-05 -0.00073741588633706564 -0.0026706671666639121 1.3999999995523789 0.0000000000000000 -4.4617216255290835 
4000.0000000000000 10000.000000000000 -3000.0000000000000 -24522750.125209063 -1571930.4610737320 -73531479.201031148 1.4950839694125451e-05 -0.00071544174104581405 -0.0019228711831597513 1.1999999995372101 0.0000000000000000 -4.4617216258885852 
3000.0000000000000 9000.0000000000000 -2833.3333333330002 -23371422.675570287 -420603.00887610752 -69449500.053893924 1.6969010248693492e-05 -0.0013807581967983798 -0.0029233973174838412 1.3999999995878822 -0.49999999979273102 -4.7367342587400367 
3000.0000000000000 10000.000000000000 -2833.3333333330002 -23371422.675535671 -420603.00875006407 -69449500.053849369 8.2333858913346343e-06 -0.00076351019428476646 -0.0028946560315759704 1.3999999995880443 0.0000000000000000 -4.7367342587121515 
4000.0000000000000 10000.000000000000 -2833.3333333330002 -23371422.674486425 -420603.00961371046 -69449500.058721036 1.1311746622912122e-05 -0.00074238263759561658 -0.0020670240546054510 1.1999999995776165 0.0000000000000000 -4.7367342590939066 
3000.0000000000000 9000.0000000000000 -2666.6666666669998 -22219992.138803788 730827.52848234738 -65367155.425406620 1.0098658320307010e-05 -0.0014190392815323111 -0.0031252484903168975 1.3999999996254284 -0.49999999981776388 -4.9968487455853401 
3000.0000000000000 10000.000000000000 -2666.6666666669998 -22219992.138791803 730827.52858411171 -65367155.425437696 4.8637916266548833e-06 -0.00078495106984968451 -0.0030980366959676201 1.3999999996254859 0.0000000000000000 -4.9968487455577888 
4000.0000000000000 10000.000000000000 -2666.6666666669998 -22219992.137878463 730827.52775234776 -65367155.430067278 8.0072801661153132e-06 -0.00076485042257989921 -0.0021921149633472759 1.1999999996197137 0.0000000000000000 -4.9968487459606781 
3000.0000000000000 9000.0000000000000 -2500.0000000000000 -21068458.506895270 1882361.1609913474 -61284445.277796745 4.0302816992613588e-06 -0.0014492428101370769 -0.0033027541796939340 1.3999999996648145 -0.49999999984303478 -5.2420637521672875 
3000.0000000000000 10000.000000000000 -2500.0000000000000 -21068458.506904274 1882361.1610679752 -61284445.277896002 1.9124650084865103e-06 -0.00080166128028997326 -0.0032772101723891212 1.3999999996647838 0.0000000000000000 -5.2420637521403091 
4000.0000000000000 10000.000000000000 -2500.0000000000000 -21068458.506145544 1882361.1602610219 -61284445.282292545 5.0076171268093626e-06 -0.00078269796220998796 -0.0022953029886517064 1.1999999996634907 0.0000000000000000 -5.2420637525632143 
3000.0000000000000 9000.0000000000000 -2333.3333333330002 -19916821.770610675 3033997.8978825696 -57201369.578308068 -1.3190706965454268e-06 -0.0014710495483920643 -0.0034523794671819097 1.3999999997061638 -0.49999999986837024 -5.4723779444359133 
3000.0000000000000 10000.000000000000 -2333.3333333330002 -19916821.770639081 3033997.8979325332 -57201369.578467645 -6.6400787316377381e-07 -0.00081344886849968453 -0.0034285507987957889 1.3999999997060597 0.0000000000000000 -5.4723779444097191 
4000.0000000000000 10000.000000000000 -2333.3333333330002 -19916821.770053305 3033997.8971441975 -57201369.582637042 2.2797405772838777e-06 -0.00079566981356624892 -0.0023739355288152349 1.1999999997089688 0.0000000000000000 -5.4723779448515089 
3000.0000000000000 9000.0000000000000 -2166.6666666669998 -18765081.920715768 4185737.7483881395 -53117928.294183686 -6.0517995961219796e-06 -0.0014838929978849935 -0.0035704431198204855 1.3999999997496368 -0.49999999989360328 -5.6877899882220300 
3000.0000000000000 10000.000000000000 -2166.6666666669998 -18765081.920762081 4185737.7484092093 -53117928.294395290 -2.9181500039187447e-06 -0.00081999873822243973 -0.0035483141619008906 1.3999999997494723 0.0000000000000000 -5.6877899881967950 
4000.0000000000000 10000.000000000000 -2166.6666666669998 -18765081.920367442 4185737.7476341813 -53117928.298340105 -2.1663909059980276e-07 -0.00080339100488298267 -0.0024255277779726254 1.1999999997561994 0.0000000000000000 -5.6877899886563164 
3000.0000000000000 9000.0000000000000 -2000.0000000000000 -17613238.947971087 5337580.7217457453 -49034121.392647572 -1.0290502604243846e-05 -0.0014869449686802385 -0.0036531358221590683 1.3999999997954315 -0.49999999991857041 -5.8882985492406910 
3000.0000000000000 10000.000000000000 -2000.0000000000000 -17613238.948033959 5337580.7217348972 -49034121.392902672 -4.9180781071022723e-06 -0.00082086948809221715 -0.0036326443455559484 1.3999999997952168 0.0000000000000000 -5.8882985492165538 
4000.0000000000000 10000.000000000000 -2000.0000000000000 -17613238.947848689 5337580.7209687391 -49034121.396622151 -2.5351591967926057e-06 -0.00080537242323340075 -0.0024478216296012142 1.1999999998052580 0.0000000000000000 -5.8882985496926192 
3000.0000000000000 9000.0000000000000 -1833.3333333329999 -16461292.843142446 6489526.8271881547 -44949948.840941384 -1.4177259083473418e-05 -0.0014791107192937258 -0.0036964028621936165 1.3999999998437802 -0.49999999994311078 -6.0739022930834414 
3000.0000000000000 10000.000000000000 -1833.3333333329999 -16461292.843220659 6489526.8271415560 -44949948.841231115 -6.7411012963838340e-06 -0.00081549132876544911 -0.0036774360865529125 1.3999999998435220 0.0000000000000000 -6.0739022930605033 
4000.0000000000000 10000.000000000000 -1833.3333333329999 -16461292.843263188 6489526.8263806896 -44949948.844721198 -4.7327236924067948e-06 -0.00080100748194098111 -0.0024387204133266135 1.1999999998562421 0.0000000000000000 -6.0739022935518765 
3000.0000000000000 9000.0000000000000 -1666.6666666670001 -15309243.596995795 7641576.0739483787 -40865410.606305659 -1.7874605630627881e-05 -0.0014590063645190728 -0.0036958732722005782 1.3999999998949484 -0.49999999996706362 -6.2445998852225832 
3000.0000000000000 10000.000000000000 -1666.6666666670001 -15309243.597088285 7641576.0738613456 -40865410.606620871 -8.4734468315046192e-06 -0.00080314919780522073 -0.0036782958388801613 1.3999999998946511 0.0000000000000000 -6.2445998852009081 
4000.0000000000000 10000.000000000000 -1666.6666666670001 -15309243.597377250 7641576.0731030786 -40865410.609874129 -6.8718082001953860e-06 -0.00078956567757475389 -0.0023963446046962227 1.1999999999092676 0.0000000000000000 -6.2445998857062932 
10000.000000000000 8000.0000000000000 -4833.3333333330002 -37180551.059101030 -14229731.406725641 -118409137.07483350 0.00010421098768911885 -0.00028213203216904877 3.7680017657352196e-05 0.0000000000000000 -0.99999999913355841 -0.45368638648182713 
10000.000000000000 7000.0000000000000 -4833.3333333330002 -37180551.061405510 -14229731.408645155 -118409137.08488286 0.00016946682599061730 -0.00028769134546024111 4.1348859289391328e-05 0.0000000000000000 -1.4999999987021291 -0.45368638652008758 
10000.000000000000 8000.0000000000000 -5000.0000000000000 -37755622.372387514 -14804802.720101809 -120448026.27655080 0.00010580866539996572 -0.00014520394907563340 1.9575368813306529e-05 0.0000000000000000 -0.99999999912967685 0.0000000000000000 
10000.000000000000 7000.0000000000000 -5000.0000000000000 -37755622.374819800 -14804802.722151600 -120448026.28707823 0.00017220042001253675 -0.00015034046795407165 2.1970816174053250e-05 0.0000000000000000 -1.4999999986962924 0.0000000000000000 
10000.000000000000 8000.0000000000000 -4666.6666666669998 -36030356.942754634 -13079537.290117821 -114331176.11668837 9.9645448860399626e-05 -0.00054017538808018815 7.1074666519075545e-05 0.0000000000000000 -0.99999999914482340 -0.89249062442914651 
10000.000000000000 7000.0000000000000 -4666.6666666669998 -36030356.944814011 -13079537.291786751 -114331176.12579753 0.00016168311218660276 -0.00053815527004413073 7.5260036826677309e-05 0.0000000000000000 -1.4999999987190218 -0.89249062450227945 
10000.000000000000 8000.0000000000000 -4500.0000000000000 -34880059.842237137 -11929240.189184563 -110252850.03273533 9.2677118825852065e-05 -0.00076804455605242314 9.9164348032145205e-05 0.0000000000000000 -0.99999999916272631 -1.3164113813539362 
10000.000000000000 7000.0000000000000 -4500.0000000000000 -34880059.844071411 -11929240.190623974 -110252850.04093726 0.00014986743650321842 -0.00074349252152934705 0.00010030407599148042 0.0000000000000000 -1.4999999987457702 -1.3164113814586165 
10000.000000000000 8000.0000000000000 -4333.3333333330002 -33729659.748305321 -10778840.094701383 -106174158.79021858 8.3986598972934489e-05 -0.00096867078732878272 0.00012262528261853005 0.0000000000000000 -0.99999999918655225 -1.7254473246406699 
10000.000000000000 7000.0000000000000 -4333.3333333330002 -33729659.749932393 -10778840.095933970 -106174158.79754835 0.00013522283393399044 -0.00091022597914206763 0.00011819995204270693 0.0000000000000000 -1.4999999987812487 -1.7254473247736482 
10000.000000000000 8000.0000000000000 -4166.6666666669998 -32579156.651715990 -9628336.9974424392 -102095102.35638185 7.4225885969902926e-05 -0.0011449694825275537 0.00014215372094653360 0.0000000000000000 -0.99999999921562344 -2.1195971215545941 
10000.000000000000 7000.0000000000000 -4166.6666666669998 -32579156.653151877 -9628336.9984914809 -102095102.36287622 0.00011888053260148628 -0.0010445071259326715 0.00013066597198581085 0.0000000000000000 -1.4999999988244104 -2.1195971217127121 
10000.000000000000 8000.0000000000000 -4000.0000000000000 -31428550.543220967 -8477730.8881753646 -98015680.698450118 6.3958357398630100e-05 -0.0012997248181176820 0.00015839040525484214 0.0000000000000000 -0.99999999924930083 -2.4988594392484273 
10000.000000000000 7000.0000000000000 -4000.0000000000000 -31428550.544480070 -8477730.8890639469 -98015680.704147398 0.00010179770577195199 -0.0011520423326092015 0.00013918439140678959 0.0000000000000000 -1.4999999988742907 -2.4988594394286352 
10000.000000000000 8000.0000000000000 -3833.3333333330002 -30277841.413577411 -7327021.7576717213 -93935893.783666268 5.3640171744231000e-05 -0.0014355664078839186 0.00017188198769606670 0.0000000000000000 -0.99999999928698646 -2.8632329447481832 
10000.000000000000 7000.0000000000000 -3833.3333333330002 -30277841.414672777 -7327021.7584220590 -93935893.788606018 8.4733319266253005e-05 -0.0012380543904386414 0.00014494254221090336 0.0000000000000000 -1.4999999989300037 -2.8632329449475487 
10000.000000000000 8000.0000000000000 -3666.6666666669998 -29127029.253542647 -6176209.5967018455 -89855741.579272762 4.3623960278421083e-05 -0.0015549053797108735 0.00018309171892053229 0.0000000000000000 -0.99999999932812267 -3.2127163049606464 
10000.000000000000 7000.0000000000000 -3666.6666666669998 -29127029.254486263 -6176209.5973347528 -89855741.583495647 6.8260385666037111e-05 -0.0013072760196419519 0.00014885152983355182 0.0000000000000000 -1.4999999989907404 -3.2127163051763690 
10000.000000000000 8000.0000000000000 -3500.0000000000000 -27976114.053868964 -5025294.3960297201 -85775224.052493080 3.4166559706606411e-05 -0.0016598822552851889 0.00019239273777018335 0.0000000000000000 -0.99999999937219197 -3.5473081866792677 
10000.000000000000 7000.0000000000000 -3500.0000000000000 -27976114.054671943 -5025294.3965641530 -85775224.056040883 5.2785230841837999e-05 -0.0013639017551455082 0.00015156172630602661 0.0000000000000000 -1.4999999990557660 -3.5473081869086878 
10000.000000000000 8000.0000000000000 -3333.3333333330002 -26825095.805313975 -3874276.1464234311 -81694341.170568615 2.5446959546315275e-05 -0.0017523572578168954 0.00020008187374988851 0.0000000000000000 -0.99999999941871520 -3.8670072565715876 
10000.000000000000 7000.0000000000000 -3333.3333333330002 -26825095.805986721 -3874276.1468760869 -81694341.173484087 3.8579679469347673e-05 -0.0014115816840916055 0.00015351776838249212 0.0000000000000000 -1.4999999991244128 -3.8670072568121960 
10000.000000000000 8000.0000000000000 -3166.6666666669998 -25673974.498635396 -2723154.8386500292 -77613092.900740236 1.7579877218756573e-05 -0.0018338413829976064 0.00020638538185706686 0.0000000000000000 -0.99999999946724949 -4.1718121811859170 
10000.000000000000 7000.0000000000000 -3166.6666666669998 -25673974.499187741 -2723154.8390350537 -77613092.903067201 2.5808390934921243e-05 -0.0014533537109742503 0.00015499366080704566 0.0000000000000000 -1.4999999991960791 -4.1718121814353655 
10000.000000000000 8000.0000000000000 -3000.0000000000000 -24522750.124585845 -1571930.4634704059 -73531479.210229799 1.0623683361190976e-05 -0.0019055020921727869 0.00021146619096199063 0.0000000000000000 -0.99999999951738661 -4.4617216269564262 
10000.000000000000 7000.0000000000000 -3000.0000000000000 -24522750.125027057 -1571930.4637990391 -73531479.212012812 1.4546404026213804e-05 -0.0014916414053423271 0.00015614102942013868 0.0000000000000000 -1.4999999992702220 -4.4617216272125368 
10000.000000000000 8000.0000000000000 -2833.3333333330002 -23371422.673923209 -420603.01164977369 -69449500.066277176 4.5929198630285216e-06 -0.0019681245154556113 0.00021543102374456733 0.0000000000000000 -0.99999999956875008 -4.7367342601921685 
10000.000000000000 7000.0000000000000 -2833.3333333330002 -23371422.674262069 -420603.01193012937 -69449500.067561522 4.7990543565037681e-06 -0.0015282282297807456 0.00015700879037447522 0.0000000000000000 -1.4999999993463535 -4.7367342604529332 
10000.000000000000 8000.0000000000000 -2666.6666666669998 -22219992.137405448 730827.52604745305 -65367155.436121680 -5.3347280595422548e-07 -0.0020220706552876353 0.00021833689871364386 0.0000000000000000 -0.99999999962099140 -4.9968487470829679 
10000.000000000000 7000.0000000000000 -2666.6666666669998 -22219992.137650277 730827.52581059549 -65367155.436953336 -3.4808923110810633e-06 -0.0015642235197346878 0.00015756201050387393 0.0000000000000000 -1.4999999994240345 -4.9968487473465668 
10000.000000000000 8000.0000000000000 -2500.0000000000000 -21068458.505785305 1882361.1588628446 -61284445.286983490 -4.8077104083643370e-06 -0.0020672813582204123 0.00022019282427290120 0.0000000000000000 -0.99999999967378772 -5.2420637537036976 
10000.000000000000 7000.0000000000000 -2500.0000000000000 -21068458.505943961 1882361.1586682242 -61284445.287408963 -1.0385738267665872e-05 -0.0016000604561848522 0.00015771647945901317 0.0000000000000000 -1.4999999995028690 -5.2420637539684956 
10000.000000000000 8000.0000000000000 -2333.3333333330002 -19916821.769820742 3033997.8960334240 -57201369.586100712 -8.3121911984478308e-06 -0.0021032353518467303 0.00022095448393625461 0.0000000000000000 -0.99999999972683884 -5.4723779460049116 
10000.000000000000 7000.0000000000000 -2333.3333333330002 -19916821.769900687 3033997.8958834102 -57201369.586167075 -1.6048740194520243e-05 -0.0016354768199480256 0.00015734696827866650 0.0000000000000000 -1.4999999995824989 -5.4723779462694706 
10000.000000000000 8000.0000000000000 -2166.6666666669998 -18765081.920269739 4185737.7467967691 -53117928.300710939 -1.1154835505156517e-05 -0.0021289304434463398 0.00022055020274771241 0.0000000000000000 -0.99999999977986198 -5.6877899898179303 
10000.000000000000 7000.0000000000000 -2166.6666666669998 -18765081.920277946 4185737.7466976037 -53117928.300465517 -2.0634954958624085e-05 -0.0016695086597586604 0.00015630478796612571 0.0000000000000000 -1.4999999996625968 -5.6877899900810149 
10000.000000000000 8000.0000000000000 -2000.0000000000000 -17613238.947885029 5337580.7203961667 -49034121.398032762 -1.3464239592826819e-05 -0.0021428796319658719 0.00021887785422253995 0.0000000000000000 -0.99999999983258825 -5.8882985508583108 
10000.000000000000 7000.0000000000000 -2000.0000000000000 -17613238.947827995 5337580.7203581026 -49034121.397522956 -2.4341701315052845e-05 -0.0017004547724282339 0.00015443384840073369 0.0000000000000000 -1.4999999997428608 -5.8882985511188881 
10000.000000000000 8000.0000000000000 -1833.3333333329999 -16461292.843424508 6489526.8260701047 -44949948.845302626 -1.5392253210209854e-05 -0.0021430907514565284 0.00021579222775342720 0.0000000000000000 -0.99999999988475852 -6.0739022947180947 
10000.000000000000 7000.0000000000000 -1833.3333333329999 -16461292.843308294 6489526.8261075178 -44949948.844575994 -2.7400488295511096e-05 -0.0017258973093517015 0.00015156748196433215 0.0000000000000000 -1.4999999998230069 -6.0739022949753423 
10000.000000000000 8000.0000000000000 -1666.6666666670001 -15309243.597645957 7641576.0730574299 -40865410.609756254 -1.7112547618788042e-05 -0.0021270423653495510 0.00021110542782683690 0.0000000000000000 -0.99999999993611888 -6.2445998868700796 
10000.000000000000 7000.0000000000000 -1666.6666666670001 -15309243.597476214 7641576.0731889792 -40865410.608860463 -3.0076320919031514e-05 -0.0017426614244133217 0.00014752707579133854 0.0000000000000000 -1.4999999999027622 -6.2445998871233908 
8000.0000000000000 10000.000000000000 -4833.3333333330002 -37180551.056768127 -14229731.403831633 -118409137.06511015 4.6250461911380204e-05 -8.7645477553503868e-05 0.00011220335278532485 0.39999999967140143 0.0000000000000000 -0.45368638644638432 
8000.0000000000000 10000.000000000000 -5000.0000000000000 -37755622.369920537 -14804802.717067413 -120448026.26633297 4.6645066442789284e-05 -4.4622869010275287e-05 5.7810526309974786e-05 0.39999999966988198 0.0000000000000000 0.0000000000000000 
8000.0000000000000 10000.000000000000 -4666.6666666669998 -36030356.940680698 -13079537.287500342 -114331176.10793945 4.5075547370268873e-05 -0.00017059718104438861 0.00021436729789929239 0.39999999967580552 0.0000000000000000 -0.89249062436182069 
8000.0000000000000 10000.000000000000 -4500.0000000000000 -34880059.840404041 -11929240.186833635 -110252850.02493057 4.3172949948473222e-05 -0.00024751345541300802 0.00030371577511488582 0.39999999968279221 0.0000000000000000 -1.3164113812581915 
8000.0000000000000 10000.000000000000 -4333.3333333330002 -33729659.746695414 -10778840.092604347 -106174158.78332523 4.0659275534100925e-05 -0.00031864449822332705 0.00038118420387882687 0.39999999969207278 0.0000000000000000 -1.7254473245198640 
8000.0000000000000 10000.000000000000 -4166.6666666669998 -32579156.650312349 -9628336.9955846649 -102095102.35036473 3.7685974659555012e-05 -0.00038418230476720545 0.00044785229257610006 0.39999999970337330 0.0000000000000000 -2.1195971214119700 
8000.0000000000000 10000.000000000000 -4000.0000000000000 -31428550.542007487 -8477730.8865410089 -98015680.693271607 3.4404350320762041e-05 -0.00044431192397204641 0.00050484898685319575 0.39999999971643502 0.0000000000000000 -2.4988594390871048 
8000.0000000000000 10000.000000000000 -3833.3333333330002 -30277841.412538882 -7327021.7562443707 -93935893.779286355 3.0950830365374008e-05 -0.00049922837475961559 0.00055330569361217619 0.39999999973101469 0.0000000000000000 -2.8632329445711484 
8000.0000000000000 10000.000000000000 -3666.6666666669998 -29127029.252664849 -6176209.5954651618 -89855741.575649112 2.7440737982014946e-05 -0.00054913193182168764 0.00059433733038420449 0.39999999974688555 0.0000000000000000 -3.2127163047707397 
8000.0000000000000 10000.000000000000 -3500.0000000000000 -27976114.053138748 -5025294.3949680226 -85775224.049581259 2.3966483076651713e-05 -0.00059421963446189426 0.00062897936717572699 0.39999999976383765 0.0000000000000000 -3.5473081864791736 
8000.0000000000000 10000.000000000000 -3333.3333333330002 -26825095.804719277 -3874276.1455221456 -81694341.168322101 2.0598641892457063e-05 -0.00063467334481974685 0.00065816188782018693 0.39999999978167727 0.0000000000000000 -3.8670072563638249 
8000.0000000000000 10000.000000000000 -3166.6666666669998 -25673974.498165324 -2723154.8378961836 -77613092.899110734 1.7387838533815448e-05 -0.00067063864147588477 0.00068268115188825456 0.39999999980022721 0.0000000000000000 -4.1718121809728279 
8000.0000000000000 10000.000000000000 -3000.0000000000000 -24522750.124230735 -1571930.4628530161 -73531479.209167480 1.4366850398628419e-05 -0.00070221536323179616 0.00070319266568060238 0.39999999981932577 0.0000000000000000 -4.4617216267401680 
8000.0000000000000 10000.000000000000 -2833.3333333330002 -23371422.673674658 -420603.01116018824 -69449500.065730810 1.1552425480560022e-05 -0.00072942917102004684 0.00072017936989213259 0.39999999983882595 0.0000000000000000 -4.7367342599746998 
8000.0000000000000 10000.000000000000 -2666.6666666669998 -22219992.137256272 730827.52641529310 -65367155.436038703 8.9476377454905597e-06 -0.00075223090915812400 0.00073394765439138872 0.39999999985859358 0.0000000000000000 -4.9968487468660454 
8000.0000000000000 10000.000000000000 -2500.0000000000000 -21068458.505729668 1882361.1591120472 -61284445.287310503 6.5427150715080607e-06 -0.00077047238853761616 0.00074464468768151008 0.39999999987850721 0.0000000000000000 -5.2420637534888606 
8000.0000000000000 10000.000000000000 -2333.3333333330002 -19916821.769854173 3033997.8961638799 -57201369.586783767 4.3164278275103366e-06 -0.00078389413936094340 0.00075223994880482337 0.39999999989845597 0.0000000000000000 -5.4723779457934789 
8000.0000000000000 10000.000000000000 -2166.6666666669998 -18765081.920389064 4185737.7468050234 -53117928.301695392 2.2372934651422715e-06 -0.00079214054664811890 0.00075650162150660825 0.39999999991833779 0.0000000000000000 -5.6877899896109945 
8000.0000000000000 10000.000000000000 -2000.0000000000000 -17613238.948088460 5337580.7202751301 -49034121.399263710 2.6320333829650591e-07 -0.00079473541125335339 0.00075701745068570004 0.39999999993805813 0.0000000000000000 -5.8882985506567280 
8000.0000000000000 10000.000000000000 -1833.3333333329999 -16461292.843711661 6489526.8258088734 -44949948.846725062 -1.6569127382873337e-06 -0.00079106434268838132 0.00075319449245034190 0.39999999995752794 0.0000000000000000 -6.0739022945224832 
8000.0000000000000 10000.000000000000 -1666.6666666670001 -15309243.598017901 7641576.0726410672 -40865410.611315355 -3.5834214836103901e-06 -0.00078038100772616912 0.00074422925967824007 0.39999999997666191 0.0000000000000000 -6.2445998866808106 
1.4466405410000000e-29 6000.0000000000000 -4833.3333333330002 -37180551.067555159 -14229731.396157760 -118409137.03563896 -0.00012710893002419301 -0.00018642196781052276 -5.9900265941416057e-05 2.0000000000000000 -1.9999999983792314 -0.45368638630327884 
0.0000000000000000 6000.0000000000000 -5000.0000000000000 -37755622.380416699 -14804802.709022399 -120448026.23553649 -0.00013495991178286086 -0.00010126649634911913 -2.8657089444334884e-05 2.0000000000000000 -1.9999999983719838 0.0000000000000000 
0.0000000000000000 6000.0000000000000 -4666.6666666669998 -36030356.951911971 -13079537.280502042 -114331176.08087212 -0.00010670867609233497 -0.00032751932758554199 -0.00012683423272651800 2.0000000000000000 -1.9999999984000707 -0.89249062408680524 
0.0000000000000000 6000.0000000000000 -4500.0000000000000 -34880059.851831153 -11929240.180393778 -110252849.99981177 -7.9997624015637801e-05 -0.00041577894568316329 -0.00020179293237503981 2.0000000000000000 -1.9999999984328145 -1.3164113808603470 
0.0000000000000000 6000.0000000000000 -4333.3333333330002 -33729659.758116655 -10778840.086634669 -106174158.75977083 -5.1853600478976675e-05 -0.00046159204872797709 -0.00028384115719849669 2.0000000000000000 -1.9999999984759880 -1.7254473240065114 
0.0000000000000000 6000.0000000000000 -4166.6666666669998 -32579156.661561523 -9628336.9900188521 -102095102.32805204 -2.5049208148649281e-05 -0.00047404430785713460 -0.00037309347013872798 2.0000000000000000 -1.9999999985282895 -2.1195971207889741 
0.0000000000000000 6000.0000000000000 -4000.0000000000000 -31428550.552945916 -8477730.8813290633 -98015680.671931222 -1.0392399973509239e-06 -0.00046126577441385204 -0.00046979426450114218 2.0000000000000000 -1.9999999985885648 -2.4988594383591360 
1.1320936680000000e-30 6000.0000000000000 -3833.3333333330002 -30277841.423049495 -7327021.7513480578 -93935893.758695453 1.9536558041379057e-05 -0.00043057163321740769 -0.00057393486861236933 2.0000000000000000 -1.9999999986557879 -2.8632329437419051 
1.2938213350000000e-30 6000.0000000000000 -3666.6666666669998 -29127029.262647666 -6176209.5908542508 -89855741.555626005 3.6526823957023523e-05 -0.00038858641786198921 -0.00068516056312562098 2.0000000000000000 -1.9999999987290469 -3.2127163038431461 
0.0000000000000000 6000.0000000000000 -3500.0000000000000 -27976114.062507287 -5025294.3906171545 -85775224.029980972 5.0060397015174268e-05 -0.00034124308036903047 -0.00080270712992146979 2.0000000000000000 -1.9999999988075339 -3.5473081854555470 
0.0000000000000000 6000.0000000000000 -3333.3333333330002 -26825095.813397638 -3874276.1414082432 -81694341.149032593 6.0413784872858742e-05 -0.00029374447201678977 -0.00092545100756695519 2.0000000000000000 -1.9999999988905355 -3.8670072552460324 
-6.4761696799999999e-29 6000.0000000000000 -3166.6666666669998 -25673974.506085750 -2723154.8339962633 -77613092.880049840 6.7925613250867376e-05 -0.00025060936083522249 -0.0010519323694919490 2.0000000000000000 -1.9999999989774240 -4.1718121797624246 
-1.0097419600000000e-28 6000.0000000000000 -3000.0000000000000 -24522750.131331518 -1571930.4591424377 -73531479.190280631 7.2944463978567370e-05 -0.00021560043380546451 -0.0011804212689308655 2.0000000000000000 -1.9999999990676489 -4.4617216254385230 
-1.0097419600000000e-28 6000.0000000000000 -2833.3333333330002 -23371422.679898273 -420603.00761109713 -69449500.046988785 7.5795396363807080e-05 -0.00019169913581556320 -0.0013089450494642655 2.0000000000000000 -1.9999999991607307 -4.7367342585831187 
-1.2720451700000000e-28 6000.0000000000000 -2666.6666666669998 -22219992.142547749 730827.52983523533 -65367155.417436130 7.6763846624025169e-05 -0.00018112066630937855 -0.0014353046747032168 2.0000000000000000 -1.9999999992562500 -4.9968487453858801 
-1.3629055399999999e-28 6000.0000000000000 -2500.0000000000000 -21068458.510035068 1882361.1624407698 -61284445.268864460 7.6083082078581084e-05 -0.00018527843167437142 -0.0015571433935011654 2.0000000000000000 -1.9999999993538422 -5.2420637519216182 
-2.0194839200000000e-28 6000.0000000000000 -2333.3333333330002 -19916821.773119170 3033997.8994458821 -57201369.568532735 7.3935249525599540e-05 -0.00020473025170656003 -0.0016718955986040223 2.0000000000000000 -1.9999999994531885 -5.4723779441409253 
-9.7243917399999999e-29 6000.0000000000000 -2166.6666666669998 -18765081.922557626 4185737.7500921986 -53117928.283698671 7.0462761586507431e-05 -0.00023917222209309820 -0.0017767849659548363 2.0000000000000000 -1.9999999995540072 -5.6877899878752549 
0.0000000000000000 6000.0000000000000 -2000.0000000000000 -17613238.949101470 5337580.7236276343 -49034121.381600708 6.5769150681874042e-05 -0.00028746232024851108 -0.0018688586692705486 2.0000000000000000 -1.9999999996560474 -5.8882985488403854 
0.0000000000000000 6000.0000000000000 -1833.3333333329999 -16461292.843505550 6489526.8292959277 -44949948.829494983 5.9927629618492817e-05 -0.00034753467447180321 -0.0019449305316340251 2.0000000000000000 -1.9999999997590785 -6.0739022926286781 
0.0000000000000000 6000.0000000000000 -1666.6666666670001 -15309243.596523233 7641576.0763417641 -40865410.594636925 5.2997921162038196e-05 -0.00041637068151153666 -0.0020015021681152453 2.0000000000000000 -1.9999999998628835 -6.2445998847133408 
0.0000000000000000 9000.0000000000000 -4833.3333333330002 -37180551.060650885 -14229731.391466277 -118409137.00764701 -2.2253496062966839e-05 -0.00017067200460236040 -0.00017660122308307775 2.0000000000000000 -0.49999999959027885 -0.45368638619102813 
0.0000000000000000 9000.0000000000000 -5000.0000000000000 -37755622.373164535 -14804802.703971710 -120448026.20620447 -2.4041801315750491e-05 -8.7088428418609972e-05 -8.7548155550732244e-05 2.0000000000000000 -0.49999999958846325 0.0000000000000000 
0.0000000000000000 9000.0000000000000 -4666.6666666669998 -36030356.945666716 -13079537.276492771 -114331176.05549861 -1.7586601410637031e-05 -0.00033106498320262300 -0.00035434999182302031 2.0000000000000000 -0.49999999959554181 -0.89249062387329581 
0.0000000000000000 9000.0000000000000 -4500.0000000000000 -34880059.846182168 -11929240.176994719 -110252849.97693484 -1.1431941986706109e-05 -0.00047840061913354253 -0.00052677266078370922 2.0000000000000000 -0.49999999960390107 -1.3164113805560509 
0.0000000000000000 9000.0000000000000 -4333.3333333330002 -33729659.753018424 -10778840.083774805 -106174158.73927146 -4.9005577165908263e-06 -0.00061356852610520540 -0.00068782136091432775 2.0000000000000000 -0.49999999961503316 -1.7254473236213663 
0.0000000000000000 9000.0000000000000 -4166.6666666669998 -32579156.656978711 -9628336.9876288157 -102095102.30981399 1.3507814925082596e-06 -0.00073732497609598890 -0.00083620847716297543 2.0000000000000000 -0.49999999962863628 -2.1195971203323882 
0.0000000000000000 9000.0000000000000 -4000.0000000000000 -31428550.548849005 -8477730.8793420605 -98015680.655840471 6.9578827162903480e-06 -0.00085034735940533437 -0.00097282214440352725 2.0000000000000000 -0.49999999964442660 -2.4988594378400033 
0.0000000000000000 9000.0000000000000 -3833.3333333330002 -30277841.419412214 -7327021.7497009104 -93935893.744639724 1.1739154588071536e-05 -0.00095326468131129416 -0.0010993405188911589 2.0000000000000000 -0.49999999966213604 -2.8632329431686219 
0.0000000000000000 9000.0000000000000 -3666.6666666669998 -29127029.259445447 -6176209.5894884383 -89855741.543494195 1.5625834695477996e-05 -0.0010466659768568604 -0.0012175662603099524 2.0000000000000000 -0.49999999968151054 -3.2127163032236248 
0.0000000000000000 9000.0000000000000 -3500.0000000000000 -27976114.059716389 -5025294.3894797517 -85775224.019662201 1.8618325726304321e-05 -0.0011310715603300096 -0.0013290406006505812 2.0000000000000000 -0.49999999970230985 -3.5473081847972314 
0.0000000000000000 9000.0000000000000 -3333.3333333330002 -26825095.810994893 -3874276.1404529624 -81694341.140416220 2.0754883021037168e-05 -0.0012069265544874170 -0.0014349064442459331 2.0000000000000000 -0.49999999972430587 -3.8670072545558960 
0.0000000000000000 9000.0000000000000 -3166.6666666669998 -25673974.504048456 -2723154.8331842958 -77613092.873025000 2.2094108068129815e-05 -0.0012745704945688570 -0.0015358752848859151 2.0000000000000000 -0.49999999974728282 -4.1718121790469755 
0.0000000000000000 9000.0000000000000 -3000.0000000000000 -24522750.129637413 -1571930.4584431052 -73531479.184735477 2.2703419830158596e-05 -0.0013342288857393042 -0.0016322193811770332 2.0000000000000000 -0.49999999977103593 -4.4617216247037996 
0.0000000000000000 9000.0000000000000 -2833.3333333330002 -23371422.678525735 -420603.00700255611 -69449500.042810515 2.2652656867913926e-05 -0.0013859746006037938 -0.0017238062627206508 2.0000000000000000 -0.49999999979537058 -4.7367342578346801 
0.0000000000000000 9000.0000000000000 -2666.6666666669998 -22219992.141476005 730827.53036541515 -65367155.414510638 2.2009370058939339e-05 -0.0014296962196152976 -0.0018100988273134922 2.0000000000000000 -0.49999999982010124 -4.9968487446287950 
0.0000000000000000 9000.0000000000000 -2500.0000000000000 -21068458.509244435 1882361.1628950560 -61284445.267076366 2.0836434242335939e-05 -0.0014651277466568055 -0.0018901976370518619 2.0000000000000000 -0.49999999984505034 -5.2420637511604538 
0.0000000000000000 9000.0000000000000 -2333.3333333330002 -19916821.772591211 3033997.8998163505 -57201369.567765027 1.9195044077096338e-05 -0.0014917696822335854 -0.0019628717586623948 2.0000000000000000 -0.49999999987004728 -5.4723779433797342 
0.0000000000000000 9000.0000000000000 -2166.6666666669998 -18765081.922275331 4185737.7503600894 -53117928.283832535 1.7142804746526849e-05 -0.0015088947721885965 -0.0020265527092993528 2.0000000000000000 -0.49999999989492594 -5.6877899871175499 
0.0000000000000000 9000.0000000000000 -2000.0000000000000 -17613238.949049447 5337580.7237628894 -49034121.382515445 1.4734700491822389e-05 -0.0015155539508189054 -0.0020792944238235255 2.0000000000000000 -0.49999999991952360 -5.8882985480891330 
0.0000000000000000 9000.0000000000000 -1833.3333333329999 -16461292.843670152 6489526.8292567339 -44949948.831067890 1.2025639182354766e-05 -0.0015105259632440038 -0.0021187647428154016 2.0000000000000000 -0.49999999994367944 -6.0739022918862720 
0.0000000000000000 9000.0000000000000 -1666.6666666670001 -15309243.596892703 7641576.0760740433 -40865410.596743330 9.0752012544917065e-06 -0.0014923378052828303 -0.0021422130309221681 2.0000000000000000 -0.49999999996723171 -6.2445998839815866 
3000.0000000000000 1000.0000000000000 -4833.3333333330002 -37180551.090675145 -14229731.390129991 -118409137.18364197 -0.00016803706561867055 0.00039842283096323507 -0.00030330458314421354 1.3999999992130283 -4.4999999991625748 -0.45368638695728730 
3000.0000000000000 1000.0000000000000 -5000.0000000000000 -37755622.405303814 -14804802.704627538 -120448026.39005184 -0.00017836882289318148 0.00019218666576274515 -0.00014374145817031296 1.3999999992087409 -4.4999999991586206 0.0000000000000000 
3000.0000000000000 1000.0000000000000 -4666.6666666669998 -36030356.971763119 -13079537.271592116 -114331176.21659249 -0.00014121380944803424 0.00083397762496682359 -0.00064705049226087251 1.3999999992248466 -4.4999999991735171 -0.89249062534353718 
3000.0000000000000 1000.0000000000000 -4500.0000000000000 -34880059.868906304 -11929240.169311062 -110252850.12464774 -0.00010608310754632262 0.0013070582905171497 -0.0010282427950243961 1.3999999992423644 -4.4999999991898427 -1.3164113826743671 
3000.0000000000000 1000.0000000000000 -4333.3333333330002 -33729659.772840425 -10778840.073982883 -106174158.87495926 -6.8917770019269068e-05 0.0018029696044120479 -0.0014271051736012190 1.3999999992642171 -4.4999999992103596 -1.7254473263374894 
3000.0000000000000 1000.0000000000000 -4166.6666666669998 -32579156.674303446 -9628336.9763147272 -102095102.43468724 -3.3187636092282301e-05 0.0023112756069672623 -0.0018303472297608759 1.3999999992894128 -4.4999999992341886 -2.1195971236010300 
3000.0000000000000 1000.0000000000000 -4000.0000000000000 -31428550.564029880 -8477730.8670176100 -98015680.770980701 -6.8078537412311878e-07 0.0028244230797481035 -0.0022291367322612166 1.3999999993172429 -4.4999999992606883 -2.4988594416202692 
3000.0000000000000 1000.0000000000000 -3833.3333333330002 -30277841.432761028 -7327021.7368152915 -93935893.851013109 2.7812528166992256e-05 0.0033366310471896862 -0.0026175843825206094 1.3999999993472145 -4.4999999992894013 -2.8632329474234974 
3000.0000000000000 1000.0000000000000 -3666.6666666669998 -29127029.271239724 -6176209.5764378719 -89855741.641963050 5.2084441257229010e-05 0.0038432767089531901 -0.0029916874881608926 1.3999999993789987 -4.4999999993200213 -3.2127163079195151 
3000.0000000000000 1000.0000000000000 -3500.0000000000000 -27976114.070205208 -5025294.3766156640 -85775224.110994950 7.2254309170326876e-05 0.0043405078633378955 -0.0033485340540528007 1.3999999994123873 -4.4999999993523572 -3.5473081899035601 
3000.0000000000000 1000.0000000000000 -3333.3333333330002 -26825095.820403401 -3874276.1280888077 -81694341.225295395 8.8607529937812993e-05 0.0048247640698360584 -0.0036857793124831163 1.3999999994472700 -4.4999999993863220 -3.8670072600447378 
3000.0000000000000 1000.0000000000000 -3166.6666666669998 -25673974.512581646 -2723154.8216014523 -77613092.952053964 0.00010149310196263517 0.0052926179554273660 -0.0040013105966519536 1.3999999994836101 -4.4999999994219104 -4.1718121848927288 
3000.0000000000000 1000.0000000000000 -3000.0000000000000 -24522750.137483459 -1571930.4478961122 -73531479.258444414 0.00011126910148035212 0.0057405413085134275 -0.0042929989656182131 1.3999999995214321 -4.4999999994591926 -4.4617216308828729 
3000.0000000000000 1000.0000000000000 -2833.3333333330002 -23371422.685858838 -420602.99772367382 -69449500.111661077 0.00011827207828674427 0.0061647324508259591 -0.0045585677197917509 1.3999999995608119 -4.4999999994983133 -4.7367342643252170 
3000.0000000000000 1000.0000000000000 -2666.6666666669998 -22219992.148458932 730827.53816212167 -65367155.478900023 0.00012278850309030876 0.0065609700895289226 -0.0047954553551682443 1.3999999996018671 -4.4999999995394715 -4.9968487514104032 
3000.0000000000000 1000.0000000000000 -2500.0000000000000 -21068458.516030800 1882361.1690100902 -61284445.327340156 0.00012504116985629900 0.0069244287334649587 -0.0050007397469375263 1.3999999996447561 -4.4999999995829389 -5.2420637582139440 
3000.0000000000000 1000.0000000000000 -2333.3333333330002 -19916821.779327780 3033997.9040613337 -57201369.624179952 0.00012518690118058480 0.0072495827146024016 -0.0051711001926874976 1.3999999996896728 -4.4999999996290470 -5.4723779506868695 
3000.0000000000000 1000.0000000000000 -2166.6666666669998 -18765081.929104213 4185737.7525545820 -53117928.336618438 0.00012331518053972914 0.0075299862927278600 -0.0053027413738398711 1.3999999997368440 -4.4999999996781916 -5.6877899946608110 
3000.0000000000000 1000.0000000000000 -2000.0000000000000 -17613238.956110246 5337580.7237314312 -49034121.431836471 0.00011944213974564138 0.0077580223921481879 -0.0053913754291004300 1.3999999997865322 -4.4999999997308384 -5.8882985558514642 
3000.0000000000000 1000.0000000000000 -1833.3333333329999 -16461292.851102248 6489526.8268259056 -44949948.877033383 0.00011351762333921528 0.0079247674652209148 -0.0054321511091787421 1.3999999998390336 -4.4999999997875264 -6.0739022998508423 
3000.0000000000000 1000.0000000000000 -1666.6666666670001 -15309243.604837669 7641576.0710695693 -40865410.639408298 0.00010542242531891078 0.0080197299674603442 -0.0054195457731444933 1.3999999998946797 -4.4999999998488809 -6.2445998921315384 
10000.000000000000 6000.0000000000000 -4833.3333333330002 -37180551.064831682 -14229731.410297299 -118409137.10099182 0.00022681295607292039 -0.00015475603682232230 4.4204309762257476e-05 0.0000000000000000 -1.9999999983067156 -0.45368638658446869 
10000.000000000000 6000.0000000000000 -5000.0000000000000 -37755622.378440037 -14804802.723995689 -120448026.30391842 0.00023065088665705515 -8.6357404270664484e-05 2.4139817607823140e-05 0.0000000000000000 -1.9999999982990526 0.0000000000000000 
10000.000000000000 6000.0000000000000 -4666.6666666669998 -36030356.947871141 -13079537.293078242 -114331176.14047496 0.00021595957230365401 -0.00025883070080718430 7.6765688226396148e-05 0.0000000000000000 -1.9999999983287975 -0.89249062462572648 
10000.000000000000 6000.0000000000000 -4500.0000000000000 -34880059.846795492 -11929240.191601412 -110252850.05424556 0.00019965557491188754 -0.00030366415817680091 9.5637827028200581e-05 0.0000000000000000 -1.9999999983635650 -1.3164113816359455 
10000.000000000000 6000.0000000000000 -4333.3333333330002 -33729659.752355181 -10778840.096643720 -106174158.80955082 0.00017966846130005280 -0.00030114017356630833 0.00010393101899992577 0.0000000000000000 -1.9999999984094450 -1.7254473249998281 
10000.000000000000 6000.0000000000000 -4166.6666666669998 -32579156.655301265 -9628336.9989786893 -102095102.37363663 0.00015759727866464294 -0.00026217251308548341 0.00010483038747469157 0.0000000000000000 -1.9999999984650156 -2.1195971219828831 
10000.000000000000 6000.0000000000000 -4000.0000000000000 -31428550.546380728 -8477730.8893718068 -98015680.713729799 0.00013475603372961397 -0.00019672579035500686 0.00010107432748493404 0.0000000000000000 -1.9999999985290000 -2.4988594397381196 
10000.000000000000 6000.0000000000000 -3833.3333333330002 -30277841.416346725 -7327021.7585911537 -93935893.797074646 0.00011215440886104886 -0.00011379314163398877 9.4814642918436592e-05 0.0000000000000000 -1.9999999986002592 -2.8632329452918697 
10000.000000000000 6000.0000000000000 -3666.6666666669998 -29127029.255953334 -6176209.5974024432 -89855741.590914696 9.0529392151988914e-05 -2.1434821362213051e-05 8.7632265228105297e-05 0.0000000000000000 -1.9999999986777823 -3.2127163055512544 
10000.000000000000 6000.0000000000000 -3500.0000000000000 -27976114.055950217 -5025294.3965641242 -85775224.062474519 7.0377211258834747e-05 7.3247187999601535e-05 8.0589908332558865e-05 0.0000000000000000 -1.9999999987606776 -3.5473081873100827 
10000.000000000000 6000.0000000000000 -3333.3333333330002 -26825095.807092775 -3874276.1468379446 -81694341.178996384 5.1998326819499238e-05 0.00016412085391584490 7.4336691070900498e-05 0.0000000000000000 -1.9999999988481663 -3.8670072572362693 
10000.000000000000 6000.0000000000000 -3166.6666666669998 -25673974.500136897 -2723154.8389840438 -77613092.907722011 3.5548874083444112e-05 0.00024602213588018583 6.9200578351703363e-05 0.0000000000000000 -1.9999999989395705 -4.1718121818785194 
10000.000000000000 6000.0000000000000 -3000.0000000000000 -24522750.125833523 -1571930.4637558055 -73531479.215873718 2.1071958001923703e-05 0.00031473583691665015 6.5268859697339195e-05 0.0000000000000000 -1.9999999990343047 -4.4617216276714116 
10000.000000000000 6000.0000000000000 -2833.3333333330002 -23371422.674939036 -420603.01191055140 -69449500.070691735 8.5249249117293485e-06 0.00036697869069224809 6.2446511202622827e-05 0.0000000000000000 -1.9999999991318673 -4.7367342609244192 
10000.000000000000 6000.0000000000000 -2666.6666666669998 -22219992.138210014 730827.52579549898 -65367155.439415708 -2.1939003838280146e-06 0.00040038880831959849 6.0518580899955924e-05 0.0000000000000000 -1.9999999992318316 -4.9968487478278041 
10000.000000000000 6000.0000000000000 -2500.0000000000000 -21068458.506397922 1882361.1586123360 -61284445.289266080 -1.1231797474175483e-05 0.00041350118383038726 5.9208877033942981e-05 0.0000000000000000 -1.9999999993338344 -5.2420637544568844 
10000.000000000000 6000.0000000000000 -2333.3333333330002 -19916821.770259477 3033997.8957856530 -57201369.587481014 -1.8772103863589041e-05 0.00040571023032468623 5.8201754859657617e-05 0.0000000000000000 -1.9999999994375697 -5.4723779467626752 
10000.000000000000 6000.0000000000000 -2166.6666666669998 -18765081.920551427 4185737.7465619594 -53117928.301297948 -2.5024512278211712e-05 0.00037726536429099662 5.7174168508224442e-05 0.0000000000000000 -1.9999999995427784 -5.6877899905769640 
10000.000000000000 6000.0000000000000 -2000.0000000000000 -17613238.948025350 5337580.7201936590 -49034121.397935301 -3.0232916135155152e-05 0.00032929069565082702 5.5831624758272881e-05 0.0000000000000000 -1.9999999996492404 -5.8882985516157884 
10000.000000000000 6000.0000000000000 -1833.3333333329999 -16461292.843437998 6489526.8259286862 -44949948.844629087 -3.4678756016930627e-05 0.00026375384028329095 5.3923710816154619e-05 0.0000000000000000 -1.9999999997567648 -6.0739022954716733 
10000.000000000000 6000.0000000000000 -1666.6666666670001 -15309243.597546112 7641576.0730156107 -40865410.608614713 -3.8686344870387878e-05 0.00018345211755380292 5.1256841467510476e-05 0.0000000000000000 -1.9999999998651838 -6.2445998876179090 
10000.000000000000 9000.0000000000000 -4833.3333333330002 -37180551.057785861 -14229731.405265249 -118409137.06951010 4.6482871783452847e-05 -0.00016886465499404957 3.5643214113667806e-05 0.0000000000000000 -0.49999999956889746 -0.45368638646235931 
10000.000000000000 9000.0000000000000 -5000.0000000000000 -37755622.371000022 -14804802.718566593 -120448026.27095956 4.7125813183500178e-05 -8.6429450671432148e-05 1.8271594177924376e-05 0.0000000000000000 -0.49999999956696245 0.0000000000000000 
10000.000000000000 9000.0000000000000 -4666.6666666669998 -36030356.941579118 -13079537.288803538 -114331176.11189282 4.4634751771662384e-05 -0.00032598910702318312 6.8593418886507768e-05 0.0000000000000000 -0.49999999957451735 -0.89249062439210614 
10000.000000000000 9000.0000000000000 -4500.0000000000000 -34880059.841191746 -11929240.188008504 -110252850.02845111 4.1786674651173153e-05 -0.00046813144856807287 9.8021717943531681e-05 0.0000000000000000 -0.49999999958345953 -1.3164113813011833 
10000.000000000000 9000.0000000000000 -4333.3333333330002 -33729659.747381337 -10778840.093654357 -106174158.78642778 3.8192401425787687e-05 -0.00059634503452755971 0.00012408333527949366 0.0000000000000000 -0.49999999959537528 -1.7254473245740192 
10000.000000000000 9000.0000000000000 -4166.6666666669998 -32579156.650905445 -9628336.9965144712 -102095102.35306527 3.4103908775804882e-05 -0.00071170396516479905 0.00014698713741626850 0.0000000000000000 -0.49999999960993152 -2.1195971214758069 
10000.000000000000 9000.0000000000000 -4000.0000000000000 -31428550.542516500 -8477730.8873561937 -98015680.695587203 2.9749876504027611e-05 -0.00081525443725593823 0.00016697407051288499 0.0000000000000000 -0.49999999962681135 -2.4988594391592036 
10000.000000000000 9000.0000000000000 -3833.3333333330002 -30277841.412972189 -7327021.7569512231 -93935893.781235412 2.5323662445068948e-05 -0.00090800839134301179 0.00018428981925285140 0.0000000000000000 -0.49999999964571484 -2.8632329446501532 
10000.000000000000 9000.0000000000000 -3666.6666666669998 -29127029.253030241 -6176209.5960703781 -89855741.577251151 2.0981813214801465e-05 -0.00099090043802570584 0.00019918478254403010 0.0000000000000000 -0.49999999966635911 -3.2127163048553644 
10000.000000000000 9000.0000000000000 -3500.0000000000000 -27976114.053443275 -5025294.3954784498 -85775224.050856903 1.6844105867715280e-05 -0.0010647682651172823 0.00021189900049791203 0.0000000000000000 -0.49999999968847841 -3.5473081865682041 
10000.000000000000 9000.0000000000000 -3333.3333333330002 -26825095.804969203 -3874276.1459446060 -81694341.169293135 1.2996278189594354e-05 -0.0011303286152347654 0.00022264942463528240 0.0000000000000000 -0.49999999971182402 -3.8670072564561231 
10000.000000000000 9000.0000000000000 -3166.6666666669998 -25673974.498365972 -2723154.8382372018 -77613092.899799779 9.4954215896622265e-06 -0.0011881534439043410 0.00023162730735844906 0.0000000000000000 -0.49999999973616333 -4.1718121810673381 
10000.000000000000 9000.0000000000000 -3000.0000000000000 -24522750.124386456 -1571930.4631186798 -73531479.209597990 6.3751813274467244e-06 -0.0012386573251534402 0.00023898941919158398 0.0000000000000000 -0.49999999976127907 -4.4617216268359181 
10000.000000000000 9000.0000000000000 -2833.3333333330002 -23371422.673788749 -420603.01135594753 -69449500.065926820 3.6487124494790738e-06 -0.0012820792889026201 0.00024485318875561667 0.0000000000000000 -0.49999999978696769 -4.7367342600708113 
10000.000000000000 9000.0000000000000 -2666.6666666669998 -22219992.137331005 730827.52628472028 -65367155.436024904 1.3098652882754200e-06 -0.0013184630476062739 0.00024930194465245647 0.0000000000000000 -0.49999999981303950 -4.9968487469617306 
10000.000000000000 9000.0000000000000 -2500.0000000000000 -21068458.505766269 1882361.1590427957 -61284445.287112109 -6.6335871266731259e-07 -0.0013476449989335069 0.00025237894457700390 0.0000000000000000 -0.49999999983931598 -5.2420637535834294 
10000.000000000000 9000.0000000000000 -2333.3333333330002 -19916821.769852657 3033997.8961532041 -57201369.586425826 -2.3057139400353394e-06 -0.0013692425617078813 0.00025406696321170056 0.0000000000000000 -0.49999999986562838 -5.4723779458863477 
10000.000000000000 9000.0000000000000 -2166.6666666669998 -18765081.920348410 4185737.7468512235 -53117928.301203385 -3.6657937020076181e-06 -0.0013826380683956295 0.00025431628944259281 0.0000000000000000 -0.49999999989181598 -5.6877899897016801 
10000.000000000000 9000.0000000000000 -2000.0000000000000 -17613238.948006552 5337580.7203776976 -49034121.398663208 -4.8049818514112964e-06 -0.0013869777375574916 0.00025303738077852694 0.0000000000000000 -0.49999999991772504 -5.8882985507448549 
10000.000000000000 9000.0000000000000 -1833.3333333329999 -16461292.843585195 6489526.8259686315 -44949948.846041441 -5.7945628065061847e-06 -0.0013811517894031322 0.00025006873858519088 0.0000000000000000 -0.49999999994320510 -6.0739022946077839 
10000.000000000000 9000.0000000000000 -1666.6666666670001 -15309243.597842388 7641576.0728602530 -40865410.610573731 -6.7156191433128493e-06 -0.0013638010276537148 0.00024520819276101832 0.0000000000000000 -0.49999999996810807 -6.2445998867631332 
4000.0000000000000 5000.0000000000000 -4833.3333333330002 -37180551.068094090 -14229731.403222635 -118409137.09048861 0.00045840189700459462 7.5828741343212194e-05 -0.00017875199681911079 1.1999999992022909 -2.4999999980548240 -0.45368638654388838 
4000.0000000000000 5000.0000000000000 -5000.0000000000000 -37755622.381589048 -14804802.716761401 -120448026.29291438 0.00046634534074092691 2.6986653686186779e-05 -8.4567918726069049e-05 1.1999999991984687 -2.4999999980460830 0.0000000000000000 
4000.0000000000000 5000.0000000000000 -4666.6666666669998 -36030356.951326013 -13079537.286334129 -114331176.13095078 0.00043692589040104457 0.00021242748309951515 -0.00038270150111370879 1.1999999992131059 -2.4999999980798946 -0.89249062454808292 
4000.0000000000000 5000.0000000000000 -4500.0000000000000 -34880059.850374788 -11929240.185209563 -110252850.04565528 0.00040679978893912936 0.00041774893256024003 -0.00061144824989458170 1.1999999992297263 -2.4999999981191241 -1.3164113815246219 
4000.0000000000000 5000.0000000000000 -4333.3333333330002 -33729659.755993009 -10778840.090623926 -106174158.80184960 0.00037228997954498775 0.00067448095649695540 -0.00085374484327123651 1.1999999992511778 -2.4999999981705976 -1.7254473248580700 
4000.0000000000000 5000.0000000000000 -4166.6666666669998 -32579156.658935376 -9628336.9933484681 -102095102.36677986 0.00033627546472029981 0.00096705886974437171 -0.0011009129175285552 1.1999999992766650 -2.4999999982326351 -2.1195971218137948 
4000.0000000000000 5000.0000000000000 -4000.0000000000000 -31428550.549953453 -8477730.8841459174 -98015680.707672581 0.00030059934650093301 0.0012816326525952688 -0.0013462078652091833 1.1999999993055417 -2.4999999983037777 -2.4988594395446615 
4000.0000000000000 5000.0000000000000 -3833.3333333330002 -30277841.419805668 -7327021.7537812330 -93935893.791771650 0.00026634729200979796 0.0016059454536442635 -0.0015843326477482855 1.1999999993372865 -2.4999999983827657 -2.8632329450768523 
4000.0000000000000 5000.0000000000000 -3666.6666666669998 -29127029.259251814 -6176209.5930168498 -89855741.586320132 0.00023406863335620769 0.0019291361720965088 -0.0018110437967095495 1.1999999993714825 -2.4999999984685277 -3.2127163053173389 
4000.0000000000000 5000.0000000000000 -3500.0000000000000 -27976114.059047487 -5025294.3926078435 -85775224.058541819 0.00020394706213198169 0.0022417106864190584 -0.0020229453487206430 1.1999999994078046 -2.4999999985601598 -3.5473081870597762 
4000.0000000000000 5000.0000000000000 -3333.3333333330002 -26825095.809954185 -3874276.1433126265 -81694341.175678387 0.00017592849667201634 0.0025353935333174886 -0.0022172357318941821 1.1999999994460036 -2.4999999986569108 -3.8670072569719234 
4000.0000000000000 5000.0000000000000 -3166.6666666669998 -25673974.502733842 -2723154.8358880221 -77613092.904970884 0.00014981751536675126 0.0028030285757656009 -0.0023915580631686468 1.1999999994858985 -2.4999999987581667 -4.1718121816023279 
4000.0000000000000 5000.0000000000000 -3000.0000000000000 -24522750.128143519 -1571930.4610842951 -73531479.213641405 0.00012534076957547869 0.0030385034435007896 -0.0025439123380690295 1.1999999995273660 -2.4999999988634340 -4.4617216273854075 
4000.0000000000000 5000.0000000000000 -2833.3333333330002 -23371422.676945675 -420603.00965575676 -69449500.068930075 0.00010219980515636567 0.0032366459450603301 -0.0026725483574108339 1.1999999995703343 -2.4999999989723292 -4.7367342606304739 
4000.0000000000000 5000.0000000000000 -2666.6666666669998 -22219992.139902912 730827.52764429443 -65367155.438076697 8.0102888688013180e-05 0.0033931687606956582 -0.0027758951041923722 1.1999999996147750 -2.4999999990845598 -4.9968487475276264 
4000.0000000000000 5000.0000000000000 -2500.0000000000000 -21068458.507772721 1882361.1600686826 -61284445.288302235 5.8776220241667793e-05 0.0035046204533192874 -0.0028524809628111859 1.1999999996607003 -2.4999999991999178 -5.2420637541520207 
4000.0000000000000 5000.0000000000000 -2333.3333333330002 -19916821.771317884 3033997.8968658978 -57201369.586845636 3.7977923310637343e-05 0.0035683578913337775 -0.0029009402870408311 1.1999999997081565 -2.4999999993182640 -5.4723779464545110 
4000.0000000000000 5000.0000000000000 -2166.6666666669998 -18765081.921301380 4185737.7472851826 -53117928.300945662 1.7505504948830446e-05 0.0035824948851092375 -0.0029199625988827246 1.1999999997572208 -2.4999999994395199 -5.6877899902667259 
4000.0000000000000 5000.0000000000000 -2000.0000000000000 -17613238.948481143 5337580.7205817802 -49034121.397822157 -2.8117952973407505e-06 0.0035459469964148204 -0.0029082676844089145 1.1999999998079962 -2.4999999995636562 -5.8882985513045432 
4000.0000000000000 5000.0000000000000 -1833.3333333329999 -16461292.843620561 6489526.8260065140 -44949948.844712965 -2.3121552090256278e-05 0.0034583773699674541 -0.0028645968873742462 1.1999999998606110 -2.4999999996906852 -6.0739022951603339 
4000.0000000000000 5000.0000000000000 -1666.6666666670001 -15309243.597483369 7641576.0728110233 -40865410.608855456 -4.3566160694110493e-05 0.0033202237135140779 -0.0027877455464125058 1.1999999999152140 -2.4999999998206501 -6.2445998873072366 
2000.0000000000000 3000.0000000000000 -4833.3333333330002 -37180551.082930237 -14229731.394267866 -118409137.12018950 0.00017471488244526570 0.00054612586049213323 -0.00023904765444243093 1.5999999994027974 -3.4999999980829619 -0.45368638665395572 
2000.0000000000000 3000.0000000000000 -5000.0000000000000 -37755622.396752566 -14804802.707991343 -120448026.32344972 0.00017527379227548633 0.00026033755506311708 -0.00011574894244492217 1.5999999994001173 -3.4999999980747614 0.0000000000000000 
2000.0000000000000 3000.0000000000000 -4666.6666666669998 -36030356.965446204 -13079537.277064746 -114331176.15899013 0.00017306659798726689 0.0011627919131850710 -0.00049893484573251183 1.5999999994102756 -3.4999999981063921 -0.89249062476475061 
2000.0000000000000 3000.0000000000000 -4500.0000000000000 -34880059.863688558 -11929240.175737113 -110252850.07205303 0.00017039204285606034 0.0018582131487751173 -0.00078213798838141363 1.5999999994215772 -3.4999999981428158 -1.3164113818442587 
2000.0000000000000 3000.0000000000000 -4333.3333333330002 -33729659.768463701 -10778840.081061250 -106174158.82663639 0.00016677048406114447 0.0026103174959365575 -0.0010826715596496904 1.5999999994359835 -3.4999999981902361 -1.7254473252768110 
2000.0000000000000 3000.0000000000000 -4166.6666666669998 -32579156.670562610 -9628336.9838054478 -102095102.38999645 0.00016230650239993315 0.0033988773392436785 -0.0013953799051779061 1.5999999994529455 -3.4999999982469276 -2.1195971223275301 
2000.0000000000000 3000.0000000000000 -4000.0000000000000 -31428550.560760006 -8477730.8747269418 -98015680.729368165 0.00015713759492560196 0.0042059168274606708 -0.0017155814165877188 1.5999999994720375 -3.4999999983114476 -2.4988594401490585 
2000.0000000000000 3000.0000000000000 -3833.3333333330002 -30277841.429827914 -7327021.7445840565 -93935893.812001884 0.00015140551468474178 0.0050157412628077337 -0.0020389673379483946 1.5999999994929370 -3.4999999983826227 -2.8632329457673968 
2000.0000000000000 3000.0000000000000 -3666.6666666669998 -29127029.268532723 -6176209.5841322318 -89855741.605144709 0.00014522794371387695 0.0058147234542573652 -0.0023615597803670510 1.5999999995154057 -3.4999999984595282 -3.2127163060893809 
2000.0000000000000 3000.0000000000000 -3500.0000000000000 -27976114.067631707 -5025294.3841198171 -85775224.076022491 0.00013868882853239469 0.0065909891038090484 -0.0026796695508565119 1.5999999995392769 -3.4999999985414685 -3.5473081879085759 
2000.0000000000000 3000.0000000000000 -3333.3333333330002 -26825095.817884628 -3874276.1352991676 -81694341.191877052 0.00013183299245756946 0.0073340946631964667 -0.0029898420880274386 1.5999999995644514 -3.4999999986279495 -3.8670072578926904 
2000.0000000000000 3000.0000000000000 -3166.6666666669998 -25673974.510049324 -2723154.8284218246 -77613092.919947818 0.00012466240032812313 0.0080346505222551601 -0.0032887857524178704 1.5999999995908867 -3.4999999987186636 -4.1718121825902550 
2000.0000000000000 3000.0000000000000 -3000.0000000000000 -24522750.134877268 -1571930.4542337523 -73531479.227454290 0.00011713951886444214 0.0086839853964172931 -0.0035732920873670034 1.5999999996185947 -3.4999999988134607 -4.4617216284356962 
2000.0000000000000 3000.0000000000000 -2833.3333333330002 -23371422.683124270 -420603.00348580902 -69449500.081632987 0.00010919735609187026 0.0092739238764196156 -0.0038401629116956880 1.5999999996476360 -3.4999999989123372 -4.7367342617383548 
2000.0000000000000 3000.0000000000000 -2666.6666666669998 -22219992.145545583 730827.53307141340 -65367155.449719124 0.00010073796861871145 0.0097964512393147046 -0.0040860900201992413 1.5999999996781165 -3.4999999990154249 -4.9968487486883708 
2000.0000000000000 3000.0000000000000 -2500.0000000000000 -21068458.512891006 1882361.1646926701 -61284445.298928976 9.1638321437930546e-05 0.010243531017014230 -0.0043075730075657782 1.5999999997101872 -3.4999999991229696 -5.2420637553609444 
2000.0000000000000 3000.0000000000000 -2333.3333333330002 -19916821.775915366 3033997.9006277723 -57201369.596496791 8.1751884792545542e-05 0.010606887156077861 -0.0045008181173679402 1.5999999997440406 -3.4999999992353321 -5.4723779477069803 
2000.0000000000000 3000.0000000000000 -2166.6666666669998 -18765081.925373446 4185737.7501268899 -53117928.309656754 7.0910710100637752e-05 0.010877799563399907 -0.0046615921149937151 1.5999999997799108 -3.4999999993529767 -5.6877899915581587 
2000.0000000000000 3000.0000000000000 -2000.0000000000000 -17613238.952014763 5337580.7224459033 -49034121.405624650 5.8927387851180649e-05 0.011046926520891884 -0.0047851510466212482 1.5999999998180756 -3.4999999994764655 -5.8882985526304150 
2000.0000000000000 3000.0000000000000 -1833.3333333329999 -16461292.846594054 6489526.8268362023 -44949948.851635069 4.5595707178875876e-05 0.011104173700863003 -0.0048661036239130932 1.5999999998588557 -3.4999999996064592 -6.0739022965161746 
2000.0000000000000 3000.0000000000000 -1666.6666666670001 -15309243.599865975 7641576.0725501552 -40865410.614923067 3.0688392481031875e-05 0.011038543866272272 -0.0048982628960499248 1.5999999999026193 -3.4999999997437103 -6.2445998886886480 
10000.000000000000 3000.0000000000000 -4833.3333333330002 -37180551.081078961 -14229731.407021271 -118409137.18508339 9.5168730461960932e-05 0.00060136347562457200 3.5230167522700166e-05 0.0000000000000000 -3.4999999980324787 -0.45368638695038843 
10000.000000000000 3000.0000000000000 -5000.0000000000000 -37755622.395690292 -14804802.721652614 -120448026.39178227 9.7677815624053424e-05 0.00028662400063198456 2.1933900811917580e-05 0.0000000000000000 -3.4999999980234726 0.0000000000000000 
10000.000000000000 3000.0000000000000 -4666.6666666669998 -36030356.962248594 -13079537.288141359 -114331176.21733028 8.8959506841862208e-05 0.0012784903860049782 4.6253747635497307e-05 0.0000000000000000 -3.4999999980578083 -0.89249062532873447 
10000.000000000000 3000.0000000000000 -4500.0000000000000 -34880059.859557405 -11929240.185393061 -110252850.12446772 8.1629932876819942e-05 0.0020355244614479913 3.0136616473379297e-05 0.0000000000000000 -3.4999999980964307 -1.3164113826489998 
10000.000000000000 3000.0000000000000 -4333.3333333330002 -33729659.763721690 -10778840.089512050 -106174158.87371248 7.5107185565609466e-05 0.0028450465338044559 -4.7369553856965601e-06 0.0000000000000000 -3.4999999981459413 -1.7254473262976975 
10000.000000000000 3000.0000000000000 -4166.6666666669998 -32579156.665462315 -9628336.9912320264 -102095102.43227442 7.0318160218059048e-05 0.0036855416919698391 -5.0188472562534922e-05 0.0000000000000000 -3.4999999982044501 -2.1195971235421314 
10000.000000000000 3000.0000000000000 -4000.0000000000000 -31428550.555500351 -8477730.8812815566 -98015680.767340615 6.7528153454707811e-05 0.0045397647408829452 -9.9558239181297487e-05 0.0000000000000000 -3.4999999982704844 -2.4988594415370509 
10000.000000000000 3000.0000000000000 -3833.3333333330002 -30277841.424567129 -7327021.7503954265 -93935893.846114010 6.6590126951660770e-05 0.0053935107019599561 -0.00014799169419158655 0.0000000000000000 -3.4999999983429193 -2.8632329473104403 
10000.000000000000 3000.0000000000000 -3666.6666666669998 -29127029.263398416 -6176209.5893099271 -89855741.635796413 6.7136161186793841e-05 0.0062347455837182273 -0.00019229532898124910 0.0000000000000000 -3.4999999984209151 -3.2127163077709682 
10000.000000000000 3000.0000000000000 -3500.0000000000000 -27976114.062728450 -5025294.3887577867 -85775224.103571206 6.8701139607285535e-05 0.0070529598040360193 -0.00023064739091042448 0.0000000000000000 -3.4999999985038723 -3.5473081897138661 
10000.000000000000 3000.0000000000000 -3333.3333333330002 -26825095.813299600 -3874276.1394785116 -81694341.216640830 7.0794715187114975e-05 0.0078386505697070185 -0.00026225844874371815 0.0000000000000000 -3.4999999985913952 -3.8670072598083407 
10000.000000000000 3000.0000000000000 -3166.6666666669998 -25673974.505856566 -2723154.8322130824 -77613092.942208946 7.2945121817680089e-05 0.0085828907088986075 -0.00028708708465287732 0.0000000000000000 -3.4999999986832631 -4.1718121846042528 
10000.000000000000 3000.0000000000000 -3000.0000000000000 -24522750.131140716 -1571930.4576985883 -73531479.247462392 7.4722660379128043e-05 0.0092770315431025905 -0.00030559557381175899 0.0000000000000000 -3.4999999987794075 -4.4617216305372063 
10000.000000000000 3000.0000000000000 -2833.3333333330002 -23371422.679900095 -420603.00667843351 -69449500.099608481 7.5767149203594746e-05 0.0099124859633859946 -0.00031856017678771724 0.0000000000000000 -3.4999999988798964 -4.7367342639175742 
10000.000000000000 3000.0000000000000 -2666.6666666669998 -22219992.142883964 730827.53010308789 -65367155.465856537 7.5780352850377046e-05 0.010480551969822307 -0.00032694029377993111 0.0000000000000000 -3.4999999989849164 -4.9968487509363992 
10000.000000000000 3000.0000000000000 -2500.0000000000000 -21068458.510837331 1882361.1619062047 -61284445.313399673 7.4518183501358999e-05 0.010972152451861460 -0.00033178582559796897 0.0000000000000000 -3.4999999990947672 -5.2420637576696780 
10000.000000000000 3000.0000000000000 -2333.3333333330002 -19916821.774511266 3033997.8979854975 -57201369.609451622 7.1799921122929500e-05 0.011377766759176318 -0.00033413736263187215 0.0000000000000000 -3.4999999992098481 -5.4723779500690073 
10000.000000000000 3000.0000000000000 -2166.6666666669998 -18765081.924657665 4185737.7475952180 -53117928.321228705 6.7487360486825909e-05 0.011687279068879324 -0.00033496972177474919 0.0000000000000000 -3.4999999993306568 -5.6877899939666774 
10000.000000000000 3000.0000000000000 -2000.0000000000000 -17613238.952023987 5337580.7199947573 -49034121.415931292 6.1473391846855323e-05 0.011889806812750448 -0.00033513501470009148 0.0000000000000000 -3.4999999994577822 -5.8882985550791602 
10000.000000000000 3000.0000000000000 -1833.3333333329999 -16461292.847363703 6489526.8244384602 -44949948.860780619 5.3680442259413886e-05 0.011973693956516733 -0.00033528129798437154 0.0000000000000000 -3.4999999995919042 -6.0739022989993670 
10000.000000000000 3000.0000000000000 -1666.6666666670001 -15309243.601431033 7641576.0701811314 -40865410.623000145 4.4033271592949197e-05 0.011926306545538945 -0.00033579323567193116 0.0000000000000000 -3.4999999997337912 -6.2445998912009371 
10000.000000000000 2000.0000000000000 -4833.3333333330002 -37180551.086623751 -14229731.403545776 -118409137.21392830 -4.0847330734177394e-05 0.00055756660259572983 2.6932535570894893e-05 0.0000000000000000 -3.9999999984725485 -0.45368638708284664 
10000.000000000000 2000.0000000000000 -5000.0000000000000 -37755622.401612379 -14804802.718512908 -120448026.42200759 -4.1947973677311253e-05 0.00026705063137186496 1.7490359027728510e-05 0.0000000000000000 -3.9999999984658676 0.0000000000000000 
10000.000000000000 2000.0000000000000 -4666.6666666669998 -36030356.967107520 -13079537.284095142 -114331176.24363083 -3.7180302932937205e-05 0.0011791447208504230 3.1455186413766371e-05 0.0000000000000000 -3.9999999984912260 -0.89249062558194869 
10000.000000000000 2000.0000000000000 -4500.0000000000000 -34880059.863854669 -11929240.180954812 -110252850.14862441 -3.0478982677779035e-05 0.0018704023868169198 1.1168802870169956e-05 0.0000000000000000 -3.9999999985195025 -1.3164113830131869 
10000.000000000000 2000.0000000000000 -4333.3333333330002 -33729659.767558083 -10778840.084820786 -106174158.89606479 -2.0910039322584432e-05 0.0026110584518929535 -2.5890554866528163e-05 0.0000000000000000 -3.9999999985555612 -1.7254473267647141 
10000.000000000000 2000.0000000000000 -4166.6666666669998 -32579156.668920670 -9628336.9863980766 -102095102.45310856 -9.1552788467490422e-06 0.0033850481725156150 -7.2137613024610069e-05 0.0000000000000000 -3.9999999985980219 -2.1195971241052067 
10000.000000000000 2000.0000000000000 -4000.0000000000000 -31428550.558649629 -8477730.8763944544 -98015680.786896825 3.9510997402023490e-06 0.0041792903884210891 -0.00012155658045469000 0.0000000000000000 -3.9999999986458454 -2.4988594421905517 
10000.000000000000 2000.0000000000000 -3833.3333333330002 -30277841.427465469 -7327021.7455297234 -93935893.864592984 1.7608160829157204e-05 0.0049827759416210867 -0.00016987569643143923 0.0000000000000000 -3.9999999986982608 -2.8632329480496619 
10000.000000000000 2000.0000000000000 -3666.6666666669998 -29127029.266095378 -6176209.5845295610 -89855741.653364912 3.1123977438434146e-05 0.0057857707433715457 -0.00021436869515651069 0.0000000000000000 -3.9999999987547175 -3.2127163085919581 
10000.000000000000 2000.0000000000000 -3500.0000000000000 -27976114.065266740 -5025294.3841193970 -85775224.120366648 4.3942017678668561e-05 0.0065795314279893987 -0.00025354391342387805 0.0000000000000000 -3.9999999988148516 -3.5473081906132689 
10000.000000000000 2000.0000000000000 -3333.3333333330002 -26825095.815716334 -3874276.1350340759 -81694341.232775122 5.5637956229197600e-05 0.0073559521262277876 -0.00028681435045820091 0.0000000000000000 -3.9999999988784554 -3.8670072607832702 
10000.000000000000 2000.0000000000000 -3166.6666666669998 -25673974.508184250 -2723154.8280120115 -77613092.957771510 6.5898771022929501e-05 0.0081071523212611785 -0.00031421581423017998 0.0000000000000000 -3.9999999989454613 -4.1718121856521790 
10000.000000000000 2000.0000000000000 -3000.0000000000000 -24522750.133407973 -1571930.4537894495 -73531479.262522459 7.4497191664342426e-05 0.0088252338613157896 -0.00033617764630067796 0.0000000000000000 -3.9999999990159263 -4.4617216316558510 
10000.000000000000 2000.0000000000000 -2833.3333333330002 -23371422.682132244 -420603.00311045442 -69449500.114216805 8.1283256871584090e-05 0.0095021196623791809 -0.00035337420986778341 0.0000000000000000 -3.9999999990900212 -4.7367342651048254 
10000.000000000000 2000.0000000000000 -2666.6666666669998 -22219992.145103440 730827.53327870835 -65367155.480046719 8.6156025658901266e-05 0.010129321149055978 -0.00036660482978943045 0.0000000000000000 -3.9999999991680246 -4.9968487521902265 
10000.000000000000 2000.0000000000000 -2500.0000000000000 -21068458.513064142 1882361.1646350124 -61284445.327189282 8.9045095355446438e-05 0.010697624991235253 -0.00037670970373470498 0.0000000000000000 -3.9999999992503188 -5.2420637589880501 
10000.000000000000 2000.0000000000000 -2333.3333333330002 -19916821.776763268 3033997.9002086362 -57201369.622842766 8.9905637436775510e-05 0.011197029784906260 -0.00038449998030833750 0.0000000000000000 -3.9999999993373865 -5.4723779514498183 
10000.000000000000 2000.0000000000000 -2166.6666666669998 -18765081.926950801 4185737.7492483188 -53117928.334208243 8.8698723101779785e-05 0.011616429289607745 -0.00039071695913992866 0.0000000000000000 -3.9999999994298099 -5.6877899954076732 
10000.000000000000 2000.0000000000000 -2000.0000000000000 -17613238.954372607 5337580.7210067213 -49034121.428471237 8.5387681725302241e-05 0.011943294027354492 -0.00039598067876120825 0.0000000000000000 -3.9999999995282769 -5.8882985565778601 
10000.000000000000 2000.0000000000000 -1833.3333333329999 -16461292.849780817 6489526.8247302631 -44949948.872838303 7.9942296101238880e-05 0.012163544199923659 -0.00040072202205528729 0.0000000000000000 -3.9999999996335802 -6.0739023005529926 
10000.000000000000 2000.0000000000000 -1666.6666666670001 -15309243.603928611 7641576.0696645370 -40865410.634518176 7.2324958313876246e-05 0.012261204043869153 -0.00040513366818898712 0.0000000000000000 -3.9999999997466258 -6.2445998928063364 
0.0000000000000000 1000.0000000000000 -4833.3333333330002 -37180551.093303561 -14229731.386238491 -118409137.16243646 0.00019574727289992379 0.00033577602771160512 7.0188270839899457e-05 2.0000000000000000 -4.4999999991753565 -0.45368638686822887 
0.0000000000000000 2000.0000000000000 -4833.3333333330002 -37180551.089171082 -14229731.389260164 -118409137.14235291 0.00015932114866312139 0.00056797487402266051 0.00016222778908615233 2.0000000000000000 -3.9999999984992014 -0.45368638678287082 
0.0000000000000000 1000.0000000000000 -5000.0000000000000 -37755622.407708615 -14804802.700523905 -120448026.36809582 0.00020498755532152095 0.00016049730945352810 3.8851297593972635e-05 2.0000000000000000 -4.4999999991720649 0.0000000000000000 
0.0000000000000000 2000.0000000000000 -5000.0000000000000 -37755622.403306648 -14804802.703314468 -120448026.34708579 0.00016285796944884675 0.00027229072432823065 8.4983846617635978e-05 2.0000000000000000 -3.9999999984924868 0.0000000000000000 
0.0000000000000000 1000.0000000000000 -4666.6666666669998 -36030356.974812277 -13079537.268098921 -114331176.19680436 0.00017205623348194571 0.00071249757949323213 0.00011591291101342275 2.0000000000000000 -4.4999999991847419 -0.89249062516898181 
0.0000000000000000 2000.0000000000000 -4666.6666666669998 -36030356.971177936 -13079537.271513684 -114331176.17841552 0.00014904602803834181 0.0011994658119161778 0.00029696345757484392 2.0000000000000000 -3.9999999985179784 -0.89249062500426490 
0.0000000000000000 1000.0000000000000 -4500.0000000000000 -34880059.872312538 -11929240.166164113 -110252850.10611685 0.00014169926694165261 0.0011352094412494210 0.00012628114277636322 2.0000000000000000 -4.4999999991992663 -1.3164113824177812 
0.0000000000000000 2000.0000000000000 -4500.0000000000000 -34880059.869098663 -11929240.169848459 -110252850.08913524 0.00013313576384491166 0.0018994261373840207 0.00038734321996812174 2.0000000000000000 -3.9999999985464201 -1.3164113821784527 
0.0000000000000000 1000.0000000000000 -4333.3333333330002 -33729659.776526056 -10778840.071131211 -106174158.85753861 0.00011042050638217051 0.0015918361828405933 0.00010181826888532516 2.0000000000000000 -4.4999999992180575 -1.7254473260022285 
0.0000000000000000 2000.0000000000000 -4333.3333333330002 -33729659.773663126 -10778840.074987732 -106174158.84172851 0.00011333668807592084 0.0026468021591757756 0.00042907160382530383 2.0000000000000000 -3.9999999985827017 -1.7254473256921321 
0.0000000000000000 1000.0000000000000 -4166.6666666669998 -32579156.678188227 -9628336.9737103730 -102095102.41824138 8.1167473716298139e-05 0.0020718207188710363 4.7612367654214172e-05 2.0000000000000000 -4.4999999992403756 -2.1195971231902990 
0.0000000000000000 2000.0000000000000 -4166.6666666669998 -32579156.675614707 -9628336.9776616264 -102095102.40340731 9.1504455517799313e-05 0.0034247019366266092 0.00042562539126480908 2.0000000000000000 -3.9999999986254204 -2.1195971228126056 
0.0000000000000000 1000.0000000000000 -4000.0000000000000 -31428550.568037074 -8477730.8646165356 -98015680.755385146 5.5279133632640256e-05 0.0025662540817736035 -2.9889793155417312e-05 2.0000000000000000 -4.4999999992656248 -2.4988594411370779 
0.0000000000000000 2000.0000000000000 -4000.0000000000000 -31428550.565698914 -8477730.8686001264 -98015680.741363585 6.9196607016901485e-05 0.0042192952129742559 0.00038370984089785578 2.0000000000000000 -3.9999999986735020 -2.4988594406944391 
0.0000000000000000 1000.0000000000000 -3833.3333333330002 -30277841.436820213 -7327021.7345776651 -93935893.836154222 3.3191305411238232e-05 0.0030676407659117532 -0.00012437037530521768 2.0000000000000000 -4.4999999992933413 -2.8632329468706299 
0.0000000000000000 2000.0000000000000 -3833.3333333330002 -30277841.434670165 -7327021.7385423183 -93935893.822807595 4.7577451845265477e-05 0.0050190510440491290 0.00031089434809984749 2.0000000000000000 -3.9999999987261332 -2.8632329463652821 
0.0000000000000000 1000.0000000000000 -3666.6666666669998 -29127029.275287483 -6176209.5743279438 -89855741.627737969 1.4836281959455812e-05 0.0035696485334870309 -0.00023029939922696315 2.0000000000000000 -4.4999999993231894 -3.2127163072995160 
0.0000000000000000 2000.0000000000000 -3666.6666666669998 -29127029.273284398 -6176209.5782303475 -89855741.614950180 2.7432703319078799e-05 0.0058140206529695062 0.00021442647391214226 2.0000000000000000 -3.9999999987827231 -3.2127163067333515 
0.0000000000000000 1000.0000000000000 -3500.0000000000000 -27976114.074184716 -5025294.3746015849 -85775224.097311929 -1.0910062076355856e-07 0.0040668078011575079 -0.00034304017879581157 2.0000000000000000 -4.4999999993549400 -3.5473081892187199 
0.0000000000000000 2000.0000000000000 -3500.0000000000000 -27976114.072292775 -5025294.3784037735 -85775224.084985003 9.2294376227151037e-06 0.0065954505929716684 0.00010078783941920432 2.0000000000000000 -3.9999999988428634 -3.5473081885933473 
0.0000000000000000 1000.0000000000000 -3333.3333333330002 -26825095.824263282 -3874276.1261422643 -81694341.212073818 -1.2072899455075749e-05 0.0045543137537012064 -0.00045886122839181520 2.0000000000000000 -4.4999999993884643 -3.8670072592971110 
0.0000000000000000 2000.0000000000000 -3333.3333333330002 -26825095.822451361 -3874276.1298095249 -81694341.200125635 -6.7946344729396067e-06 0.0073553500385459356 -2.4484737061127401e-05 2.0000000000000000 -3.9999999989063100 -3.8670072586138953 
0.0000000000000000 1000.0000000000000 -3166.6666666669998 -25673974.516274575 -2723154.8196973382 -77613092.939224616 -2.1514164743534530e-05 0.0050277475452043755 -0.00057481995555621289 2.0000000000000000 -4.4999999994237214 -4.1718121840841418 
0.0000000000000000 2000.0000000000000 -3166.6666666669998 -25673974.514515609 -2723154.8231964158 -77613092.927587181 -2.0567626253656878e-05 0.0080862439100470029 -0.00015681219541599609 2.0000000000000000 -3.9999999989729602 -4.1718121833442474 
0.0000000000000000 1000.0000000000000 -3000.0000000000000 -24522750.140964489 -1571930.4460121149 -73531479.245949388 -2.8878727417902094e-05 0.0054827699230787326 -0.00068860025283813252 2.0000000000000000 -4.4999999994607478 -4.4617216300149609 
0.0000000000000000 2000.0000000000000 -3000.0000000000000 -24522750.139234878 -1571930.4493096322 -73531479.234567583 -3.2137027107627037e-05 0.0087807380264189223 -0.00029243541731127323 2.0000000000000000 -3.9999999990428394 -4.4617216292193920 
0.0000000000000000 1000.0000000000000 -2833.3333333330002 -23371422.689083725 -420602.99583990627 -69449500.099453911 -3.4569261386988735e-05 0.0059150352472744257 -0.00079833450978938078 2.0000000000000000 -4.4999999994996571 -4.7367342633994491 
0.0000000000000000 2000.0000000000000 -2833.3333333330002 -23371422.687362883 -420602.99890099291 -69449500.088284910 -4.1607216488366652e-05 0.0094312951274665852 -0.00042824543080009889 2.0000000000000000 -3.9999999991160911 -4.7367342625490876 
0.0000000000000000 1000.0000000000000 -2666.6666666669998 -22219992.151382625 730827.54006330925 -65367155.466946274 -3.8921302784195308e-05 0.0063199757607084201 -0.00090246089485572305 2.0000000000000000 -4.4999999995406288 -4.9968487504281267 
0.0000000000000000 2000.0000000000000 -2666.6666666669998 -22219992.149652474 730827.53727638349 -65367155.455958880 -4.9102860982768328e-05 0.010030203353121466 -0.00056163538784390304 2.0000000000000000 -3.9999999991929704 -4.9968487495237746 
0.0000000000000000 1000.0000000000000 -2500.0000000000000 -21068458.518605649 1882361.1709445482 -61284445.315617204 -4.2209456913864459e-05 0.0066925666139934555 -0.00099963658310004040 2.0000000000000000 -4.4999999995839133 -5.2420637571764361 
0.0000000000000000 2000.0000000000000 -2500.0000000000000 -21068458.516850278 1882361.1684736013 -61284445.304791972 -5.4756653162044554e-05 0.010569089824357314 -0.00069037616155544646 2.0000000000000000 -3.9999999992738364 -5.2420637562188572 
0.0000000000000000 1000.0000000000000 -2333.3333333330002 -19916821.781501979 3033997.9060433451 -57201369.612677507 -4.4659478885118498e-05 0.0070271606245844000 -0.0010885730152369829 2.0000000000000000 -4.4999999996298241 -5.4723779495953861 
0.0000000000000000 2000.0000000000000 -2333.3333333330002 -19916821.779707313 3033997.9039355563 -57201369.602006964 -5.8693703958240613e-05 0.011038764705813145 -0.00081242502783903043 2.0000000000000000 -3.9999999993591508 -5.4723779485853630 
0.0000000000000000 1000.0000000000000 -2166.6666666669998 -18765081.930820160 4185737.7545970678 -53117928.325339146 -4.6425528694357692e-05 0.0073172709642270323 -0.0011679033578054026 2.0000000000000000 -4.4999999996787468 -5.6877899935166445 
0.0000000000000000 2000.0000000000000 -2166.6666666669998 -18765081.928973652 4185737.7529063821 -53117928.314828172 -6.1020739522710520e-05 0.011429060769421559 -0.00092576946418355065 2.0000000000000000 -3.9999999994494759 -5.6877899924550297 
0.0000000000000000 1000.0000000000000 -2000.0000000000000 -17613238.957302794 5337580.7258462179 -49034121.420796417 -4.7601043795714417e-05 0.0075553240475100172 -0.0012361112829718541 2.0000000000000000 -4.4999999997311377 -5.8882985546560134 
0.0000000000000000 2000.0000000000000 -2000.0000000000000 -17613238.955393154 5337580.7246348448 -49034121.410463005 -6.1822879723760343e-05 0.011728415932137817 -0.0010283099952858423 2.0000000000000000 -3.9999999995454787 -5.8882985535437999 
0.0000000000000000 1000.0000000000000 -1833.3333333329999 -16461292.851697002 6489526.8290238865 -44949948.866263025 -4.8242914254514905e-05 0.0077325248397405073 -0.0012914634141816042 2.0000000000000000 -4.4999999997875308 -6.0739022986056801 
0.0000000000000000 2000.0000000000000 -1833.3333333329999 -16461292.849713989 6489526.8283639438 -44949948.856139325 -6.1175607694197843e-05 0.011923745951053610 -0.0011177370677860354 2.0000000000000000 -3.9999999996479323 -6.0739022974440724 
0.0000000000000000 1000.0000000000000 -1666.6666666670001 -15309243.604749121 7641576.0733609004 -40865410.628953591 -4.8353583969098781e-05 0.0078384557799007215 -0.0013318340875390538 2.0000000000000000 -4.4999999998485434 -6.2445998908385016 
0.0000000000000000 2000.0000000000000 -1666.6666666670001 -15309243.602683315 7641576.0733363144 -40865410.619087145 -5.9151060092399871e-05 0.012000139158277171 -0.0011913611715613792 2.0000000000000000 -3.9999999997577222 -6.2445998896290025 
4000.0000000000000 0.0000000000000000 -4833.3333333330002 -37180551.090671450 -14229731.391855679 -118409137.20482023 -7.0142090187041571e-05 0.00015565208312278268 -0.00017269657650428394 1.1999999991770305 -5.0000000000000000 -0.45368638704893288 
4000.0000000000000 0.0000000000000000 -5000.0000000000000 -37755622.405586109 -14804802.706678715 -120448026.41242978 -7.5510223976302783e-05 7.3344346844387502e-05 -8.0749983673803892e-05 1.1999999991730084 -5.0000000000000000 0.0000000000000000 
4000.0000000000000 4.7197855770000003e-30 -4666.6666666669998 -36030356.971283838 -13079537.272735443 -114331176.23557687 -5.6454357132490544e-05 0.00033670592408693726 -0.00037471237227350730 1.1999999991883035 -5.0000000000000000 -0.89249062551931913 
4000.0000000000000 7.0796783649999997e-30 -4500.0000000000000 -34880059.868118614 -11929240.169996615 -110252850.14181437 -3.9123035483502040e-05 0.00054755525636219690 -0.00060573074972904313 1.1999999992054298 -5.0000000000000000 -1.3164113829277870 
4000.0000000000000 0.0000000000000000 -4333.3333333330002 -33729659.771866277 -10778840.074312039 -106174158.89062037 -2.1571464439548381e-05 0.00078199661892966151 -0.00085337877923726934 1.1999999992273374 -5.0000000000000000 -1.7254473266629167 
4000.0000000000000 0.0000000000000000 -4166.6666666669998 -32579156.673230872 -9628336.9763697125 -102095102.44910157 -5.5107963548364780e-06 0.0010341208634765833 -0.0011088188522853993 1.1999999992531993 -5.0000000000000000 -2.1195971239936018 
4000.0000000000000 -6.0354824400000000e-30 -4000.0000000000000 -31428550.562922589 -8477730.8668653294 -98015680.784362197 8.3230429402229002e-06 0.0012987238056892455 -0.0013656276056042179 1.1999999992823789 -5.0000000000000000 -2.4988594420758017 
4000.0000000000000 -1.8821719000000001e-29 -3833.3333333330002 -30277841.431665931 -7327021.7365106149 -93935893.863538191 1.9742505076743028e-05 0.0015712442148040422 -0.0016189751045848351 1.1999999993143839 -5.0000000000000000 -2.8632329479384055 
4000.0000000000000 -2.6904576700000000e-29 -3666.6666666669998 -29127029.270192511 -6176209.5760263773 -89855741.653776616 2.8840756736028873e-05 0.0018478236196878680 -0.0018650154725020659 1.1999999993488406 -5.0000000000000000 -3.2127163084907377 
4000.0000000000000 0.0000000000000000 -3500.0000000000000 -27976114.069234271 -5025294.3761358187 -85775224.122215286 3.5842372735390987e-05 0.0021251763378809648 -0.0021005412871861642 1.1999999993854684 -5.0000000000000000 -3.5473081905284767 
4000.0000000000000 0.0000000000000000 -3333.3333333330002 -26825095.819532648 -3874276.1275737537 -81694341.236018106 4.1022492981933787e-05 0.0024003472658313658 -0.0023227287213062032 1.1999999994240631 -5.0000000000000000 -3.8670072607211048 
4000.0000000000000 4.6309918630000001e-29 -3166.6666666669998 -25673974.511832461 -2723154.8210805440 -77613092.962355405 4.4654473059258076e-05 0.0026706509480658399 -0.0025289525837002783 1.1999999994644834 -5.0000000000000000 -4.1718121856186032 
4000.0000000000000 0.0000000000000000 -3000.0000000000000 -24522750.136875942 -1571930.4473960968 -73531479.268384069 4.6989000005286089e-05 0.0029335416201185212 -0.0027167081424002162 1.1999999995066417 -5.0000000000000000 -4.4617216316565562 
4000.0000000000000 0.0000000000000000 -2833.3333333330002 -23371422.685412630 -420602.99726973439 -69449500.121283501 4.8244955465059930e-05 0.0031864810158479936 -0.0028835501104877946 1.1999999995504957 -5.0000000000000000 -4.7367342651451878 
4000.0000000000000 9.6621616689999997e-29 -2666.6666666669998 -22219992.148193840 730827.53854540747 -65367155.488236472 4.8601243905668521e-05 0.0034267959548158677 -0.0030270386998160568 1.1999999995960415 -5.0000000000000000 -4.9968487522752634 
4000.0000000000000 1.0352316070000000e-28 -2500.0000000000000 -21068458.515967257 1882361.1692977808 -61284445.336410008 4.8201937299968232e-05 0.0036515916116672932 -0.0031447463695013162 1.1999999996433093 -5.0000000000000000 -5.2420637591223640 
4000.0000000000000 1.1042470480000000e-28 -2333.3333333330002 -19916821.779487006 3033997.9042273634 -57201369.632991150 4.7151762246126118e-05 0.0038576200177373441 -0.0032342535629868484 1.1999999996923594 -5.0000000000000000 -5.4723779516375401 
4000.0000000000000 1.0097419590000000e-28 -2166.6666666669998 -18765081.929508440 4185737.7525708633 -53117928.345168121 4.5515141848384574e-05 0.0040411437581754405 -0.0032931282403942949 1.1999999997432786 -5.0000000000000000 -5.6877899956523814 
4000.0000000000000 0.0000000000000000 -2000.0000000000000 -17613238.956783023 5337580.7235668143 -49034121.440111667 4.3325415878978996e-05 0.0041977473751996213 -0.0033189851847157605 1.1999999997961772 -5.0000000000000000 -5.8882985568824981 
4000.0000000000000 3.2286888359999998e-30 -1833.3333333329999 -16461292.852068603 6489526.8264451623 -44949948.885010935 4.0583070340420081e-05 0.0043222479991777123 -0.0033094652564494950 1.1999999998511870 -5.0000000000000000 -6.0739023009197606 
4000.0000000000000 0.0000000000000000 -1666.6666666670001 -15309243.606124517 7641576.0704320949 -40865410.647055119 3.7249030630845979e-05 0.0044084202989778292 -0.0032622156480121749 1.1999999999084598 -5.0000000000000000 -6.2445998932365674 
3000.0000000000000 0.0000000000000000 -4833.3333333330002 -37180551.092085488 -14229731.388971644 -118409137.19145674 -0.00014972135629855887 0.00022867418600243752 -0.00025045155061282205 1.3999999992210725 -5.0000000000000000 -0.45368638699432007 
3000.0000000000000 0.0000000000000000 -5000.0000000000000 -37755622.406825781 -14804802.703568721 -120448026.39828727 -0.00015893086087544146 0.00011056441172559460 -0.00011724697749100874 1.3999999992173566 -5.0000000000000000 0.0000000000000000 
3000.0000000000000 -2.3598927900000001e-30 -4666.6666666669998 -36030356.972976997 -13079537.270269439 -114331176.22364514 -0.00012628187872302230 0.00047707027404661012 -0.00054322751161907975 1.3999999992315411 -5.0000000000000000 -0.89249062541404545 
3000.0000000000000 -3.5398391800000000e-30 -4500.0000000000000 -34880059.869970679 -11929240.167882938 -110252850.13108228 -9.6633878759581047e-05 0.00074491060742669704 -0.00087896865129330828 1.3999999992474812 -5.0000000000000000 -1.3164113827754678 
3000.0000000000000 0.0000000000000000 -4333.3333333330002 -33729659.773790888 -10778840.072490701 -106174158.88089374 -6.6534382463681206e-05 0.0010240620209119671 -0.0012405695159176527 1.3999999992678029 -5.0000000000000000 -1.7254473264668544 
3000.0000000000000 0.0000000000000000 -4166.6666666669998 -32579156.675167359 -9628336.9747883976 -102095102.44021875 -3.8779799681752765e-05 0.0013091254119388866 -0.0016152984400480963 1.3999999992916352 -5.0000000000000000 -2.1195971237567925 
3000.0000000000000 3.0177412220000001e-30 -4000.0000000000000 -31428550.564828653 -8477730.8654794842 -98015680.776189417 -1.4541340921486059e-05 0.0015964339471072199 -0.0019938347009046250 1.3999999993183119 -5.0000000000000000 -2.4988594418009433 
3000.0000000000000 9.4108595180000002e-30 -3833.3333333330002 -30277841.433511704 -7327021.7352827881 -93935893.855965301 5.8811649824699262e-06 0.0018832715736142377 -0.0023693366259141548 1.3999999993473411 -5.0000000000000000 -2.8632329476279130 
3000.0000000000000 1.3452288350000000e-29 -3666.6666666669998 -29127029.271956146 -6176209.5749252876 -89855741.646713540 2.2633727070121399e-05 0.0021675358445985672 -0.0027366875528722565 1.3999999993783740 -5.0000000000000000 -3.2127163081467658 
3000.0000000000000 0.0000000000000000 -3500.0000000000000 -27976114.070898794 -5025294.3751354599 -85775224.115588978 3.6069044306390638e-05 0.0024474685418342840 -0.0030918931521153985 1.3999999994111780 -5.0000000000000000 -3.5473081901529495 
3000.0000000000000 0.0000000000000000 -3333.3333333330002 -26825095.821083758 -3874276.1266525607 -81694341.229770064 4.6614701700208814e-05 0.0027213775573227089 -0.0034316227512371173 1.3999999994456143 -5.0000000000000000 -3.8670072603157464 
3000.0000000000000 -2.3154959300000000e-29 -3166.6666666669998 -25673974.513256989 -2723154.8202205878 -77613092.956439465 5.4699318751565655e-05 0.0029876195082883081 -0.0037529185945003180 1.3999999994816210 -5.0000000000000000 -4.1718121851849732 
3000.0000000000000 0.0000000000000000 -3000.0000000000000 -24522750.138160929 -1571930.4465824917 -73531479.262764722 6.0717737785955825e-05 0.0032444036837658702 -0.0040529534108991383 1.3999999995192001 -5.0000000000000000 -4.4617216311960846 
3000.0000000000000 0.0000000000000000 -2833.3333333330002 -23371422.686544694 -420602.99649014726 -69449500.115934595 6.5015673217933277e-05 0.0034897524423387746 -0.0043288754487869636 1.3999999995584071 -5.0000000000000000 -4.7367342646592059 
3000.0000000000000 -4.8310808300000000e-29 -2666.6666666669998 -22219992.149158746 730827.53930122103 -65367155.483139880 6.7883407404257872e-05 0.0037214065666214763 -0.0045776728395185776 1.3999999995993455 -5.0000000000000000 -4.9968487517650333 
3000.0000000000000 -5.1761580399999997e-29 -2500.0000000000000 -21068458.516749606 1882361.1700384114 -61284445.331554547 6.9547535544106135e-05 0.0039367158154940901 -0.0047960768968363099 1.3999999996421602 -5.0000000000000000 -5.2420637585891132 
3000.0000000000000 -5.5212352400000001e-29 -2333.3333333330002 -19916821.780070174 3033997.9049599641 -57201369.628372103 7.0171250337684748e-05 0.0041326016824242851 -0.0049804915215339151 1.3999999996870349 -5.0000000000000000 -5.4723779510824819 
3000.0000000000000 0.0000000000000000 -2166.6666666669998 -18765081.929874405 4185737.7533014817 -53117928.340786427 6.9863381632929853e-05 0.0043053777133961789 -0.0051268967507868664 1.3999999997341912 -5.0000000000000000 -5.6877899950767477 
3000.0000000000000 0.0000000000000000 -2000.0000000000000 -17613238.956912126 5337580.7243007561 -49034121.435972929 6.8675681754340091e-05 0.0044506285894856685 -0.0052308261937500777 1.3999999997838877 -5.0000000000000000 -5.8882985562875589 
3000.0000000000000 -1.6143444200000000e-30 -1833.3333333329999 -16461292.851939440 6489526.8271871954 -44949948.881125048 6.6605144429241994e-05 0.0045631118432669796 -0.0052872621938734495 1.3999999998364188 -5.0000000000000000 -6.0739023003068455 
3000.0000000000000 0.0000000000000000 -1666.6666666670001 -15309243.605713639 7641576.0711867809 -40865410.643435583 6.3587422925216305e-05 0.0046365933122483197 -0.0052905051914269793 1.3999999998921195 -5.0000000000000000 -6.2445998926070860 
0.0000000000000000 10000.000000000000 -4833.3333333330002 -37180551.060239151 -14229731.390956312 -118409137.00622234 -1.0944248881538424e-05 -9.1777686129325921e-05 -0.00018339335985025692 2.0000000000000000 0.0000000000000000 -0.45368638618568813 
0.0000000000000000 10000.000000000000 -5000.0000000000000 -37755622.372732498 -14804802.703439754 -120448026.20470183 -1.1883844478405793e-05 -4.6735917669275312e-05 -9.0974851638975040e-05 2.0000000000000000 0.0000000000000000 0.0000000000000000 
0.0000000000000000 10000.000000000000 -4666.6666666669998 -36030356.945293732 -13079537.276025914 -114331176.05422696 -8.5006629721049217e-06 -0.00017856758403427984 -0.00036757690423980000 2.0000000000000000 0.0000000000000000 -0.89249062386328193 
0.0000000000000000 10000.000000000000 -4500.0000000000000 -34880059.845844924 -11929240.176569110 -110252849.97581027 -5.2980938845735052e-06 -0.00025896536863145820 -0.00054558770991201334 2.0000000000000000 0.0000000000000000 -1.3164113805419950 
0.0000000000000000 10000.000000000000 -4333.3333333330002 -33729659.752714917 -10778840.083388411 -106174158.73828799 -1.9250837165326959e-06 -0.00033331258859960883 -0.00071102382547972589 2.0000000000000000 0.0000000000000000 -1.7254473236038628 
0.0000000000000000 10000.000000000000 -4166.6666666669998 -32579156.656707518 -9628336.9872794561 -102095102.30896553 1.2799014977662993e-06 -0.00040188372427100007 -0.00086249524210492120 2.0000000000000000 0.0000000000000000 -2.1195971203119974 
0.0000000000000000 10000.000000000000 -4000.0000000000000 -31428550.548608996 -8477730.8790274784 -98015680.655120939 4.1342289576880348e-06 -0.00046491877757121145 -0.0010009465542674342 2.0000000000000000 0.0000000000000000 -2.4988594378172500 
0.0000000000000000 10000.000000000000 -3833.3333333330002 -30277841.419202380 -7327021.7494188538 -93935893.744042933 6.5480367990004422e-06 -0.00052263457504895389 -0.0011281784151552674 2.0000000000000000 0.0000000000000000 -2.8632329431439971 
0.0000000000000000 10000.000000000000 -3666.6666666669998 -29127029.259264804 -6176209.5892367493 -89855741.543013752 8.4896446008976084e-06 -0.00057524262499689290 -0.0012461335434331994 2.0000000000000000 0.0000000000000000 -3.2127163031975887 
0.0000000000000000 10000.000000000000 -3500.0000000000000 -27976114.059563927 -5025294.3892564680 -85775224.019291580 9.9629403834652866e-06 -0.00062292652527779196 -0.0013565168220230485 2.0000000000000000 0.0000000000000000 -3.5473081847702108 
0.0000000000000000 10000.000000000000 -3333.3333333330002 -26825095.810869567 -3874276.1402564086 -81694341.140148655 1.0989565144216529e-05 -0.00066584537922787488 -0.0014606513580457847 2.0000000000000000 0.0000000000000000 -3.8670072545282861 
0.0000000000000000 10000.000000000000 -3166.6666666669998 -25673974.503949188 -2723154.8330131634 -77613092.872853518 1.1599900982964326e-05 -0.00070411910449521523 -0.0015594057074169937 2.0000000000000000 0.0000000000000000 -4.1718121790191391 
0.0000000000000000 10000.000000000000 -3000.0000000000000 -24522750.129563071 -1571930.4582965134 -73531479.184652790 1.1829127538591768e-05 -0.00073780085586869974 -0.0016531913059764649 2.0000000000000000 0.0000000000000000 -4.4617216246760654 
0.0000000000000000 10000.000000000000 -2833.3333333330002 -23371422.678475186 -420603.00688013871 -69449500.042809069 1.1714139344555490e-05 -0.00076687274845593377 -0.0017420160408506582 2.0000000000000000 0.0000000000000000 -4.7367342578073437 
0.0000000000000000 10000.000000000000 -2666.6666666669998 -22219992.141448133 730827.53046342102 -65367155.414582714 1.1289178749182204e-05 -0.00079124463573407213 -0.0018254696981489537 2.0000000000000000 0.0000000000000000 -4.9968487446021168 
0.0000000000000000 10000.000000000000 -2500.0000000000000 -21068458.509238102 1882361.1629678125 -61284445.267213896 1.0587648010744365e-05 -0.00081074266766213710 -0.0019027576221089667 2.0000000000000000 0.0000000000000000 -5.2420637511346584 
0.0000000000000000 10000.000000000000 -2333.3333333330002 -19916821.772605356 3033997.8998623108 -57201369.567959696 9.6445323671207826e-06 -0.00082507951955579134 -0.0019727356517341755 2.0000000000000000 0.0000000000000000 -5.4723779433550046 
0.0000000000000000 10000.000000000000 -2166.6666666669998 -18765081.922308937 4185737.7503769835 -53117928.284075782 8.4909776363555796e-06 -0.00083386066846261855 -0.0020339355595539090 2.0000000000000000 0.0000000000000000 -5.6877899870940372 
0.0000000000000000 10000.000000000000 -2000.0000000000000 -17613238.949101545 5337580.7237476856 -49034121.382798411 7.1563175414171929e-06 -0.00083656995194466253 -0.0020844809870747818 2.0000000000000000 0.0000000000000000 -5.8882985480669410 
0.0000000000000000 10000.000000000000 -1833.3333333329999 -16461292.843739884 6489526.8292055652 -44949948.831381544 5.6693859169773206e-06 -0.00083257706640287791 -0.0021220811961769810 2.0000000000000000 0.0000000000000000 -6.0739022918654628 
0.0000000000000000 10000.000000000000 -1666.6666666670001 -15309243.596979249 7641576.0759822428 -40865410.597078279 4.0656401176394678e-06 -0.00082112295923023645 -0.0021440238485055381 2.0000000000000000 0.0000000000000000 -6.2445998839621835 
9000.0000000000000 0.0000000000000000 -4833.3333333330002 -37180551.092016920 -14229731.399081461 -118409137.23775819 -0.00014110086767171273 0.00016005272824250774 -7.2192739595111672e-06 0.19999999978050051 -5.0000000000000000 -0.45368638718607662 
10000.000000000000 1000.0000000000000 -4833.3333333330002 -37180551.090503797 -14229731.400750345 -118409137.23337379 -8.5212601056538725e-05 0.00029832994041989491 1.1505705017770586e-05 0.0000000000000000 -4.4999999991667874 -0.45368638716915644 
10000.000000000000 0.0000000000000000 -4833.3333333330002 -37180551.091886774 -14229731.399706636 -118409137.24006663 -6.8558593335168192e-05 0.00013770285441021867 1.7210633339790809e-06 0.0000000000000000 -5.0000000000000000 -0.45368638719671878 
9000.0000000000000 0.0000000000000000 -5000.0000000000000 -37755622.407286465 -14804802.714288779 -120448026.44675925 -0.00014757073617403368 7.5655587327259059e-05 9.1257038582485063e-07 0.19999999977879615 -5.0000000000000000 0.0000000000000000 
10000.000000000000 1000.0000000000000 -5000.0000000000000 -37755622.405743480 -14804802.715946298 -120448026.44232923 -8.7902267394382135e-05 0.00014187656760045615 8.3499570649772547e-06 0.0000000000000000 -4.4999999991635260 0.0000000000000000 
10000.000000000000 0.0000000000000000 -5000.0000000000000 -37755622.407207519 -14804802.714980278 -120448026.44928899 -7.0845995394888913e-05 6.4427950381719989e-05 2.4984486500007473e-06 0.0000000000000000 -5.0000000000000000 0.0000000000000000 
9000.0000000000000 0.0000000000000000 -4666.6666666669998 -36030356.971974857 -13079537.279220659 -114331176.26580441 -0.00012419457778275089 0.00034483709323592800 -3.8215460509198082e-05 0.19999999978519023 -5.0000000000000000 -0.89249062578254390 
10000.000000000000 1000.0000000000000 -4666.6666666669998 -36030356.970530033 -13079537.280904621 -114331176.26149273 -7.7572106985263566e-05 0.00063768648748583224 8.4587973272529337e-06 0.0000000000000000 -4.4999999991759951 -0.89249062574789584 
10000.000000000000 0.0000000000000000 -4666.6666666669998 -36030356.971763022 -13079537.279721901 -114331176.26770777 -6.2208769188718278e-05 0.00030092573537279289 -5.8846642005471057e-06 0.0000000000000000 -5.0000000000000000 -0.89249062580163141 
9000.0000000000000 0.0000000000000000 -4500.0000000000000 -34880059.868262418 -11929240.175795959 -110252850.16947417 -0.00010182431267369063 0.00055844353858317940 -9.2711640625622429e-05 0.19999999979209815 -5.0000000000000000 -1.3164113833066353 
10000.000000000000 1000.0000000000000 -4500.0000000000000 -34880059.866900556 -11929240.177481264 -110252850.16520603 -6.6094555398649673e-05 0.0010245718097741400 -1.0905667225080286e-05 0.0000000000000000 -4.4999999991901038 -1.3164113832535695 
10000.000000000000 0.0000000000000000 -4500.0000000000000 -34880059.868006408 -11929240.176191041 -110252850.17104238 -5.3003784435185388e-05 0.00049499497351816876 -2.4280005032040232e-05 0.0000000000000000 -5.0000000000000000 -1.3164113833324529 
9000.0000000000000 0.0000000000000000 -4333.3333333330002 -33729659.771564141 -10778840.079477986 -106174158.91585028 -7.7906591270373370e-05 0.00079467595926050621 -0.00016023597548917457 0.19999999980061028 -5.0000000000000000 -1.7254473271475008 
10000.000000000000 1000.0000000000000 -4333.3333333330002 -33729659.770294011 -10778840.081153553 -106174158.91160887 -5.2172312246890373e-05 0.0014487853776310941 -4.1559872900929550e-05 0.0000000000000000 -4.4999999992082698 -1.7254473270754620 
10000.000000000000 0.0000000000000000 -4333.3333333330002 -33729659.771293037 -10778840.079784371 -106174158.91714337 -4.2259341600143330e-05 0.00071463136657365378 -5.0527743972375323e-05 0.0000000000000000 -5.0000000000000000 -1.7254473271787178 
9000.0000000000000 0.0000000000000000 -4166.6666666669998 -32579156.672578841 -9628336.9809530210 -102095102.47203530 -5.4684738676244067e-05 0.0010477155617647964 -0.00023314255557203134 0.19999999981025296 -5.0000000000000000 -2.1195971245745655 
10000.000000000000 1000.0000000000000 -4166.6666666669998 -32579156.671402704 -9628336.9826096296 -102095102.46781076 -3.7101402161045123e-05 0.0019010818299088615 -7.8612298158956887e-05 0.0000000000000000 -4.4999999992298267 -2.1195971244831204 
10000.000000000000 0.0000000000000000 -4166.6666666669998 -32579156.672313087 -9628336.9811865296 -102095102.47310410 -3.1049152144739102e-05 0.00095427845477708310 -8.1506113322874591e-05 0.0000000000000000 -5.0000000000000000 -2.1195971246101530 
9000.0000000000000 0.0000000000000000 -4000.0000000000000 -31428550.562011089 -8477730.8709151577 -98015680.805129856 -3.3350488590731456e-05 0.0013125246940140780 -0.00030629737532302426 0.19999999982067371 -5.0000000000000000 -2.4988594427442883 
10000.000000000000 1000.0000000000000 -4000.0000000000000 -31428550.560925610 -8477730.8725447692 -98015680.800915956 -2.1905955667551199e-05 0.0023733538671246194 -0.00011811515501892589 0.0000000000000000 -4.4999999992542543 -2.4988594426331066 
10000.000000000000 0.0000000000000000 -4000.0000000000000 -31428550.561763667 -8477730.8710894771 -98015680.806016937 -2.0127846053153150e-05 0.0012087958034583605 -0.00011455434653784998 0.0000000000000000 -5.0000000000000000 -2.4988594427834494 
9000.0000000000000 0.0000000000000000 -3833.3333333330002 -30277841.430578984 -7327021.7400743784 -93935893.882266462 -1.4442540082503254e-05 0.0015848633243040798 -0.00037654808707121166 0.19999999983161632 -5.0000000000000000 -2.8632329486860284 
10000.000000000000 1000.0000000000000 -3833.3333333330002 -30277841.429576650 -7327021.7416695710 -93935893.878058597 -7.3138240122484327e-06 0.0028585629579168711 -0.00015722769631964289 0.0000000000000000 -4.4999999992811599 -2.8632329485548591 
10000.000000000000 0.0000000000000000 -3833.3333333330002 -30277841.430356987 -7327021.7402009647 -93935893.883007079 -9.9677969371259791e-06 0.0014736897500886561 -0.00014767398046454307 0.0000000000000000 -5.0000000000000000 -2.8632329487281463 
9000.0000000000000 0.0000000000000000 -3666.6666666669998 -29127029.269007117 -6176209.5791495843 -89855741.670588851 1.8916224436696452e-06 0.0018609976758601602 -0.00044220300286294101 0.19999999984290048 -5.0000000000000000 -3.2127163093095596 
10000.000000000000 1000.0000000000000 -3666.6666666669998 -29127029.268077701 -6176209.5807031654 -89855741.666383058 6.2005762468544157e-06 0.0033502847461827009 -0.00019412074746861922 0.0000000000000000 -4.4999999993102611 -3.2127163091582078 
10000.000000000000 0.0000000000000000 -3666.6666666669998 -29127029.268813401 -6176209.5792378904 -89855741.671211973 -8.2204200386379375e-07 0.0017448483246252722 -0.00017953186855869174 0.0000000000000000 -5.0000000000000000 -3.2127163093541564 
9000.0000000000000 0.0000000000000000 -3500.0000000000000 -27976114.068019927 -5025294.3788619572 -85775224.137231544 1.5715429258329167e-05 0.0021377451404121922 -0.00050259534113929096 0.19999999985440212 -5.0000000000000000 -3.5473081914109930 
10000.000000000000 1000.0000000000000 -3500.0000000000000 -27976114.067151714 -5025294.3803665973 -85775224.133024037 1.8348547468327082e-05 0.0038427898316379504 -0.00022779053970889350 0.0000000000000000 -4.4999999993413748 -3.5473081912393076 
10000.000000000000 0.0000000000000000 -3500.0000000000000 -27976114.067854472 -5025294.3789196927 -85775224.137760758 7.1914937088537831e-06 0.0020186751918035996 -0.00020937476247182460 0.0000000000000000 -5.0000000000000000 -3.5473081914577005 
9000.0000000000000 0.0000000000000000 -3333.3333333330002 -26825095.818351075 -3874276.1299441811 -81694341.249355197 2.7206608008198994e-05 0.0024123108147215298 -0.00055769601117854842 0.19999999986603803 -5.0000000000000000 -3.8670072616602273 
10000.000000000000 1000.0000000000000 -3333.3333333330002 -26825095.817531787 -3874276.1313920980 -81694341.245142281 2.8982698976454307e-05 0.0043308986216959462 -0.00025783111514326160 0.0000000000000000 -4.4999999993744044 -3.8670072614680833 
10000.000000000000 0.0000000000000000 -3333.3333333330002 -26825095.818212070 -3874276.1299775811 -81694341.249809518 1.4055366182338416e-05 0.0022920668784480428 -0.00023686769538776759 0.0000000000000000 -5.0000000000000000 -3.8670072617087627 
9000.0000000000000 0.0000000000000000 -3166.6666666669998 -25673974.510737438 -2723154.8231343459 -77613092.974126652 3.6597280435291859e-05 0.0026820335989836200 -0.00060785579223571846 0.19999999987775380 -5.0000000000000000 -4.1718121866076521 
10000.000000000000 1000.0000000000000 -3166.6666666669998 -25673974.509954896 -2723154.8245170079 -77613092.969904900 3.8053607787342410e-05 0.0048095759914877712 -0.00028425244376608619 0.0000000000000000 -4.4999999994093294 -4.1718121863949449 
10000.000000000000 0.0000000000000000 -3166.6666666669998 -25673974.510622129 -2723154.8231484750 -77613092.974521413 1.9813551700917232e-05 0.0025620443280257497 -0.00026198690872663953 0.0000000000000000 -5.0000000000000000 -4.1718121866578004 
9000.0000000000000 0.0000000000000000 -3000.0000000000000 -24522750.135913275 -1571930.4491700516 -73531479.278699279 4.4127431107954639e-05 0.0029443771988386623 -0.00065360726321927998 0.19999999988951497 -5.0000000000000000 -4.4617216326892501 
10000.000000000000 1000.0000000000000 -3000.0000000000000 -24522750.135155875 -1571930.4504778564 -73531479.274465889 4.5564896355419501e-05 0.0052738905985092281 -0.00030731069055787476 0.0000000000000000 -4.4999999994462074 -4.4617216324558884 
10000.000000000000 0.0000000000000000 -3000.0000000000000 -24522750.135818534 -1571930.4491690148 -73531479.279046655 2.4529470120792645e-05 0.0028257550668292328 -0.00028488865229563684 0.0000000000000000 -5.0000000000000000 -4.4617216327408524 
9000.0000000000000 0.0000000000000000 -2833.3333333330002 -23371422.684620179 -420602.99879828125 -69449500.130249023 5.0028112562676461e-05 0.0031967956276482156 -0.00069553033621080982 0.19999999990130085 -5.0000000000000000 -4.7367342662156382 
10000.000000000000 1000.0000000000000 -2833.3333333330002 -23371422.683877170 -420603.00002026709 -69449500.126002252 5.1563628816679026e-05 0.0057188898550035068 -0.00032741346929581426 0.0000000000000000 -4.4999999994851620 -4.7367342659615428 
10000.000000000000 0.0000000000000000 -2833.3333333330002 -23371422.684542924 -420602.99878547224 -69449500.130558670 2.8291004581688785e-05 0.0030804674274893824 -0.00030583116005738380 0.0000000000000000 -5.0000000000000000 -4.7367342662685736 
9000.0000000000000 0.0000000000000000 -2666.6666666669998 -22219992.147601694 730827.53723007359 -65367155.495955445 5.4501724016493052e-05 0.0034366103728320579 -0.00073416174544025390 0.19999999991309947 -5.0000000000000000 -4.9968487533779662 
10000.000000000000 1000.0000000000000 -2666.6666666669998 -22219992.146863267 730827.53610664047 -65367155.491695061 5.6108465674164837e-05 0.0061393388196408537 -0.00034504206479482396 0.0000000000000000 -4.4999999995263824 -4.9968487531030741 
10000.000000000000 0.0000000000000000 -2666.6666666669998 -22219992.147539139 730827.53725180635 -65367155.496235073 3.1182990293298286e-05 0.0033233237707863128 -0.00032512918806650167 0.0000000000000000 -5.0000000000000000 -4.9968487534321522 
9000.0000000000000 0.0000000000000000 -2500.0000000000000 -21068458.515597600 1882361.1681658761 -61284445.342981957 5.7714415842033452e-05 0.0036609084741987940 -0.00076991834914684238 0.19999999992490630 -5.0000000000000000 -5.2420637602521998 
10000.000000000000 1000.0000000000000 -2500.0000000000000 -21068458.514855038 1882361.1671558213 -61284445.338709950 5.9252750910598209e-05 0.0065295637880248419 -0.00036066851393633346 0.0000000000000000 -4.4999999995701270 -5.2420637599564701 
10000.000000000000 0.0000000000000000 -2500.0000000000000 -21068458.515547432 1882361.1681940879 -61284445.343237579 3.3274717327863755e-05 0.0035512476175124505 -0.00034307567780777321 0.0000000000000000 -5.0000000000000000 -5.2420637603075830 
9000.0000000000000 0.0000000000000000 -2333.3333333330002 -19916821.779354259 3033997.9032514179 -57201369.638512403 5.9795565379097752e-05 0.0038663703401992052 -0.00080306763964102881 0.19999999993672257 -5.0000000000000000 -5.4723779527897642 
10000.000000000000 1000.0000000000000 -2333.3333333330002 -19916821.778599963 3033997.9023721302 -57201369.634233624 6.1040018200876826e-05 0.0068833016596856113 -0.00037472517496821831 0.0000000000000000 -4.4999999996167173 -5.4723779524731917 
10000.000000000000 0.0000000000000000 -2333.3333333330002 -19916821.779314775 3033997.9032839085 -57201369.638748765 3.4619607775652792e-05 0.0037608012358511132 -0.00035991407488171077 0.0000000000000000 -5.0000000000000000 -5.4723779528463137 
9000.0000000000000 0.0000000000000000 -2166.6666666669998 -18765081.929619342 4185737.7517255815 -53117928.349732414 6.0834024300985033e-05 0.0040491975140673668 -0.00083368914081935323 0.19999999994855547 -5.0000000000000000 -5.6877899968226293 
10000.000000000000 1000.0000000000000 -2166.6666666669998 -18765081.928846836 4185737.7509975536 -53117928.345455177 6.1494364590916124e-05 0.0071934959003400883 -0.00038756722893965197 0.0000000000000000 -4.4999999996665467 -5.6877899964852592 
10000.000000000000 0.0000000000000000 -2166.6666666669998 -18765081.929589629 4185737.7517602229 -53117928.349953458 3.5249366357596848e-05 0.0039481253215220332 -0.00037580797467631571 0.0000000000000000 -5.0000000000000000 -5.6877899968803387 
9000.0000000000000 0.0000000000000000 -2000.0000000000000 -17613238.957136385 5337580.7228291836 -49034121.443809919 6.0876532163440475e-05 0.0042049482105710207 -0.00086161364743626173 0.19999999996041895 -5.0000000000000000 -5.8882985580667846 
10000.000000000000 1000.0000000000000 -2000.0000000000000 -17613238.956340447 5337580.7222765917 -49034121.439546913 6.0622486501024521e-05 0.0074519704203215055 -0.00039942001091472978 0.0000000000000000 -4.4999999997200781 -5.8882985577087350 
10000.000000000000 0.0000000000000000 -2000.0000000000000 -17613238.957116410 5337580.7228638809 -49034121.444018736 3.5182641684321540e-05 0.0041086919974196272 -0.00039078784954901010 0.0000000000000000 -5.0000000000000000 -5.8882985581256611 
9000.0000000000000 0.0000000000000000 -1833.3333333329999 -16461292.852655191 6489526.8257944006 -44949948.887931734 5.9923804084444158e-05 0.0043283582449150561 -0.00088637805464218265 0.19999999997233664 -5.0000000000000000 -6.0739023021144796 
10000.000000000000 1000.0000000000000 -1833.3333333329999 -16461292.851832006 6489526.8254457973 -44949948.883701026 5.8417168529641109e-05 0.0076492627785177229 -0.00041034391711974801 0.0000000000000000 -4.4999999997778559 -6.0739023017359681 
10000.000000000000 0.0000000000000000 -1833.3333333329999 -16461292.852646004 6489526.8258269271 -44949948.888130799 3.4422092883849805e-05 0.0042371529586570705 -0.00040472339528377702 0.0000000000000000 -5.0000000000000000 -6.0739023021745506 
9000.0000000000000 0.0000000000000000 -1666.6666666670001 -15309243.606926654 7641576.0698497379 -40865410.649284884 5.7944388758659507e-05 0.0044131986756632251 -0.00090714974293575122 0.19999999998434476 -5.0000000000000000 -6.2445998944384975 
10000.000000000000 1000.0000000000000 -1666.6666666670001 -15309243.606074011 7641576.0697389301 -40865410.645110793 5.4854221637518038e-05 0.0077743925396888316 -0.00042017011722537582 0.0000000000000000 -4.4999999998405071 -6.2445998940398768 
10000.000000000000 0.0000000000000000 -1666.6666666670001 -15309243.606930740 7641576.0698775779 -40865410.649476334 3.2950737639878494e-05 0.0043272474931196989 -0.00041725324124232443 0.0000000000000000 -5.0000000000000000 -6.2445998944998040 
0.0000000000000000 0.0000000000000000 -4833.3333333330002 -37180551.094837204 -14229731.385059457 -118409137.16962242 0.00014968974530668307 0.00017353064707028806 1.0209746344194761e-05 2.0000000000000000 -5.0000000000000000 -0.45368638689462781 
0.0000000000000000 0.0000000000000000 -5000.0000000000000 -37755622.409339704 -14804802.699426522 -120448026.37559366 0.00015827013351922504 8.2360137763390259e-05 8.5655443072859993e-06 2.0000000000000000 -5.0000000000000000 0.0000000000000000 
0.0000000000000000 0.0000000000000000 -4666.6666666669998 -36030356.976162300 -13079537.266778957 -114331176.20342177 0.00012823856648853780 0.00037190352076280292 -6.1934077098212753e-07 2.0000000000000000 -5.0000000000000000 -0.89249062522139233 
0.0000000000000000 0.0000000000000000 -4500.0000000000000 -34880059.873502888 -11929240.164744515 -110252850.11226511 0.00010195149605929946 0.00059907625755151607 -3.9011261848929512e-05 2.0000000000000000 -5.0000000000000000 -1.3164113824958039 
0.0000000000000000 0.0000000000000000 -4333.3333333330002 -33729659.777581885 -10778840.069646370 -106174158.86329834 7.6275289128677703e-05 0.00084832222860052359 -0.00010187129870213772 2.0000000000000000 -5.0000000000000000 -1.7254473261054055 
0.0000000000000000 0.0000000000000000 -4166.6666666669998 -32579156.679133549 -9628336.9721883014 -102095102.42367941 5.3549617326421168e-05 0.0011132292695270362 -0.00018403740343456965 2.0000000000000000 -5.0000000000000000 -2.1195971233181230 
0.0000000000000000 0.0000000000000000 -4000.0000000000000 -31428550.568893701 -8477730.8630799334 -98015680.760557711 3.4530339528773094e-05 0.0013883044410970401 -0.00028011454548944228 2.0000000000000000 -5.0000000000000000 -2.4988594412890217 
0.0000000000000000 0.0000000000000000 -3833.3333333330002 -30277841.437607419 -7327021.7330450816 -93935893.841109186 1.9198348894169233e-05 0.0016689105711831826 -0.00038524949685181582 2.0000000000000000 -5.0000000000000000 -2.8632329470461717 
0.0000000000000000 0.0000000000000000 -3666.6666666669998 -29127029.276022069 -6176209.5728149172 -89855741.632516280 7.1752022104051584e-06 0.0019512420379539518 -0.00049542129492057203 2.0000000000000000 -5.0000000000000000 -3.2127163074981642 
0.0000000000000000 0.0000000000000000 -3500.0000000000000 -27976114.074881203 -5025294.3731216379 -85775224.101948723 -2.0450430219643335e-06 0.0022320621757742423 -0.00060738310966523888 2.0000000000000000 -5.0000000000000000 -3.5473081894400305 
0.0000000000000000 0.0000000000000000 -3333.3333333330002 -26825095.824934140 -3874276.1247076923 -81694341.216598928 -8.9790769007643649e-06 0.0025086322077525038 -0.00071859978536047034 2.0000000000000000 -5.0000000000000000 -3.8670072595406926 
0.0000000000000000 0.0000000000000000 -3166.6666666669998 -25673974.516930513 -2723154.8183199558 -77613092.943663120 -1.4109819292218054e-05 0.0027785067914273707 -0.00082709048685886122 2.0000000000000000 -5.0000000000000000 -4.1718121843496654 
0.0000000000000000 0.0000000000000000 -3000.0000000000000 -24522750.141614757 -1571930.4447039559 -73531479.250322074 -1.7864396974317896e-05 0.0030393364518041632 -0.00093130964286160657 2.0000000000000000 -5.0000000000000000 -4.4617216303021534 
0.0000000000000000 0.0000000000000000 -2833.3333333330002 -23371422.689736336 -420602.99461379036 -69449500.103777379 -2.0606284281938124e-05 0.0032888418093360346 -0.0010299756508621528 2.0000000000000000 -5.0000000000000000 -4.7367342637080920 
0.0000000000000000 0.0000000000000000 -2666.6666666669998 -22219992.152044512 730827.54119329830 -65367155.471232742 -2.2624472193738692e-05 0.0035245359752898468 -0.0011219603462894734 2.0000000000000000 -5.0000000000000000 -4.9968487507580459 
0.0000000000000000 0.0000000000000000 -2500.0000000000000 -21068458.519282907 1882361.1719624463 -61284445.319874719 -2.4147437432901924e-05 0.0037437434364151574 -0.0012062391803078271 2.0000000000000000 -5.0000000000000000 -5.2420637575274869 
0.0000000000000000 0.0000000000000000 -2333.3333333330002 -19916821.782200035 3033997.9069307130 -57201369.616909720 -2.5364859836468704e-05 0.0039434227612283098 -0.0012817454746066859 2.0000000000000000 -5.0000000000000000 -5.4723779499674388 
0.0000000000000000 0.0000000000000000 -2166.6666666669998 -18765081.931543838 4185737.7553324332 -53117928.329544783 -2.6400683930458570e-05 0.0041199635898208145 -0.0013472747761066267 2.0000000000000000 -5.0000000000000000 -5.6877899939095640 
0.0000000000000000 0.0000000000000000 -2000.0000000000000 -17613238.958056521 5337580.7264043037 -49034121.424969018 -2.7327421289470904e-05 0.0042691144833151839 -0.0014013979597104135 2.0000000000000000 -5.0000000000000000 -5.8882985550696363 
0.0000000000000000 0.0000000000000000 -1833.3333333329999 -16461292.852484880 6489526.8293748172 -44949948.870390341 -2.8195893890340952e-05 0.0043858742814751085 -0.0014424738921398473 2.0000000000000000 -5.0000000000000000 -6.0739022990397880 
0.0000000000000000 0.0000000000000000 -1666.6666666670001 -15309243.605574992 7641576.0734693101 -40865410.633016624 -2.9004046636737673e-05 0.0044641953356866233 -0.0014684844132546999 2.0000000000000000 -5.0000000000000000 -6.2445998912927783 
9000.0000000000000 10000.000000000000 -4833.3333333330002 -37180551.057202004 -14229731.404498734 -118409137.06720126 3.5270229751092736e-05 -9.0228823899234309e-05 6.6483827788226847e-05 0.19999999983491809 0.0000000000000000 -0.45368638645405324 
9000.0000000000000 10000.000000000000 -5000.0000000000000 -37755622.370383233 -14804802.717765406 -120448026.26852971 3.5670793020427905e-05 -4.6037323774580829e-05 3.4076965143755230e-05 0.19999999983415068 0.0000000000000000 0.0000000000000000 
9000.0000000000000 10000.000000000000 -4666.6666666669998 -36030356.941059045 -13079537.288105663 -114331176.10982248 3.4097616779014319e-05 -0.00017501873815786061 0.00012800502318918120 0.19999999983714450 0.0000000000000000 -0.89249062437637894 
9000.0000000000000 10000.000000000000 -4500.0000000000000 -34880059.840731330 -11929240.187377503 -110252850.02661197 3.2243232542005315e-05 -0.00025280740439045436 0.00018303590153217607 0.19999999984068120 0.0000000000000000 -1.3164113812788925 
9000.0000000000000 10000.000000000000 -4333.3333333330002 -33729659.746976532 -10778840.093087766 -106174158.78481190 2.9847125606422623e-05 -0.00032396721160651501 0.00023182530825276274 0.19999999984538497 0.0000000000000000 -1.7254473245459931 
9000.0000000000000 10000.000000000000 -4166.6666666669998 -32579156.650552344 -9628336.9960092790 -102095102.35166405 2.7067823048369981e-05 -0.00038886621645030351 0.00027473415749401788 0.19999999985111805 0.0000000000000000 -2.1195971214428422 
9000.0000000000000 10000.000000000000 -4000.0000000000000 -31428550.542211365 -8477730.8869090211 -98015680.694391519 2.4057443653702663e-05 -0.00044786425518075675 0.00031218189372281811 0.19999999985774999 0.0000000000000000 -2.4988594391220635 
9000.0000000000000 10000.000000000000 -3833.3333333330002 -30277841.412711449 -7327021.7565584639 -93935893.780235395 2.0950571931978456e-05 -0.00050131542228429218 0.00034461834697729953 0.19999999986515590 0.0000000000000000 -2.8632329446095666 
9000.0000000000000 10000.000000000000 -3666.6666666669998 -29127029.252810530 -6176209.5957283629 -89855741.576436356 1.7859019703681428e-05 -0.00054955036609763126 0.00037251411348859201 0.19999999987321873 0.0000000000000000 -3.2127163048120218 
9000.0000000000000 10000.000000000000 -3500.0000000000000 -27976114.053261478 -5025294.3951836163 -85775224.050216377 1.4870958238595660e-05 -0.00059286552038074103 0.00039632959732088639 0.19999999988182865 0.0000000000000000 -3.5473081865227560 
9000.0000000000000 10000.000000000000 -3333.3333333330002 -26825095.804822426 -3874276.1456935969 -81694341.168815285 1.2052647036164760e-05 -0.00063152038270277387 0.00041649387620511106 0.19999999989088377 0.0000000000000000 -3.8670072564091780 
9000.0000000000000 10000.000000000000 -3166.6666666669998 -25673974.498251610 -2723154.8380270251 -77613092.899472609 9.4491663007044818e-06 -0.00066572196236172425 0.00043338460880656005 0.19999999990028966 0.0000000000000000 -4.1718121810194591 
9000.0000000000000 10000.000000000000 -3000.0000000000000 -24522750.124302179 -1571930.4629467893 -73531479.209409028 7.0876384437594924e-06 -0.00069560908944622541 0.00044732780560942441 0.19999999990995912 0.0000000000000000 -4.4617216267876216 
9000.0000000000000 10000.000000000000 -2833.3333333330002 -23371422.673732527 -420603.01122035232 -69449500.065863252 4.9805120724972250e-06 -0.00072123650172477088 0.00045857181389668167 0.19999999991981271 0.0000000000000000 -4.7367342600225619 
9000.0000000000000 10000.000000000000 -2666.6666666669998 -22219992.137301102 730827.52638538484 -65367155.436073542 3.1263777796365921e-06 -0.00074257506681828949 0.00046727945145231609 0.19999999992977710 0.0000000000000000 -4.9968487469139422 
9000.0000000000000 10000.000000000000 -2500.0000000000000 -21068458.505761243 1882361.1591091976 -61284445.287259430 1.5115997233054018e-06 -0.00075949711881010784 0.00047354398910102774 0.19999999993978512 0.0000000000000000 -5.2420637535364634 
9000.0000000000000 10000.000000000000 -2333.3333333330002 -19916821.769871462 3033997.8961851597 -57201369.586658344 1.1288449745416125e-07 -0.00077175871221141722 0.00047736326760309047 0.19999999994977508 0.0000000000000000 -5.4723779458405053 
9000.0000000000000 10000.000000000000 -2166.6666666669998 -18765081.920390293 4185737.7468477394 -53117928.301507331 -1.1028681403436454e-06 -0.00077901678479279303 0.00047862846405346106 0.19999999995969017 0.0000000000000000 -5.6877899896572064 
9000.0000000000000 10000.000000000000 -2000.0000000000000 -17613238.948071081 5337580.7203368815 -49034121.399024680 -2.1796483602011593e-06 -0.00078081118937708624 0.00047714269883504686 0.19999999996947668 0.0000000000000000 -5.8882985507019390 
9000.0000000000000 10000.000000000000 -1833.3333333329999 -16461292.843672311 6489526.8258876149 -44949948.846446574 -3.1687294269993067e-06 -0.00077654875295707023 0.00047260493504981525 0.19999999997908408 0.0000000000000000 -6.0739022945665502 
9000.0000000000000 10000.000000000000 -1666.6666666670001 -15309243.597952385 7641576.0727351671 -40865410.611008666 -4.1290808025209113e-06 -0.00076551621824801313 0.00046459885600419069 0.19999999998846360 0.0000000000000000 -6.2445998867236439 
5000.0000000000000 10000.000000000000 -4833.3333333330002 -37180551.055690475 -14229731.399396598 -118409137.04703259 3.7295186983578334e-05 -9.0392773374779118e-05 -3.5953516302422812e-05 0.99999999927790206 0.0000000000000000 -0.45368638637336611 
5000.0000000000000 10000.000000000000 -5000.0000000000000 -37755622.368631557 -14804802.712399676 -120448026.24740851 3.7479381935141084e-05 -4.6137773550653575e-05 -1.4416125846045635e-05 0.99999999927467775 0.0000000000000000 0.0000000000000000 
5000.0000000000000 10000.000000000000 -4666.6666666669998 -36030356.939988919 -13079537.283513730 -114331176.09151492 3.6772435740155234e-05 -0.00017527162609286715 -9.1226894276757542e-05 0.99999999928712202 0.0000000000000000 -0.89249062422199665 
5000.0000000000000 10000.000000000000 -4500.0000000000000 -34880059.840027645 -11929240.183262222 -110252850.01007697 3.5974666090255386e-05 -0.00025314406527252292 -0.00016723868152273931 0.99999999930150218 0.0000000000000000 -1.3164113810575835 
5000.0000000000000 10000.000000000000 -4333.3333333330002 -33729659.746570215 -10778840.089416606 -106174158.76995990 3.4959066643604469e-05 -0.00032450193934038080 -0.00025756805239854851 0.99999999932033767 0.0000000000000000 -1.7254473242642829 
5000.0000000000000 10000.000000000000 -4166.6666666669998 -32579156.650380626 -9628336.9927509129 -102095102.33840531 3.3761865415930132e-05 -0.00038979793880649722 -0.00035717281937735438 0.99999999934303063 0.0000000000000000 -2.1195971211069957 
5000.0000000000000 10000.000000000000 -4000.0000000000000 -31428550.542217683 -8477730.8840333708 -98015680.682636634 3.2405144278451571e-05 -0.00044944108338389383 -0.00046190723524196491 0.99999999936907213 0.0000000000000000 -2.4988594387380707 
5000.0000000000000 10000.000000000000 -3833.3333333330002 -30277841.412845317 -7327021.7540367078 -93935893.769895583 3.0902382857948256e-05 -0.00050379153564747881 -0.00056828211092415162 0.99999999939802808 0.0000000000000000 -2.8632329441831295 
5000.0000000000000 10000.000000000000 -3666.6666666669998 -29127029.253027368 -6176209.5935329460 -89855741.567423716 2.9259770743538849e-05 -0.00055316103149341393 -0.00067319719475067560 0.99999999942952711 0.0000000000000000 -3.2127163043485458 
5000.0000000000000 10000.000000000000 -3500.0000000000000 -27976114.053522483 -5025294.3932882575 -85775224.042444080 2.7481539628513115e-05 -0.00059781605304121989 -0.00077388414004865460 0.99999999946325413 0.0000000000000000 -3.5473081860273421 
5000.0000000000000 10000.000000000000 -3333.3333333330002 -26825095.805094469 -3874276.1440733206 -81694341.162197694 2.5571598361635847e-05 -0.00063797055248190134 -0.00086784803210062972 0.99999999949894280 0.0000000000000000 -3.8670072558866178 
5000.0000000000000 10000.000000000000 -3166.6666666669998 -25673974.498507187 -2723154.8366581663 -77613092.893925309 2.3532536641999868e-05 -0.00067377202463456880 -0.00095284149809653142 0.99999999953637075 0.0000000000000000 -4.1718121804742294 
5000.0000000000000 10000.000000000000 -3000.0000000000000 -24522750.124519356 -1571930.4618070247 -73531479.204848826 2.1366555366689450e-05 -0.00070529592486045796 -0.0010268695116156415 0.99999999957535424 0.0000000000000000 -4.4617216262238806 
5000.0000000000000 10000.000000000000 -2833.3333333330002 -23371422.673894912 -420603.01028869185 -69449500.062208042 1.9077344683339549e-05 -0.00073254355842345461 -0.0010881703274423866 0.99999999961574493 0.0000000000000000 -4.7367342594441455 
5000.0000000000000 10000.000000000000 -2666.6666666669998 -22219992.137397923 730827.52712850878 -65367155.433242440 1.6668327438204233e-05 -0.00075542597297831131 -0.0011352282703752648 0.99999999965742448 0.0000000000000000 -4.9968487463243605 
5000.0000000000000 10000.000000000000 -2500.0000000000000 -21068458.505787294 1882361.1596819763 -61284445.285172552 1.4142430060687343e-05 -0.00077376190347431542 -0.0011667997016467022 0.99999999970030273 0.0000000000000000 -5.2420637529388969 
5000.0000000000000 10000.000000000000 -2333.3333333330002 -19916821.769827180 3033997.8966043671 -57201369.585236683 1.1506088612609405e-05 -0.00078726919073952926 -0.0011819360832136345 0.99999999974431242 0.0000000000000000 -5.4723779452378007 
5000.0000000000000 10000.000000000000 -2166.6666666669998 -18765081.920281827 4185737.7471286692 -53117928.300672732 8.7652323246012023e-06 -0.00079554525806564452 -0.0011799657179488888 0.99999999978940612 0.0000000000000000 -5.6877899890518728 
5000.0000000000000 10000.000000000000 -2000.0000000000000 -17613238.947910368 5337580.7204933371 -49034121.398699775 5.9229125981407479e-06 -0.00079808374637963561 -0.0011605583602035379 0.99999999983555277 0.0000000000000000 -5.8882985500961382 
5000.0000000000000 10000.000000000000 -1833.3333333329999 -16461292.843477191 6489526.8259318843 -44949948.846554682 2.9870165596877238e-06 -0.00079426426653367570 -0.0011237304229766586 0.99999999988273425 0.0000000000000000 -6.0739022939621030 
5000.0000000000000 10000.000000000000 -1666.6666666670001 -15309243.597746750 7641576.0726779476 -40865410.611473739 -3.0944474146822959e-08 -0.00078334970546264915 -0.0010698534760163747 0.99999999993094246 0.0000000000000000 -6.2445998861220158 
10000.000000000000 10000.000000000000 -4833.3333333330002 -37180551.057358272 -14229731.404727386 -118409137.06786203 2.0916336526544757e-05 -9.1230127929177050e-05 3.5340377270622102e-05 0.0000000000000000 0.0000000000000000 -0.45368638645642001 
10000.000000000000 10000.000000000000 -5000.0000000000000 -37755622.370548896 -14804802.718004389 -120448026.26922505 2.1157306985699093e-05 -4.6591686009879736e-05 1.8062831799444740e-05 0.0000000000000000 0.0000000000000000 0.0000000000000000 
10000.000000000000 10000.000000000000 -4666.6666666669998 -36030356.941197194 -13079537.288313478 -114331176.11041521 2.0212320232409236e-05 -0.00017670284100089947 6.8313158595808247e-05 0.0000000000000000 0.0000000000000000 -0.89249062438086579 
10000.000000000000 10000.000000000000 -4500.0000000000000 -34880059.840852737 -11929240.187564258 -110252850.02713878 1.9099384897200688e-05 -0.00025476884803768190 9.8143458101020454e-05 0.0000000000000000 0.0000000000000000 -1.3164113812852598 
10000.000000000000 10000.000000000000 -4333.3333333330002 -33729659.747082636 -10778840.093253540 -106174158.78527507 1.7656325413692779e-05 -0.00032585504670204761 0.00012489489698635844 0.0000000000000000 0.0000000000000000 -1.7254473245540083 
10000.000000000000 10000.000000000000 -4166.6666666669998 -32579156.650644638 -9628336.9961544387 -102095102.35206603 1.5972923802847972e-05 -0.00039040515034339043 0.00014867905448539041 0.0000000000000000 0.0000000000000000 -2.1195971214522817 
10000.000000000000 10000.000000000000 -4000.0000000000000 -31428550.542291306 -8477730.8870341890 -98015680.694734901 1.4139472388264966e-05 -0.00044885261765812833 0.00016964838264283614 0.0000000000000000 0.0000000000000000 -2.4988594391327146 
10000.000000000000 10000.000000000000 -3833.3333333330002 -30277841.412780449 -7327021.7566644959 -93935893.780523032 1.2239334486318210e-05 -0.00050161938214028233 0.00018798199421257483 0.0000000000000000 0.0000000000000000 -2.8632329446212257 
10000.000000000000 10000.000000000000 -3666.6666666669998 -29127029.252869889 -6176209.5958162639 -89855741.576671243 1.0344455825826741e-05 -0.00054909030223519804 0.00020387873365042096 0.0000000000000000 0.0000000000000000 -3.2127163048244967 
10000.000000000000 10000.000000000000 -3500.0000000000000 -27976114.053312317 -5025294.3952545021 -85775224.050401598 8.5130456217887595e-06 -0.00059160563524352340 0.00021754369401589827 0.0000000000000000 0.0000000000000000 -3.5473081865358642 
10000.000000000000 10000.000000000000 -3333.3333333330002 -26825095.804865737 -3874276.1457487070 -81694341.168954268 6.7886948279693122e-06 -0.00062945889891016121 0.00022917233163303219 0.0000000000000000 0.0000000000000000 -3.8670072564227502 
10000.000000000000 10000.000000000000 -3166.6666666669998 -25673974.498288173 -2723154.8380676331 -77613092.899568886 5.2007163386578064e-06 -0.00066288220803423096 0.00023893794111135925 0.0000000000000000 0.0000000000000000 -4.1718121810333368 
10000.000000000000 10000.000000000000 -3000.0000000000000 -24522750.124332551 -1571930.4629741800 -73531479.209466234 3.7680920233443523e-06 -0.00069202658442449241 0.00024699376598540242 0.0000000000000000 0.0000000000000000 -4.4617216268016602 
10000.000000000000 10000.000000000000 -2833.3333333330002 -23371422.673757039 -420603.01123580249 -69449500.065885127 2.5007745191591882e-06 -0.00071695884648327645 0.00025345755772061612 0.0000000000000000 0.0000000000000000 -4.7367342600366307 
10000.000000000000 10000.000000000000 -2666.6666666669998 -22219992.137319840 730827.52638064185 -65367155.436063871 1.3975870057370700e-06 -0.00073766405310482519 0.00025840903461454438 0.0000000000000000 0.0000000000000000 -4.9968487469279239 
10000.000000000000 10000.000000000000 -2500.0000000000000 -21068458.505774070 1882361.1591139683 -61284445.287222192 4.4887886179370733e-07 -0.00075401989828586917 0.00026189837989786544 0.0000000000000000 0.0000000000000000 -5.2420637535502568 
10000.000000000000 10000.000000000000 -2333.3333333330002 -19916821.769877955 3033997.8961983724 -57201369.586597368 -3.5848239479984667e-07 -0.00076578460272021861 0.00026391722044160899 0.0000000000000000 0.0000000000000000 -5.4723779458540243 
10000.000000000000 10000.000000000000 -2166.6666666669998 -18765081.920389786 4185737.7468684008 -53117928.301426545 -1.0447075255965200e-06 -0.00077262174158416715 0.00026441796965708252 0.0000000000000000 0.0000000000000000 -5.6877899896703781 
10000.000000000000 10000.000000000000 -2000.0000000000000 -17613238.948062677 5337580.7203641096 -49034121.398928031 -1.6400258867630774e-06 -0.00077407980465947013 0.00026331066153665878 0.0000000000000000 0.0000000000000000 -5.8882985507147074 
10000.000000000000 10000.000000000000 -1833.3333333329999 -16461292.843654824 6489526.8259206787 -44949948.846337914 -2.1782458958130825e-06 -0.00076957042342086458 0.00026042257078802807 0.0000000000000000 0.0000000000000000 -6.0739022945788781 
10000.000000000000 10000.000000000000 -1666.6666666670001 -15309243.597924355 7641576.0727734901 -40865410.610891804 -2.6961822429335513e-06 -0.00075839775335928799 0.00025554399427070776 0.0000000000000000 0.0000000000000000 -6.2445998867355099 
1 2 3 4 5 6 7 8 
9 10 11 12 1 2 3 4 
13 14 15 16 9 10 11 12 
17 18 19 20 13 14 15 16 
21 22 23 24 17 18 19 20 
25 26 27 28 21 22 23 24 
29 30 31 32 25 26 27 28 
33 34 35 36 29 30 31 32 
37 38 39 40 33 34 35 36 
41 42 43 44 45 46 47 48 
49 50 51 52 41 42 43 44 
53 54 55 56 49 50 51 52 
57 58 59 60 53 54 55 56 
61 62 63 64 57 58 59 60 
65 66 67 68 61 62 63 64 
69 70 71 72 65 66 67 68 
73 74 75 76 69 70 71 72 
77 78 79 80 73 74 75 76 
81 82 83 84 85 86 87 88 
89 90 91 92 81 82 83 84 
93 94 95 96 89 90 91 92 
97 98 99 100 93 94 95 96 
101 102 103 104 97 98 99 100 
105 106 107 108 101 102 103 104 
109 110 111 112 105 106 107 108 
113 114 115 116 109 110 111 112 
117 118 119 120 113 114 115 116 
121 122 1 123 124 125 5 126 
127 128 9 129 121 122 1 123 
130 131 13 132 127 128 9 129 
133 134 17 135 130 131 13 132 
136 137 21 138 133 134 17 135 
139 140 25 141 136 137 21 138 
142 143 29 144 139 140 25 141 
145 146 33 147 142 143 29 144 
148 149 37 150 145 146 33 147 
151 152 153 154 155 156 157 158 
159 160 161 162 151 152 153 154 
163 164 165 166 159 160 161 162 
167 168 169 170 163 164 165 166 
171 172 173 174 167 168 169 170 
175 176 177 178 171 172 173 174 
179 180 181 182 175 176 177 178 
183 184 185 186 179 180 181 182 
187 188 189 190 183 184 185 186 
191 192 193 194 195 196 197 198 
199 200 201 202 191 192 193 194 
203 204 205 206 199 200 201 202 
207 208 209 210 203 204 205 206 
211 212 213 214 207 208 209 210 
215 216 217 218 211 212 213 214 
219 220 221 222 215 216 217 218 
223 224 225 226 219 220 221 222 
227 228 229 230 223 224 225 226 
231 191 194 232 233 195 198 234 
235 199 202 236 231 191 194 232 
237 203 206 238 235 199 202 236 
239 207 210 240 237 203 206 238 
241 211 214 242 239 207 210 240 
243 215 218 244 241 211 214 242 
245 219 222 246 243 215 218 244 
247 223 226 248 245 219 222 246 
249 227 230 250 247 223 226 248 
251 252 122 121 253 254 125 124 
255 256 128 127 251 252 122 121 
257 258 131 130 255 256 128 127 
259 260 134 133 257 258 131 130 
261 262 137 136 259 260 134 133 
263 264 140 139 261 262 137 136 
265 266 143 142 263 264 140 139 
267 268 146 145 265 266 143 142 
269 270 149 148 267 268 146 145 
271 272 273 274 275 276 277 278 
279 280 281 282 271 272 273 274 
283 284 285 286 279 280 281 282 
287 288 289 290 283 284 285 286 
291 292 293 294 287 288 289 290 
295 296 297 298 291 292 293 294 
299 300 301 302 295 296 297 298 
303 304 305 306 299 300 301 302 
307 308 309 310 303 304 305 306 
311 312 313 314 315 316 317 318 
319 320 321 322 311 312 313 314 
323 324 325 326 319 320 321 322 
327 328 329 330 323 324 325 326 
331 332 333 334 327 328 329 330 
335 336 337 338 331 332 333 334 
339 340 341 342 335 336 337 338 
343 344 345 346 339 340 341 342 
347 348 349 350 343 344 345 346 
154 153 314 313 158 157 318 317 
162 161 322 321 154 153 314 313 
166 165 326 325 162 161 322 321 
170 169 330 329 166 165 326 325 
174 173 334 333 170 169 330 329 
178 177 338 337 174 173 334 333 
182 181 342 341 178 177 338 337 
186 185 346 345 182 181 342 341 
190 189 350 349 186 185 346 345 
274 273 351 352 278 277 353 354 
282 281 355 356 274 273 351 352 
286 285 357 358 282 281 355 356 
290 289 359 360 286 285 357 358 
294 293 361 362 290 289 359 360 
298 297 363 364 294 293 361 362 
302 301 365 366 298 297 363 364 
306 305 367 368 302 301 365 366 
310 309 369 370 306 305 367 368 
371 372 373 374 375 376 377 378 
379 380 381 382 371 372 373 374 
383 384 385 386 379 380 381 382 
387 388 389 390 383 384 385 386 
391 392 393 394 387 388 389 390 
395 396 397 398 391 392 393 394 
399 400 401 402 395 396 397 398 
403 404 405 406 399 400 401 402 
407 408 409 410 403 404 405 406 
411 412 413 414 415 416 417 418 
419 420 421 422 411 412 413 414 
423 424 425 426 419 420 421 422 
427 428 429 430 423 424 425 426 
431 432 433 434 427 428 429 430 
435 436 437 438 431 432 433 434 
439 440 441 442 435 436 437 438 
443 444 445 446 439 440 441 442 
447 448 449 450 443 444 445 446 
411 451 452 453 415 454 455 456 
419 457 458 459 411 451 452 453 
423 460 461 462 419 457 458 459 
427 463 464 465 423 460 461 462 
431 466 467 468 427 463 464 465 
435 469 470 471 431 466 467 468 
439 472 473 474 435 469 470 471 
443 475 476 477 439 472 473 474 
447 478 479 480 443 475 476 477 
481 482 483 484 485 486 487 488 
489 490 491 492 481 482 483 484 
493 494 495 496 489 490 491 492 
497 498 499 500 493 494 495 496 
501 502 503 504 497 498 499 500 
505 506 507 508 501 502 503 504 
509 510 511 512 505 506 507 508 
513 514 515 516 509 510 511 512 
517 518 519 520 513 514 515 516 
521 352 522 523 524 354 525 526 
527 356 528 529 521 352 522 523 
530 358 531 532 527 356 528 529 
533 360 534 535 530 358 531 532 
536 362 537 538 533 360 534 535 
539 364 540 541 536 362 537 538 
542 366 543 544 539 364 540 541 
545 368 546 547 542 366 543 544 
548 370 549 550 545 368 546 547 
551 552 553 554 555 556 557 558 
559 560 561 562 551 552 553 554 
563 564 565 566 559 560 561 562 
567 568 569 570 563 564 565 566 
571 572 573 574 567 568 569 570 
575 576 577 578 571 572 573 574 
579 580 581 582 575 576 577 578 
583 584 585 586 579 580 581 582 
587 588 589 590 583 584 585 586 
591 154 313 592 593 158 317 594 
595 162 321 596 591 154 313 592 
597 166 325 598 595 162 321 596 
599 170 329 600 597 166 325 598 
601 174 333 602 599 170 329 600 
603 178 337 604 601 174 333 602 
605 182 341 606 603 178 337 604 
607 186 345 608 605 182 341 606 
609 190 349 610 607 186 345 608 
151 611 612 613 155 614 615 616 
159 617 618 619 151 611 612 613 
163 620 621 622 159 617 618 619 
167 623 624 625 163 620 621 622 
171 626 627 628 167 623 624 625 
175 629 630 631 171 626 627 628 
179 632 633 634 175 629 630 631 
183 635 636 637 179 632 633 634 
187 638 639 640 183 635 636 637 
641 84 642 312 643 88 644 316 
645 92 646 320 641 84 642 312 
647 96 648 324 645 92 646 320 
649 100 650 328 647 96 648 324 
651 104 652 332 649 100 650 328 
653 108 654 336 651 104 652 332 
655 112 656 340 653 108 654 336 
657 116 658 344 655 112 656 340 
659 120 660 348 657 116 658 344 
661 662 663 664 665 666 667 668 
669 670 671 672 661 662 663 664 
673 674 675 676 669 670 671 672 
677 678 679 680 673 674 675 676 
681 682 683 684 677 678 679 680 
685 686 687 688 681 682 683 684 
689 690 691 692 685 686 687 688 
693 694 695 696 689 690 691 692 
697 698 699 700 693 694 695 696 
352 351 701 522 354 353 702 525 
356 355 703 528 352 351 701 522 
358 357 704 531 356 355 703 528 
360 359 705 534 358 357 704 531 
362 361 706 537 360 359 705 534 
364 363 707 540 362 361 706 537 
366 365 708 543 364 363 707 540 
368 367 709 546 366 365 708 543 
370 369 710 549 368 367 709 546 
483 711 712 523 487 713 714 526 
491 715 716 529 483 711 712 523 
495 717 718 532 491 715 716 529 
499 719 720 535 495 717 718 532 
503 721 722 538 499 719 720 535 
507 723 724 541 503 721 722 538 
511 725 726 544 507 723 724 541 
515 727 728 547 511 725 726 544 
519 729 730 550 515 727 728 547 
731 732 733 664 734 735 736 668 
737 738 739 672 731 732 733 664 
740 741 742 676 737 738 739 672 
743 744 745 680 740 741 742 676 
746 747 748 684 743 744 745 680 
749 750 751 688 746 747 748 684 
752 753 754 692 749 750 751 688 
755 756 757 696 752 753 754 692 
758 759 760 700 755 756 757 696 
83 761 762 763 87 764 765 766 
91 767 768 769 83 761 762 763 
95 770 771 772 91 767 768 769 
99 773 774 775 95 770 771 772 
103 776 777 778 99 773 774 775 
107 779 780 781 103 776 777 778 
111 782 783 784 107 779 780 781 
115 785 786 787 111 782 783 784 
119 788 789 790 115 785 786 787 
481 451 791 792 485 454 793 794 
489 457 795 796 481 451 791 792 
493 460 797 798 489 457 795 796 
497 463 799 800 493 460 797 798 
501 466 801 802 497 463 799 800 
505 469 803 804 501 466 801 802 
509 472 805 806 505 469 803 804 
513 475 807 808 509 472 805 806 
517 478 809 810 513 475 807 808 
811 812 813 711 814 815 816 713 
817 818 819 715 811 812 813 711 
820 821 822 717 817 818 819 715 
823 824 825 719 820 821 822 717 
826 827 828 721 823 824 825 719 
829 830 831 723 826 827 828 721 
832 833 834 725 829 830 831 723 
835 836 837 727 832 833 834 725 
838 839 840 729 835 836 837 727 
841 842 554 553 843 844 558 557 
845 846 562 561 841 842 554 553 
847 848 566 565 845 846 562 561 
849 850 570 569 847 848 566 565 
851 852 574 573 849 850 570 569 
853 854 578 577 851 852 574 573 
855 856 582 581 853 854 578 577 
857 858 586 585 855 856 582 581 
859 860 590 589 857 858 586 585 
813 591 592 861 816 593 594 862 
819 595 596 863 813 591 592 861 
822 597 598 864 819 595 596 863 
825 599 600 865 822 597 598 864 
828 601 602 866 825 599 600 865 
831 603 604 867 828 601 602 866 
834 605 606 868 831 603 604 867 
837 607 608 869 834 605 606 868 
840 609 610 870 837 607 608 869 
871 872 842 841 873 874 844 843 
875 876 846 845 871 872 842 841 
877 878 848 847 875 876 846 845 
879 880 850 849 877 878 848 847 
881 882 852 851 879 880 850 849 
883 884 854 853 881 882 852 851 
885 886 856 855 883 884 854 853 
887 888 858 857 885 886 856 855 
889 890 860 859 887 888 858 857 
271 871 841 662 275 873 843 666 
279 875 845 670 271 871 841 662 
283 877 847 674 279 875 845 670 
287 879 849 678 283 877 847 674 
291 881 851 682 287 879 849 678 
295 883 853 686 291 881 851 682 
299 885 855 690 295 883 853 686 
303 887 857 694 299 885 855 690 
307 889 859 698 303 887 857 694 
711 813 861 712 713 816 862 714 
715 819 863 716 711 813 861 712 
717 822 864 718 715 819 863 716 
719 825 865 720 717 822 864 718 
721 828 866 722 719 825 865 720 
723 831 867 724 721 828 866 722 
725 834 868 726 723 831 867 724 
727 837 869 728 725 834 868 726 
729 840 870 730 727 837 869 728 
611 812 891 612 614 815 892 615 
617 818 893 618 611 812 891 612 
620 821 894 621 617 818 893 618 
623 824 895 624 620 821 894 621 
626 827 896 627 623 824 895 624 
629 830 897 630 626 827 896 627 
632 833 898 633 629 830 897 630 
635 836 899 636 632 833 898 633 
638 839 900 639 635 836 899 636 
901 551 554 902 903 555 558 904 
905 559 562 906 901 551 554 902 
907 563 566 908 905 559 562 906 
909 567 570 910 907 563 566 908 
911 571 574 912 909 567 570 910 
913 575 578 914 911 571 574 912 
915 579 582 916 913 575 578 914 
917 583 586 918 915 579 582 916 
919 587 590 920 917 583 586 918 
921 272 661 922 923 276 665 924 
925 280 669 926 921 272 661 922 
927 284 673 928 925 280 669 926 
929 288 677 930 927 284 673 928 
931 292 681 932 929 288 677 930 
933 296 685 934 931 292 681 932 
935 300 689 936 933 296 685 934 
937 304 693 938 935 300 689 936 
939 308 697 940 937 304 693 938 
273 251 121 351 277 253 124 353 
281 255 127 355 273 251 121 351 
285 257 130 357 281 255 127 355 
289 259 133 359 285 257 130 357 
293 261 136 361 289 259 133 359 
297 263 139 363 293 261 136 361 
301 265 142 365 297 263 139 363 
305 267 145 367 301 265 142 365 
309 269 148 369 305 267 145 367 
941 942 943 252 944 945 946 254 
947 948 949 256 941 942 943 252 
950 951 952 258 947 948 949 256 
953 954 955 260 950 951 952 258 
956 957 958 262 953 954 955 260 
959 960 961 264 956 957 958 262 
962 963 964 266 959 960 961 264 
965 966 967 268 962 963 964 266 
968 969 970 270 965 966 967 268 
82 872 761 83 86 874 764 87 
90 876 767 91 82 872 761 83 
94 878 770 95 90 876 767 91 
98 880 773 99 94 878 770 95 
102 882 776 103 98 880 773 99 
106 884 779 107 102 882 776 103 
110 886 782 111 106 884 779 107 
114 888 785 115 110 886 782 111 
118 890 788 119 114 888 785 115 
84 83 763 642 88 87 766 644 
92 91 769 646 84 83 763 642 
96 95 772 648 92 91 769 646 
100 99 775 650 96 95 772 648 
104 103 778 652 100 99 775 650 
108 107 781 654 104 103 778 652 
112 111 784 656 108 107 781 654 
116 115 787 658 112 111 784 656 
120 119 790 660 116 115 787 658 
791 414 971 972 793 418 973 974 
795 422 975 976 791 414 971 972 
797 426 977 978 795 422 975 976 
799 430 979 980 797 426 977 978 
801 434 981 982 799 430 979 980 
803 438 983 984 801 434 981 982 
805 442 985 986 803 438 983 984 
807 446 987 988 805 442 985 986 
809 450 989 990 807 446 987 988 
4 3 991 412 8 7 992 416 
12 11 993 420 4 3 991 412 
16 15 994 424 12 11 993 420 
20 19 995 428 16 15 994 424 
24 23 996 432 20 19 995 428 
28 27 997 436 24 23 996 432 
32 31 998 440 28 27 997 436 
36 35 999 444 32 31 998 440 
40 39 1000 448 36 35 999 444 
552 1001 663 553 556 1002 667 557 
560 1003 671 561 552 1001 663 553 
564 1004 675 565 560 1003 671 561 
568 1005 679 569 564 1004 675 565 
572 1006 683 573 568 1005 679 569 
576 1007 687 577 572 1006 683 573 
580 1008 691 581 576 1007 687 577 
584 1009 695 585 580 1008 691 581 
588 1010 699 589 584 1009 695 585 
453 452 701 123 456 455 702 126 
459 458 703 129 453 452 701 123 
462 461 704 132 459 458 703 129 
465 464 705 135 462 461 704 132 
468 467 706 138 465 464 705 135 
471 470 707 141 468 467 706 138 
474 473 708 144 471 470 707 141 
477 476 709 147 474 473 708 144 
480 479 710 150 477 476 709 147 
732 1011 373 733 735 1012 377 736 
738 1013 381 739 732 1011 373 733 
741 1014 385 742 738 1013 381 739 
744 1015 389 745 741 1014 385 742 
747 1016 393 748 744 1015 389 745 
750 1017 397 751 747 1016 393 748 
753 1018 401 754 750 1017 397 751 
756 1019 405 757 753 1018 401 754 
759 1020 409 760 756 1019 405 757 
81 1021 191 231 85 1022 195 233 
89 1023 199 235 81 1021 191 231 
93 1024 203 237 89 1023 199 235 
97 1025 207 239 93 1024 203 237 
101 1026 211 241 97 1025 207 239 
105 1027 215 243 101 1026 211 241 
109 1028 219 245 105 1027 215 243 
113 1029 223 247 109 1028 219 245 
117 1030 227 249 113 1029 223 247 
42 792 1031 43 46 794 1032 47 
50 796 1033 51 42 792 1031 43 
54 798 1034 55 50 796 1033 51 
58 800 1035 59 54 798 1034 55 
62 802 1036 63 58 800 1035 59 
66 804 1037 67 62 802 1036 63 
70 806 1038 71 66 804 1037 67 
74 808 1039 75 70 806 1038 71 
78 810 1040 79 74 808 1039 75 
942 941 372 371 945 944 376 375 
948 947 380 379 942 941 372 371 
951 950 384 383 948 947 380 379 
954 953 388 387 951 950 384 383 
957 956 392 391 954 953 388 387 
960 959 396 395 957 956 392 391 
963 962 400 399 960 959 396 395 
966 965 404 403 963 962 400 399 
969 968 408 407 966 965 404 403 
811 482 42 41 814 486 46 45 
817 490 50 49 811 482 42 41 
820 494 54 53 817 490 50 49 
823 498 58 57 820 494 54 53 
826 502 62 61 823 498 58 57 
829 506 66 65 826 502 62 61 
832 510 70 69 829 506 66 65 
835 514 74 73 832 510 70 69 
838 518 78 77 835 514 74 73 
414 413 1041 971 418 417 1042 973 
422 421 1043 975 414 413 1041 971 
426 425 1044 977 422 421 1043 975 
430 429 1045 979 426 425 1044 977 
434 433 1046 981 430 429 1045 979 
438 437 1047 983 434 433 1046 981 
442 441 1048 985 438 437 1047 983 
446 445 1049 987 442 441 1048 985 
450 449 1050 989 446 445 1049 987 
872 871 1051 761 874 873 1052 764 
876 875 1053 767 872 871 1051 761 
878 877 1054 770 876 875 1053 767 
880 879 1055 773 878 877 1054 770 
882 881 1056 776 880 879 1055 773 
884 883 1057 779 882 881 1056 776 
886 885 1058 782 884 883 1057 779 
888 887 1059 785 886 885 1058 782 
890 889 1060 788 888 887 1059 785 
453 4 412 411 456 8 416 415 
459 12 420 419 453 4 412 411 
462 16 424 423 459 12 420 419 
465 20 428 427 462 16 424 423 
468 24 432 431 465 20 428 427 
471 28 436 435 468 24 432 431 
474 32 440 439 471 28 436 435 
477 36 444 443 474 32 440 439 
480 40 448 447 477 36 444 443 
1061 231 232 902 1062 233 234 904 
1063 235 236 906 1061 231 232 902 
1064 237 238 908 1063 235 236 906 
1065 239 240 910 1064 237 238 908 
1066 241 242 912 1065 239 240 910 
1067 243 244 914 1066 241 242 912 
1068 245 246 916 1067 243 244 914 
1069 247 248 918 1068 245 246 916 
1070 249 250 920 1069 247 248 918 
891 41 44 1071 892 45 48 1072 
893 49 52 1073 891 41 44 1071 
894 53 56 1074 893 49 52 1073 
895 57 60 1075 894 53 56 1074 
896 61 64 1076 895 57 60 1075 
897 65 68 1077 896 61 64 1076 
898 69 72 1078 897 65 68 1077 
899 73 76 1079 898 69 72 1078 
900 77 80 1080 899 73 76 1079 
941 921 922 372 944 923 924 376 
947 925 926 380 941 921 922 372 
950 927 928 384 947 925 926 380 
953 929 930 388 950 927 928 384 
956 931 932 392 953 929 930 388 
959 933 934 396 956 931 932 392 
962 935 936 400 959 933 934 396 
965 937 938 404 962 935 936 400 
968 939 940 408 965 937 938 404 
763 762 712 861 766 765 714 862 
769 768 716 863 763 762 712 861 
772 771 718 864 769 768 716 863 
775 774 720 865 772 771 718 864 
778 777 722 866 775 774 720 865 
781 780 724 867 778 777 722 866 
784 783 726 868 781 780 724 867 
787 786 728 869 784 783 726 868 
790 789 730 870 787 786 728 869 
642 763 861 592 644 766 862 594 
646 769 863 596 642 763 861 592 
648 772 864 598 646 769 863 596 
650 775 865 600 648 772 864 598 
652 778 866 602 650 775 865 600 
654 781 867 604 652 778 866 602 
656 784 868 606 654 781 867 604 
658 787 869 608 656 784 868 606 
660 790 870 610 658 787 869 608 
451 411 414 791 454 415 418 793 
457 419 422 795 451 411 414 791 
460 423 426 797 457 419 422 795 
463 427 430 799 460 423 426 797 
466 431 434 801 463 427 430 799 
469 435 438 803 466 431 434 801 
472 439 442 805 469 435 438 803 
475 443 446 807 472 439 442 805 
478 447 450 809 475 443 446 807 
452 484 522 701 455 488 525 702 
458 492 528 703 452 484 522 701 
461 496 531 704 458 492 528 703 
464 500 534 705 461 496 531 704 
467 504 537 706 464 500 534 705 
470 508 540 707 467 504 537 706 
473 512 543 708 470 508 540 707 
476 516 546 709 473 512 543 708 
479 520 549 710 476 516 546 709 
761 1051 521 762 764 1052 524 765 
767 1053 527 768 761 1051 521 762 
770 1054 530 771 767 1053 527 768 
773 1055 533 774 770 1054 530 771 
776 1056 536 777 773 1055 533 774 
779 1057 539 780 776 1056 536 777 
782 1058 542 783 779 1057 539 780 
785 1059 545 786 782 1058 542 783 
788 1060 548 789 785 1059 545 786 
612 891 1071 1081 615 892 1072 1082 
618 893 1073 1083 612 891 1071 1081 
621 894 1074 1084 618 893 1073 1083 
624 895 1075 1085 621 894 1074 1084 
627 896 1076 1086 624 895 1075 1085 
630 897 1077 1087 627 896 1076 1086 
633 898 1078 1088 630 897 1077 1087 
636 899 1079 1089 633 898 1078 1088 
639 900 1080 1090 636 899 1079 1089 
82 81 231 1061 86 85 233 1062 
90 89 235 1063 82 81 231 1061 
94 93 237 1064 90 89 235 1063 
98 97 239 1065 94 93 237 1064 
102 101 241 1066 98 97 239 1065 
106 105 243 1067 102 101 241 1066 
110 109 245 1068 106 105 243 1067 
114 113 247 1069 110 109 245 1068 
118 117 249 1070 114 113 247 1069 
1091 1092 232 194 1093 1094 234 198 
1095 1096 236 202 1091 1092 232 194 
1097 1098 238 206 1095 1096 236 202 
1099 1100 240 210 1097 1098 238 206 
1101 1102 242 214 1099 1100 240 210 
1103 1104 244 218 1101 1102 242 214 
1105 1106 246 222 1103 1104 244 218 
1107 1108 248 226 1105 1106 246 222 
1109 1110 250 230 1107 1108 248 226 
451 481 484 452 454 485 488 455 
457 489 492 458 451 481 484 452 
460 493 496 461 457 489 492 458 
463 497 500 464 460 493 496 461 
466 501 504 467 463 497 500 464 
469 505 508 470 466 501 504 467 
472 509 512 473 469 505 508 470 
475 513 516 476 472 509 512 473 
478 517 520 479 475 513 516 476 
1092 901 902 232 1094 903 904 234 
1096 905 906 236 1092 901 902 232 
1098 907 908 238 1096 905 906 236 
1100 909 910 240 1098 907 908 238 
1102 911 912 242 1100 909 910 240 
1104 913 914 244 1102 911 912 242 
1106 915 916 246 1104 913 914 244 
1108 917 918 248 1106 915 916 246 
1110 919 920 250 1108 917 918 248 
482 811 711 483 486 814 713 487 
490 817 715 491 482 811 711 483 
494 820 717 495 490 817 715 491 
498 823 719 499 494 820 717 495 
502 826 721 503 498 823 719 499 
506 829 723 507 502 826 721 503 
510 832 725 511 506 829 723 507 
514 835 727 515 510 832 725 511 
518 838 729 519 514 835 727 515 
1111 641 312 311 1112 643 316 315 
1113 645 320 319 1111 641 312 311 
1114 647 324 323 1113 645 320 319 
1115 649 328 327 1114 647 324 323 
1116 651 332 331 1115 649 328 327 
1117 653 336 335 1116 651 332 331 
1118 655 340 339 1117 653 336 335 
1119 657 344 343 1118 655 340 339 
1120 659 348 347 1119 657 344 343 
1121 1021 641 1111 1122 1022 643 1112 
1123 1023 645 1113 1121 1021 641 1111 
1124 1024 647 1114 1123 1023 645 1113 
1125 1025 649 1115 1124 1024 647 1114 
1126 1026 651 1116 1125 1025 649 1115 
1127 1027 653 1117 1126 1026 651 1116 
1128 1028 655 1118 1127 1027 653 1117 
1129 1029 657 1119 1128 1028 655 1118 
1130 1030 659 1120 1129 1029 657 1119 
792 791 972 1031 794 793 974 1032 
796 795 976 1033 792 791 972 1031 
798 797 978 1034 796 795 976 1033 
800 799 980 1035 798 797 978 1034 
802 801 982 1036 800 799 980 1035 
804 803 984 1037 802 801 982 1036 
806 805 986 1038 804 803 984 1037 
808 807 988 1039 806 805 986 1038 
810 809 990 1040 808 807 988 1039 
1011 1131 374 373 1012 1132 378 377 
1013 1133 382 381 1011 1131 374 373 
1014 1134 386 385 1013 1133 382 381 
1015 1135 390 389 1014 1134 386 385 
1016 1136 394 393 1015 1135 390 389 
1017 1137 398 397 1016 1136 394 393 
1018 1138 402 401 1017 1137 398 397 
1019 1139 406 405 1018 1138 402 401 
1020 1140 410 409 1019 1139 406 405 
812 611 591 813 815 614 593 816 
818 617 595 819 812 611 591 813 
821 620 597 822 818 617 595 819 
824 623 599 825 821 620 597 822 
827 626 601 828 824 623 599 825 
830 629 603 831 827 626 601 828 
833 632 605 834 830 629 603 831 
836 635 607 837 833 632 605 834 
839 638 609 840 836 635 607 837 
1141 613 1142 1143 1144 616 1145 1146 
1147 619 1148 1149 1141 613 1142 1143 
1150 622 1151 1152 1147 619 1148 1149 
1153 625 1154 1155 1150 622 1151 1152 
1156 628 1157 1158 1153 625 1154 1155 
1159 631 1160 1161 1156 628 1157 1158 
1162 634 1163 1164 1159 631 1160 1161 
1165 637 1166 1167 1162 634 1163 1164 
1168 640 1169 1170 1165 637 1166 1167 
1171 1091 194 193 1172 1093 198 197 
1173 1095 202 201 1171 1091 194 193 
1174 1097 206 205 1173 1095 202 201 
1175 1099 210 209 1174 1097 206 205 
1176 1101 214 213 1175 1099 210 209 
1177 1103 218 217 1176 1101 214 213 
1178 1105 222 221 1177 1103 218 217 
1179 1107 226 225 1178 1105 222 221 
1180 1109 230 229 1179 1107 226 225 
662 841 553 663 666 843 557 667 
670 845 561 671 662 841 553 663 
674 847 565 675 670 845 561 671 
678 849 569 679 674 847 565 675 
682 851 573 683 678 849 569 679 
686 853 577 687 682 851 573 683 
690 855 581 691 686 853 577 687 
694 857 585 695 690 855 581 691 
698 859 589 699 694 857 585 695 
872 82 1061 842 874 86 1062 844 
876 90 1063 846 872 82 1061 842 
878 94 1064 848 876 90 1063 846 
880 98 1065 850 878 94 1064 848 
882 102 1066 852 880 98 1065 850 
884 106 1067 854 882 102 1066 852 
886 110 1068 856 884 106 1067 854 
888 114 1069 858 886 110 1068 856 
890 118 1070 860 888 114 1069 858 
1001 731 664 663 1002 734 668 667 
1003 737 672 671 1001 731 664 663 
1004 740 676 675 1003 737 672 671 
1005 743 680 679 1004 740 676 675 
1006 746 684 683 1005 743 680 679 
1007 749 688 687 1006 746 684 683 
1008 752 692 691 1007 749 688 687 
1009 755 696 695 1008 752 692 691 
1010 758 700 699 1009 755 696 695 
871 271 274 1051 873 275 278 1052 
875 279 282 1053 871 271 274 1051 
877 283 286 1054 875 279 282 1053 
879 287 290 1055 877 283 286 1054 
881 291 294 1056 879 287 290 1055 
883 295 298 1057 881 291 294 1056 
885 299 302 1058 883 295 298 1057 
887 303 306 1059 885 299 302 1058 
889 307 310 1060 887 303 306 1059 
412 991 1181 413 416 992 1182 417 
420 993 1183 421 412 991 1181 413 
424 994 1184 425 420 993 1183 421 
428 995 1185 429 424 994 1184 425 
432 996 1186 433 428 995 1185 429 
436 997 1187 437 432 996 1186 433 
440 998 1188 441 436 997 1187 437 
444 999 1189 445 440 998 1188 441 
448 1000 1190 449 444 999 1189 445 
611 151 154 591 614 155 158 593 
617 159 162 595 611 151 154 591 
620 163 166 597 617 159 162 595 
623 167 170 599 620 163 166 597 
626 171 174 601 623 167 170 599 
629 175 178 603 626 171 174 601 
632 179 182 605 629 175 178 603 
635 183 186 607 632 179 182 605 
638 187 190 609 635 183 186 607 
1051 274 352 521 1052 278 354 524 
1053 282 356 527 1051 274 352 521 
1054 286 358 530 1053 282 356 527 
1055 290 360 533 1054 286 358 530 
1056 294 362 536 1055 290 360 533 
1057 298 364 539 1056 294 362 536 
1058 302 366 542 1057 298 364 539 
1059 306 368 545 1058 302 366 542 
1060 310 370 548 1059 306 368 545 
272 921 251 273 276 923 253 277 
280 925 255 281 272 921 251 273 
284 927 257 285 280 925 255 281 
288 929 259 289 284 927 257 285 
292 931 261 293 288 929 259 289 
296 933 263 297 292 931 261 293 
300 935 265 301 296 933 263 297 
304 937 267 305 300 935 265 301 
308 939 269 309 304 937 267 305 
484 483 523 522 488 487 526 525 
492 491 529 528 484 483 523 522 
496 495 532 531 492 491 529 528 
500 499 535 534 496 495 532 531 
504 503 538 537 500 499 535 534 
508 507 541 540 504 503 538 537 
512 511 544 543 508 507 541 540 
516 515 547 546 512 511 544 543 
520 519 550 549 516 515 547 546 
922 661 664 733 924 665 668 736 
926 669 672 739 922 661 664 733 
928 673 676 742 926 669 672 739 
930 677 680 745 928 673 676 742 
932 681 684 748 930 677 680 745 
934 685 688 751 932 681 684 748 
936 689 692 754 934 685 688 751 
938 693 696 757 936 689 692 754 
940 697 700 760 938 693 696 757 
312 642 592 313 316 644 594 317 
320 646 596 321 312 642 592 313 
324 648 598 325 320 646 596 321 
328 650 600 329 324 648 598 325 
332 652 602 333 328 650 600 329 
336 654 604 337 332 652 602 333 
340 656 606 341 336 654 604 337 
344 658 608 345 340 656 606 341 
348 660 610 349 344 658 608 345 
122 1191 2 1 125 1192 6 5 
128 1193 10 9 122 1191 2 1 
131 1194 14 13 128 1193 10 9 
134 1195 18 17 131 1194 14 13 
137 1196 22 21 134 1195 18 17 
140 1197 26 25 137 1196 22 21 
143 1198 30 29 140 1197 26 25 
146 1199 34 33 143 1198 30 29 
149 1200 38 37 146 1199 34 33 
1021 1121 192 191 1022 1122 196 195 
1023 1123 200 199 1021 1121 192 191 
1024 1124 204 203 1023 1123 200 199 
1025 1125 208 207 1024 1124 204 203 
1026 1126 212 211 1025 1125 208 207 
1027 1127 216 215 1026 1126 212 211 
1028 1128 220 219 1027 1127 216 215 
1029 1129 224 223 1028 1128 220 219 
1030 1130 228 227 1029 1129 224 223 
123 1 4 453 126 5 8 456 
129 9 12 459 123 1 4 453 
132 13 16 462 129 9 12 459 
135 17 20 465 132 13 16 462 
138 21 24 468 135 17 20 465 
141 25 28 471 138 21 24 468 
144 29 32 474 141 25 28 471 
147 33 36 477 144 29 32 474 
150 37 40 480 147 33 36 477 
413 1181 1201 1041 417 1182 1202 1042 
421 1183 1203 1043 413 1181 1201 1041 
425 1184 1204 1044 421 1183 1203 1043 
429 1185 1205 1045 425 1184 1204 1044 
433 1186 1206 1046 429 1185 1205 1045 
437 1187 1207 1047 433 1186 1206 1046 
441 1188 1208 1048 437 1187 1207 1047 
445 1189 1209 1049 441 1188 1208 1048 
449 1190 1210 1050 445 1189 1209 1049 
152 151 613 1141 156 155 616 1144 
160 159 619 1147 152 151 613 1141 
164 163 622 1150 160 159 619 1147 
168 167 625 1153 164 163 622 1150 
172 171 628 1156 168 167 625 1153 
176 175 631 1159 172 171 628 1156 
180 179 634 1162 176 175 631 1159 
184 183 637 1165 180 179 634 1162 
188 187 640 1168 184 183 637 1165 
372 922 733 373 376 924 736 377 
380 926 739 381 372 922 733 373 
384 928 742 385 380 926 739 381 
388 930 745 389 384 928 742 385 
392 932 748 393 388 930 745 389 
396 934 751 397 392 932 748 393 
400 936 754 401 396 934 751 397 
404 938 757 405 400 936 754 401 
408 940 760 409 404 938 757 405 
272 271 662 661 276 275 666 665 
280 279 670 669 272 271 662 661 
284 283 674 673 280 279 670 669 
288 287 678 677 284 283 674 673 
292 291 682 681 288 287 678 677 
296 295 686 685 292 291 682 681 
300 299 690 689 296 295 686 685 
304 303 694 693 300 299 690 689 
308 307 698 697 304 303 694 693 
842 1061 902 554 844 1062 904 558 
846 1063 906 562 842 1061 902 554 
848 1064 908 566 846 1063 906 562 
850 1065 910 570 848 1064 908 566 
852 1066 912 574 850 1065 910 570 
854 1067 914 578 852 1066 912 574 
856 1068 916 582 854 1067 914 578 
858 1069 918 586 856 1068 916 582 
860 1070 920 590 858 1069 918 586 
1021 81 84 641 1022 85 88 643 
1023 89 92 645 1021 81 84 641 
1024 93 96 647 1023 89 92 645 
1025 97 100 649 1024 93 96 647 
1026 101 104 651 1025 97 100 649 
1027 105 108 653 1026 101 104 651 
1028 109 112 655 1027 105 108 653 
1029 113 116 657 1028 109 112 655 
1030 117 120 659 1029 113 116 657 
351 121 123 701 353 124 126 702 
355 127 129 703 351 121 123 701 
357 130 132 704 355 127 129 703 
359 133 135 705 357 130 132 704 
361 136 138 706 359 133 135 705 
363 139 141 707 361 136 138 706 
365 142 144 708 363 139 141 707 
367 145 147 709 365 142 144 708 
369 148 150 710 367 145 147 709 
482 481 792 42 486 485 794 46 
490 489 796 50 482 481 792 42 
494 493 798 54 490 489 796 50 
498 497 800 58 494 493 798 54 
502 501 802 62 498 497 800 58 
506 505 804 66 502 501 802 62 
510 509 806 70 506 505 804 66 
514 513 808 74 510 509 806 70 
518 517 810 78 514 513 808 74 
921 941 252 251 923 944 254 253 
925 947 256 255 921 941 252 251 
927 950 258 257 925 947 256 255 
929 953 260 259 927 950 258 257 
931 956 262 261 929 953 260 259 
933 959 264 263 931 956 262 261 
935 962 266 265 933 959 264 263 
937 965 268 267 935 962 266 265 
939 968 270 269 937 965 268 267 
812 811 41 891 815 814 45 892 
818 817 49 893 812 811 41 891 
821 820 53 894 818 817 49 893 
824 823 57 895 821 820 53 894 
827 826 61 896 824 823 57 895 
830 829 65 897 827 826 61 896 
833 832 69 898 830 829 65 897 
836 835 73 899 833 832 69 898 
839 838 77 900 836 835 73 899 
613 612 1081 1142 616 615 1082 1145 
619 618 1083 1148 613 612 1081 1142 
622 621 1084 1151 619 618 1083 1148 
625 624 1085 1154 622 621 1084 1151 
628 627 1086 1157 625 624 1085 1154 
631 630 1087 1160 628 627 1086 1157 
634 633 1088 1163 631 630 1087 1160 
637 636 1089 1166 634 633 1088 1163 
640 639 1090 1169 637 636 1089 1166 
762 521 523 712 765 524 526 714 
768 527 529 716 762 521 523 712 
771 530 532 718 768 527 529 716 
774 533 535 720 771 530 532 718 
777 536 538 722 774 533 535 720 
780 539 541 724 777 536 538 722 
783 542 544 726 780 539 541 724 
786 545 547 728 783 542 544 726 
789 548 550 730 786 545 547 728 
252 943 1191 122 254 946 1192 125 
256 949 1193 128 252 943 1191 122 
258 952 1194 131 256 949 1193 128 
260 955 1195 134 258 952 1194 131 
262 958 1196 137 260 955 1195 134 
264 961 1197 140 262 958 1196 137 
266 964 1198 143 264 961 1197 140 
268 967 1199 146 266 964 1198 143 
270 970 1200 149 268 967 1199 146 
1211 1212 1213 1214 1215 1216 1217 1218 
1219 1220 1221 1222 1211 1212 1213 1214 
1223 1224 1225 1226 1219 1220 1221 1222 
1227 1228 1229 1230 1223 1224 1225 1226 
1231 1232 1233 1234 1227 1228 1229 1230 
1235 1236 1237 1238 1231 1232 1233 1234 
1239 1240 1241 1242 1235 1236 1237 1238 
1243 1244 1245 1246 1239 1240 1241 1242 
1247 1248 1249 1250 1243 1244 1245 1246 
1251 1252 1253 1254 1247 1248 1249 1250 
1255 1256 1257 1258 1251 1252 1253 1254 
1259 1260 1261 1262 1255 1256 1257 1258 
1263 1264 1265 1266 1259 1260 1261 1262 
1267 1268 1269 1270 1263 1264 1265 1266 
1271 1272 1273 1274 1267 1268 1269 1270 
1275 1276 1277 1278 1271 1272 1273 1274 
1279 1280 1281 1282 1275 1276 1277 1278 
1283 1284 1285 1286 1279 1280 1281 1282 
1287 1288 1289 1290 1283 1284 1285 1286 
1291 1292 1293 1294 1287 1288 1289 1290 
5 6 7 8 1291 1292 1293 1294 
1295 1296 1297 1298 1299 1300 1301 1302 
1303 1304 1305 1306 1295 1296 1297 1298 
1307 1308 1309 1310 1303 1304 1305 1306 
1311 1312 1313 1314 1307 1308 1309 1310 
1315 1316 1317 1318 1311 1312 1313 1314 
1319 1320 1321 1322 1315 1316 1317 1318 
1323 1324 1325 1326 1319 1320 1321 1322 
1327 1328 1329 1330 1323 1324 1325 1326 
1331 1332 1333 1334 1327 1328 1329 1330 
1335 1336 1337 1338 1331 1332 1333 1334 
1339 1340 1341 1342 1335 1336 1337 1338 
1343 1344 1345 1346 1339 1340 1341 1342 
1347 1348 1349 1350 1343 1344 1345 1346 
1351 1352 1353 1354 1347 1348 1349 1350 
1355 1356 1357 1358 1351 1352 1353 1354 
1359 1360 1361 1362 1355 1356 1357 1358 
1363 1364 1365 1366 1359 1360 1361 1362 
1367 1368 1369 1370 1363 1364 1365 1366 
1371 1372 1373 1374 1367 1368 1369 1370 
1375 1376 1377 1378 1371 1372 1373 1374 
45 46 47 48 1375 1376 1377 1378 
1379 1380 1381 1382 1383 1384 1385 1386 
1387 1388 1389 1390 1379 1380 1381 1382 
1391 1392 1393 1394 1387 1388 1389 1390 
1395 1396 1397 1398 1391 1392 1393 1394 
1399 1400 1401 1402 1395 1396 1397 1398 
1403 1404 1405 1406 1399 1400 1401 1402 
1407 1408 1409 1410 1403 1404 1405 1406 
1411 1412 1413 1414 1407 1408 1409 1410 
1415 1416 1417 1418 1411 1412 1413 1414 
1419 1420 1421 1422 1415 1416 1417 1418 
1423 1424 1425 1426 1419 1420 1421 1422 
1427 1428 1429 1430 1423 1424 1425 1426 
1431 1432 1433 1434 1427 1428 1429 1430 
1435 1436 1437 1438 1431 1432 1433 1434 
1439 1440 1441 1442 1435 1436 1437 1438 
1443 1444 1445 1446 1439 1440 1441 1442 
1447 1448 1449 1450 1443 1444 1445 1446 
1451 1452 1453 1454 1447 1448 1449 1450 
1455 1456 1457 1458 1451 1452 1453 1454 
1459 1460 1461 1462 1455 1456 1457 1458 
85 86 87 88 1459 1460 1461 1462 
1463 1464 1211 1465 1466 1467 1215 1468 
1469 1470 1219 1471 1463 1464 1211 1465 
1472 1473 1223 1474 1469 1470 1219 1471 
1475 1476 1227 1477 1472 1473 1223 1474 
1478 1479 1231 1480 1475 1476 1227 1477 
1481 1482 1235 1483 1478 1479 1231 1480 
1484 1485 1239 1486 1481 1482 1235 1483 
1487 1488 1243 1489 1484 1485 1239 1486 
1490 1491 1247 1492 1487 1488 1243 1489 
1493 1494 1251 1495 1490 1491 1247 1492 
1496 1497 1255 1498 1493 1494 1251 1495 
1499 1500 1259 1501 1496 1497 1255 1498 
1502 1503 1263 1504 1499 1500 1259 1501 
1505 1506 1267 1507 1502 1503 1263 1504 
1508 1509 1271 1510 1505 1506 1267 1507 
1511 1512 1275 1513 1508 1509 1271 1510 
1514 1515 1279 1516 1511 1512 1275 1513 
1517 1518 1283 1519 1514 1515 1279 1516 
1520 1521 1287 1522 1517 1518 1283 1519 
1523 1524 1291 1525 1520 1521 1287 1522 
124 125 5 126 1523 1524 1291 1525 
1526 1527 1528 1529 1530 1531 1532 1533 
1534 1535 1536 1537 1526 1527 1528 1529 
1538 1539 1540 1541 1534 1535 1536 1537 
1542 1543 1544 1545 1538 1539 1540 1541 
1546 1547 1548 1549 1542 1543 1544 1545 
1550 1551 1552 1553 1546 1547 1548 1549 
1554 1555 1556 1557 1550 1551 1552 1553 
1558 1559 1560 1561 1554 1555 1556 1557 
1562 1563 1564 1565 1558 1559 1560 1561 
1566 1567 1568 1569 1562 1563 1564 1565 
1570 1571 1572 1573 1566 1567 1568 1569 
1574 1575 1576 1577 1570 1571 1572 1573 
1578 1579 1580 1581 1574 1575 1576 1577 
1582 1583 1584 1585 1578 1579 1580 1581 
1586 1587 1588 1589 1582 1583 1584 1585 
1590 1591 1592 1593 1586 1587 1588 1589 
1594 1595 1596 1597 1590 1591 1592 1593 
1598 1599 1600 1601 1594 1595 1596 1597 
1602 1603 1604 1605 1598 1599 1600 1601 
1606 1607 1608 1609 1602 1603 1604 1605 
155 156 157 158 1606 1607 1608 1609 
1610 1611 1612 1613 1614 1615 1616 1617 
1618 1619 1620 1621 1610 1611 1612 1613 
1622 1623 1624 1625 1618 1619 1620 1621 
1626 1627 1628 1629 1622 1623 1624 1625 
1630 1631 1632 1633 1626 1627 1628 1629 
1634 1635 1636 1637 1630 1631 1632 1633 
1638 1639 1640 1641 1634 1635 1636 1637 
1642 1643 1644 1645 1638 1639 1640 1641 
1646 1647 1648 1649 1642 1643 1644 1645 
1650 1651 1652 1653 1646 1647 1648 1649 
1654 1655 1656 1657 1650 1651 1652 1653 
1658 1659 1660 1661 1654 1655 1656 1657 
1662 1663 1664 1665 1658 1659 1660 1661 
1666 1667 1668 1669 1662 1663 1664 1665 
1670 1671 1672 1673 1666 1667 1668 1669 
1674 1675 1676 1677 1670 1671 1672 1673 
1678 1679 1680 1681 1674 1675 1676 1677 
1682 1683 1684 1685 1678 1679 1680 1681 
1686 1687 1688 1689 1682 1683 1684 1685 
1690 1691 1692 1693 1686 1687 1688 1689 
195 196 197 198 1690 1691 1692 1693 
1694 1610 1613 1695 1696 1614 1617 1697 
1698 1618 1621 1699 1694 1610 1613 1695 
1700 1622 1625 1701 1698 1618 1621 1699 
1702 1626 1629 1703 1700 1622 1625 1701 
1704 1630 1633 1705 1702 1626 1629 1703 
1706 1634 1637 1707 1704 1630 1633 1705 
1708 1638 1641 1709 1706 1634 1637 1707 
1710 1642 1645 1711 1708 1638 1641 1709 
1712 1646 1649 1713 1710 1642 1645 1711 
1714 1650 1653 1715 1712 1646 1649 1713 
1716 1654 1657 1717 1714 1650 1653 1715 
1718 1658 1661 1719 1716 1654 1657 1717 
1720 1662 1665 1721 1718 1658 1661 1719 
1722 1666 1669 1723 1720 1662 1665 1721 
1724 1670 1673 1725 1722 1666 1669 1723 
1726 1674 1677 1727 1724 1670 1673 1725 
1728 1678 1681 1729 1726 1674 1677 1727 
1730 1682 1685 1731 1728 1678 1681 1729 
1732 1686 1689 1733 1730 1682 1685 1731 
1734 1690 1693 1735 1732 1686 1689 1733 
233 195 198 234 1734 1690 1693 1735 
1736 1737 1464 1463 1738 1739 1467 1466 
1740 1741 1470 1469 1736 1737 1464 1463 
1742 1743 1473 1472 1740 1741 1470 1469 
1744 1745 1476 1475 1742 1743 1473 1472 
1746 1747 1479 1478 1744 1745 1476 1475 
1748 1749 1482 1481 1746 1747 1479 1478 
1750 1751 1485 1484 1748 1749 1482 1481 
1752 1753 1488 1487 1750 1751 1485 1484 
1754 1755 1491 1490 1752 1753 1488 1487 
1756 1757 1494 1493 1754 1755 1491 1490 
1758 1759 1497 1496 1756 1757 1494 1493 
1760 1761 1500 1499 1758 1759 1497 1496 
1762 1763 1503 1502 1760 1761 1500 1499 
1764 1765 1506 1505 1762 1763 1503 1502 
1766 1767 1509 1508 1764 1765 1506 1505 
1768 1769 1512 1511 1766 1767 1509 1508 
1770 1771 1515 1514 1768 1769 1512 1511 
1772 1773 1518 1517 1770 1771 1515 1514 
1774 1775 1521 1520 1772 1773 1518 1517 
1776 1777 1524 1523 1774 1775 1521 1520 
253 254 125 124 1776 1777 1524 1523 
1778 1779 1780 1781 1782 1783 1784 1785 
1786 1787 1788 1789 1778 1779 1780 1781 
1790 1791 1792 1793 1786 1787 1788 1789 
1794 1795 1796 1797 1790 1791 1792 1793 
1798 1799 1800 1801 1794 1795 1796 1797 
1802 1803 1804 1805 1798 1799 1800 1801 
1806 1807 1808 1809 1802 1803 1804 1805 
1810 1811 1812 1813 1806 1807 1808 1809 
1814 1815 1816 1817 1810 1811 1812 1813 
1818 1819 1820 1821 1814 1815 1816 1817 
1822 1823 1824 1825 1818 1819 1820 1821 
1826 1827 1828 1829 1822 1823 1824 1825 
1830 1831 1832 1833 1826 1827 1828 1829 
1834 1835 1836 1837 1830 1831 1832 1833 
1838 1839 1840 1841 1834 1835 1836 1837 
1842 1843 1844 1845 1838 1839 1840 1841 
1846 1847 1848 1849 1842 1843 1844 1845 
1850 1851 1852 1853 1846 1847 1848 1849 
1854 1855 1856 1857 1850 1851 1852 1853 
1858 1859 1860 1861 1854 1855 1856 1857 
275 276 277 278 1858 1859 1860 1861 
1862 1863 1864 1865 1866 1867 1868 1869 
1870 1871 1872 1873 1862 1863 1864 1865 
1874 1875 1876 1877 1870 1871 1872 1873 
1878 1879 1880 1881 1874 1875 1876 1877 
1882 1883 1884 1885 1878 1879 1880 1881 
1886 1887 1888 1889 1882 1883 1884 1885 
1890 1891 1892 1893 1886 1887 1888 1889 
1894 1895 1896 1897 1890 1891 1892 1893 
1898 1899 1900 1901 1894 1895 1896 1897 
1902 1903 1904 1905 1898 1899 1900 1901 
1906 1907 1908 1909 1902 1903 1904 1905 
1910 1911 1912 1913 1906 1907 1908 1909 
1914 1915 1916 1917 1910 1911 1912 1913 
1918 1919 1920 1921 1914 1915 1916 1917 
1922 1923 1924 1925 1918 1919 1920 1921 
1926 1927 1928 1929 1922 1923 1924 1925 
1930 1931 1932 1933 1926 1927 1928 1929 
1934 1935 1936 1937 1930 1931 1932 1933 
1938 1939 1940 1941 1934 1935 1936 1937 
1942 1943 1944 1945 1938 1939 1940 1941 
315 316 317 318 1942 1943 1944 1945 
1529 1528 1865 1864 1533 1532 1869 1868 
1537 1536 1873 1872 1529 1528 1865 1864 
1541 1540 1877 1876 1537 1536 1873 1872 
1545 1544 1881 1880 1541 1540 1877 1876 
1549 1548 1885 1884 1545 1544 1881 1880 
1553 1552 1889 1888 1549 1548 1885 1884 
1557 1556 1893 1892 1553 1552 1889 1888 
1561 1560 1897 1896 1557 1556 1893 1892 
1565 1564 1901 1900 1561 1560 1897 1896 
1569 1568 1905 1904 1565 1564 1901 1900 
1573 1572 1909 1908 1569 1568 1905 1904 
1577 1576 1913 1912 1573 1572 1909 1908 
1581 1580 1917 1916 1577 1576 1913 1912 
1585 1584 1921 1920 1581 1580 1917 1916 
1589 1588 1925 1924 1585 1584 1921 1920 
1593 1592 1929 1928 1589 1588 1925 1924 
1597 1596 1933 1932 1593 1592 1929 1928 
1601 1600 1937 1936 1597 1596 1933 1932 
1605 1604 1941 1940 1601 1600 1937 1936 
1609 1608 1945 1944 1605 1604 1941 1940 
158 157 318 317 1609 1608 1945 1944 
1781 1780 1946 1947 1785 1784 1948 1949 
1789 1788 1950 1951 1781 1780 1946 1947 
1793 1792 1952 1953 1789 1788 1950 1951 
1797 1796 1954 1955 1793 1792 1952 1953 
1801 1800 1956 1957 1797 1796 1954 1955 
1805 1804 1958 1959 1801 1800 1956 1957 
1809 1808 1960 1961 1805 1804 1958 1959 
1813 1812 1962 1963 1809 1808 1960 1961 
1817 1816 1964 1965 1813 1812 1962 1963 
1821 1820 1966 1967 1817 1816 1964 1965 
1825 1824 1968 1969 1821 1820 1966 1967 
1829 1828 1970 1971 1825 1824 1968 1969 
1833 1832 1972 1973 1829 1828 1970 1971 
1837 1836 1974 1975 1833 1832 1972 1973 
1841 1840 1976 1977 1837 1836 1974 1975 
1845 1844 1978 1979 1841 1840 1976 1977 
1849 1848 1980 1981 1845 1844 1978 1979 
1853 1852 1982 1983 1849 1848 1980 1981 
1857 1856 1984 1985 1853 1852 1982 1983 
1861 1860 1986 1987 1857 1856 1984 1985 
278 277 353 354 1861 1860 1986 1987 
1988 1989 1990 1991 1992 1993 1994 1995 
1996 1997 1998 1999 1988 1989 1990 1991 
2000 2001 2002 2003 1996 1997 1998 1999 
2004 2005 2006 2007 2000 2001 2002 2003 
2008 2009 2010 2011 2004 2005 2006 2007 
2012 2013 2014 2015 2008 2009 2010 2011 
2016 2017 2018 2019 2012 2013 2014 2015 
2020 2021 2022 2023 2016 2017 2018 2019 
2024 2025 2026 2027 2020 2021 2022 2023 
2028 2029 2030 2031 2024 2025 2026 2027 
2032 2033 2034 2035 2028 2029 2030 2031 
2036 2037 2038 2039 2032 2033 2034 2035 
2040 2041 2042 2043 2036 2037 2038 2039 
2044 2045 2046 2047 2040 2041 2042 2043 
2048 2049 2050 2051 2044 2045 2046 2047 
2052 2053 2054 2055 2048 2049 2050 2051 
2056 2057 2058 2059 2052 2053 2054 2055 
2060 2061 2062 2063 2056 2057 2058 2059 
2064 2065 2066 2067 2060 2061 2062 2063 
2068 2069 2070 2071 2064 2065 2066 2067 
375 376 377 378 2068 2069 2070 2071 
2072 2073 2074 2075 2076 2077 2078 2079 
2080 2081 2082 2083 2072 2073 2074 2075 
2084 2085 2086 2087 2080 2081 2082 2083 
2088 2089 2090 2091 2084 2085 2086 2087 
2092 2093 2094 2095 2088 2089 2090 2091 
2096 2097 2098 2099 2092 2093 2094 2095 
2100 2101 2102 2103 2096 2097 2098 2099 
2104 2105 2106 2107 2100 2101 2102 2103 
2108 2109 2110 2111 2104 2105 2106 2107 
2112 2113 2114 2115 2108 2109 2110 2111 
2116 2117 2118 2119 2112 2113 2114 2115 
2120 2121 2122 2123 2116 2117 2118 2119 
2124 2125 2126 2127 2120 2121 2122 2123 
2128 2129 2130 2131 2124 2125 2126 2127 
2132 2133 2134 2135 2128 2129 2130 2131 
2136 2137 2138 2139 2132 2133 2134 2135 
2140 2141 2142 2143 2136 2137 2138 2139 
2144 2145 2146 2147 2140 2141 2142 2143 
2148 2149 2150 2151 2144 2145 2146 2147 
2152 2153 2154 2155 2148 2149 2150 2151 
415 416 417 418 2152 2153 2154 2155 
2072 2156 2157 2158 2076 2159 2160 2161 
2080 2162 2163 2164 2072 2156 2157 2158 
2084 2165 2166 2167 2080 2162 2163 2164 
2088 2168 2169 2170 2084 2165 2166 2167 
2092 2171 2172 2173 2088 2168 2169 2170 
2096 2174 2175 2176 2092 2171 2172 2173 
2100 2177 2178 2179 2096 2174 2175 2176 
2104 2180 2181 2182 2100 2177 2178 2179 
2108 2183 2184 2185 2104 2180 2181 2182 
2112 2186 2187 2188 2108 2183 2184 2185 
2116 2189 2190 2191 2112 2186 2187 2188 
2120 2192 2193 2194 2116 2189 2190 2191 
2124 2195 2196 2197 2120 2192 2193 2194 
2128 2198 2199 2200 2124 2195 2196 2197 
2132 2201 2202 2203 2128 2198 2199 2200 
2136 2204 2205 2206 2132 2201 2202 2203 
2140 2207 2208 2209 2136 2204 2205 2206 
2144 2210 2211 2212 2140 2207 2208 2209 
2148 2213 2214 2215 2144 2210 2211 2212 
2152 2216 2217 2218 2148 2213 2214 2215 
415 454 455 456 2152 2216 2217 2218 
2219 2220 2221 2222 2223 2224 2225 2226 
2227 2228 2229 2230 2219 2220 2221 2222 
2231 2232 2233 2234 2227 2228 2229 2230 
2235 2236 2237 2238 2231 2232 2233 2234 
2239 2240 2241 2242 2235 2236 2237 2238 
2243 2244 2245 2246 2239 2240 2241 2242 
2247 2248 2249 2250 2243 2244 2245 2246 
2251 2252 2253 2254 2247 2248 2249 2250 
2255 2256 2257 2258 2251 2252 2253 2254 
2259 2260 2261 2262 2255 2256 2257 2258 
2263 2264 2265 2266 2259 2260 2261 2262 
2267 2268 2269 2270 2263 2264 2265 2266 
2271 2272 2273 2274 2267 2268 2269 2270 
2275 2276 2277 2278 2271 2272 2273 2274 
2279 2280 2281 2282 2275 2276 2277 2278 
2283 2284 2285 2286 2279 2280 2281 2282 
2287 2288 2289 2290 2283 2284 2285 2286 
2291 2292 2293 2294 2287 2288 2289 2290 
2295 2296 2297 2298 2291 2292 2293 2294 
2299 2300 2301 2302 2295 2296 2297 2298 
485 486 487 488 2299 2300 2301 2302 
2303 1947 2304 2305 2306 1949 2307 2308 
2309 1951 2310 2311 2303 1947 2304 2305 
2312 1953 2313 2314 2309 1951 2310 2311 
2315 1955 2316 2317 2312 1953 2313 2314 
2318 1957 2319 2320 2315 1955 2316 2317 
2321 1959 2322 2323 2318 1957 2319 2320 
2324 1961 2325 2326 2321 1959 2322 2323 
2327 1963 2328 2329 2324 1961 2325 2326 
2330 1965 2331 2332 2327 1963 2328 2329 
2333 1967 2334 2335 2330 1965 2331 2332 
2336 1969 2337 2338 2333 1967 2334 2335 
2339 1971 2340 2341 2336 1969 2337 2338 
2342 1973 2343 2344 2339 1971 2340 2341 
2345 1975 2346 2347 2342 1973 2343 2344 
2348 1977 2349 2350 2345 1975 2346 2347 
2351 1979 2352 2353 2348 1977 2349 2350 
2354 1981 2355 2356 2351 1979 2352 2353 
2357 1983 2358 2359 2354 1981 2355 2356 
2360 1985 2361 2362 2357 1983 2358 2359 
2363 1987 2364 2365 2360 1985 2361 2362 
524 354 525 526 2363 1987 2364 2365 
2366 2367 2368 2369 2370 2371 2372 2373 
2374 2375 2376 2377 2366 2367 2368 2369 
2378 2379 2380 2381 2374 2375 2376 2377 
2382 2383 2384 2385 2378 2379 2380 2381 
2386 2387 2388 2389 2382 2383 2384 2385 
2390 2391 2392 2393 2386 2387 2388 2389 
2394 2395 2396 2397 2390 2391 2392 2393 
2398 2399 2400 2401 2394 2395 2396 2397 
2402 2403 2404 2405 2398 2399 2400 2401 
2406 2407 2408 2409 2402 2403 2404 2405 
2410 2411 2412 2413 2406 2407 2408 2409 
2414 2415 2416 2417 2410 2411 2412 2413 
2418 2419 2420 2421 2414 2415 2416 2417 
2422 2423 2424 2425 2418 2419 2420 2421 
2426 2427 2428 2429 2422 2423 2424 2425 
2430 2431 2432 2433 2426 2427 2428 2429 
2434 2435 2436 2437 2430 2431 2432 2433 
2438 2439 2440 2441 2434 2435 2436 2437 
2442 2443 2444 2445 2438 2439 2440 2441 
2446 2447 2448 2449 2442 2443 2444 2445 
555 556 557 558 2446 2447 2448 2449 
2450 1529 1864 2451 2452 1533 1868 2453 
2454 1537 1872 2455 2450 1529 1864 2451 
2456 1541 1876 2457 2454 1537 1872 2455 
2458 1545 1880 2459 2456 1541 1876 2457 
2460 1549 1884 2461 2458 1545 1880 2459 
2462 1553 1888 2463 2460 1549 1884 2461 
2464 1557 1892 2465 2462 1553 1888 2463 
2466 1561 1896 2467 2464 1557 1892 2465 
2468 1565 1900 2469 2466 1561 1896 2467 
2470 1569 1904 2471 2468 1565 1900 2469 
2472 1573 1908 2473 2470 1569 1904 2471 
2474 1577 1912 2475 2472 1573 1908 2473 
2476 1581 1916 2477 2474 1577 1912 2475 
2478 1585 1920 2479 2476 1581 1916 2477 
2480 1589 1924 2481 2478 1585 1920 2479 
2482 1593 1928 2483 2480 1589 1924 2481 
2484 1597 1932 2485 2482 1593 1928 2483 
2486 1601 1936 2487 2484 1597 1932 2485 
2488 1605 1940 2489 2486 1601 1936 2487 
2490 1609 1944 2491 2488 1605 1940 2489 
593 158 317 594 2490 1609 1944 2491 
1526 2492 2493 2494 1530 2495 2496 2497 
1534 2498 2499 2500 1526 2492 2493 2494 
1538 2501 2502 2503 1534 2498 2499 2500 
1542 2504 2505 2506 1538 2501 2502 2503 
1546 2507 2508 2509 1542 2504 2505 2506 
1550 2510 2511 2512 1546 2507 2508 2509 
1554 2513 2514 2515 1550 2510 2511 2512 
1558 2516 2517 2518 1554 2513 2514 2515 
1562 2519 2520 2521 1558 2516 2517 2518 
1566 2522 2523 2524 1562 2519 2520 2521 
1570 2525 2526 2527 1566 2522 2523 2524 
1574 2528 2529 2530 1570 2525 2526 2527 
1578 2531 2532 2533 1574 2528 2529 2530 
1582 2534 2535 2536 1578 2531 2532 2533 
1586 2537 2538 2539 1582 2534 2535 2536 
1590 2540 2541 2542 1586 2537 2538 2539 
1594 2543 2544 2545 1590 2540 2541 2542 
1598 2546 2547 2548 1594 2543 2544 2545 
1602 2549 2550 2551 1598 2546 2547 2548 
1606 2552 2553 2554 1602 2549 2550 2551 
155 614 615 616 1606 2552 2553 2554 
2555 1382 2556 1863 2557 1386 2558 1867 
2559 1390 2560 1871 2555 1382 2556 1863 
2561 1394 2562 1875 2559 1390 2560 1871 
2563 1398 2564 1879 2561 1394 2562 1875 
2565 1402 2566 1883 2563 1398 2564 1879 
2567 1406 2568 1887 2565 1402 2566 1883 
2569 1410 2570 1891 2567 1406 2568 1887 
2571 1414 2572 1895 2569 1410 2570 1891 
2573 1418 2574 1899 2571 1414 2572 1895 
2575 1422 2576 1903 2573 1418 2574 1899 
2577 1426 2578 1907 2575 1422 2576 1903 
2579 1430 2580 1911 2577 1426 2578 1907 
2581 1434 2582 1915 2579 1430 2580 1911 
2583 1438 2584 1919 2581 1434 2582 1915 
2585 1442 2586 1923 2583 1438 2584 1919 
2587 1446 2588 1927 2585 1442 2586 1923 
2589 1450 2590 1931 2587 1446 2588 1927 
2591 1454 2592 1935 2589 1450 2590 1931 
2593 1458 2594 1939 2591 1454 2592 1935 
2595 1462 2596 1943 2593 1458 2594 1939 
643 88 644 316 2595 1462 2596 1943 
2597 2598 2599 2600 2601 2602 2603 2604 
2605 2606 2607 2608 2597 2598 2599 2600 
2609 2610 2611 2612 2605 2606 2607 2608 
2613 2614 2615 2616 2609 2610 2611 2612 
2617 2618 2619 2620 2613 2614 2615 2616 
2621 2622 2623 2624 2617 2618 2619 2620 
2625 2626 2627 2628 2621 2622 2623 2624 
2629 2630 2631 2632 2625 2626 2627 2628 
2633 2634 2635 2636 2629 2630 2631 2632 
2637 2638 2639 2640 2633 2634 2635 2636 
2641 2642 2643 2644 2637 2638 2639 2640 
2645 2646 2647 2648 2641 2642 2643 2644 
2649 2650 2651 2652 2645 2646 2647 2648 
2653 2654 2655 2656 2649 2650 2651 2652 
2657 2658 2659 2660 2653 2654 2655 2656 
2661 2662 2663 2664 2657 2658 2659 2660 
2665 2666 2667 2668 2661 2662 2663 2664 
2669 2670 2671 2672 2665 2666 2667 2668 
2673 2674 2675 2676 2669 2670 2671 2672 
2677 2678 2679 2680 2673 2674 2675 2676 
665 666 667 668 2677 2678 2679 2680 
1947 1946 2681 2304 1949 1948 2682 2307 
1951 1950 2683 2310 1947 1946 2681 2304 
1953 1952 2684 2313 1951 1950 2683 2310 
1955 1954 2685 2316 1953 1952 2684 2313 
1957 1956 2686 2319 1955 1954 2685 2316 
1959 1958 2687 2322 1957 1956 2686 2319 
1961 1960 2688 2325 1959 1958 2687 2322 
1963 1962 2689 2328 1961 1960 2688 2325 
1965 1964 2690 2331 1963 1962 2689 2328 
1967 1966 2691 2334 1965 1964 2690 2331 
1969 1968 2692 2337 1967 1966 2691 2334 
1971 1970 2693 2340 1969 1968 2692 2337 
1973 1972 2694 2343 1971 1970 2693 2340 
1975 1974 2695 2346 1973 1972 2694 2343 
1977 1976 2696 2349 1975 1974 2695 2346 
1979 1978 2697 2352 1977 1976 2696 2349 
1981 1980 2698 2355 1979 1978 2697 2352 
1983 1982 2699 2358 1981 1980 2698 2355 
1985 1984 2700 2361 1983 1982 2699 2358 
1987 1986 2701 2364 1985 1984 2700 2361 
354 353 702 525 1987 1986 2701 2364 
2221 2702 2703 2305 2225 2704 2705 2308 
2229 2706 2707 2311 2221 2702 2703 2305 
2233 2708 2709 2314 2229 2706 2707 2311 
2237 2710 2711 2317 2233 2708 2709 2314 
2241 2712 2713 2320 2237 2710 2711 2317 
2245 2714 2715 2323 2241 2712 2713 2320 
2249 2716 2717 2326 2245 2714 2715 2323 
2253 2718 2719 2329 2249 2716 2717 2326 
2257 2720 2721 2332 2253 2718 2719 2329 
2261 2722 2723 2335 2257 2720 2721 2332 
2265 2724 2725 2338 2261 2722 2723 2335 
2269 2726 2727 2341 2265 2724 2725 2338 
2273 2728 2729 2344 2269 2726 2727 2341 
2277 2730 2731 2347 2273 2728 2729 2344 
2281 2732 2733 2350 2277 2730 2731 2347 
2285 2734 2735 2353 2281 2732 2733 2350 
2289 2736 2737 2356 2285 2734 2735 2353 
2293 2738 2739 2359 2289 2736 2737 2356 
2297 2740 2741 2362 2293 2738 2739 2359 
2301 2742 2743 2365 2297 2740 2741 2362 
487 713 714 526 2301 2742 2743 2365 
2744 2745 2746 2600 2747 2748 2749 2604 
2750 2751 2752 2608 2744 2745 2746 2600 
2753 2754 2755 2612 2750 2751 2752 2608 
2756 2757 2758 2616 2753 2754 2755 2612 
2759 2760 2761 2620 2756 2757 2758 2616 
2762 2763 2764 2624 2759 2760 2761 2620 
2765 2766 2767 2628 2762 2763 2764 2624 
2768 2769 2770 2632 2765 2766 2767 2628 
2771 2772 2773 2636 2768 2769 2770 2632 
2774 2775 2776 2640 2771 2772 2773 2636 
2777 2778 2779 2644 2774 2775 2776 2640 
2780 2781 2782 2648 2777 2778 2779 2644 
2783 2784 2785 2652 2780 2781 2782 2648 
2786 2787 2788 2656 2783 2784 2785 2652 
2789 2790 2791 2660 2786 2787 2788 2656 
2792 2793 2794 2664 2789 2790 2791 2660 
2795 2796 2797 2668 2792 2793 2794 2664 
2798 2799 2800 2672 2795 2796 2797 2668 
2801 2802 2803 2676 2798 2799 2800 2672 
2804 2805 2806 2680 2801 2802 2803 2676 
734 735 736 668 2804 2805 2806 2680 
1381 2807 2808 2809 1385 2810 2811 2812 
1389 2813 2814 2815 1381 2807 2808 2809 
1393 2816 2817 2818 1389 2813 2814 2815 
1397 2819 2820 2821 1393 2816 2817 2818 
1401 2822 2823 2824 1397 2819 2820 2821 
1405 2825 2826 2827 1401 2822 2823 2824 
1409 2828 2829 2830 1405 2825 2826 2827 
1413 2831 2832 2833 1409 2828 2829 2830 
1417 2834 2835 2836 1413 2831 2832 2833 
1421 2837 2838 2839 1417 2834 2835 2836 
1425 2840 2841 2842 1421 2837 2838 2839 
1429 2843 2844 2845 1425 2840 2841 2842 
1433 2846 2847 2848 1429 2843 2844 2845 
1437 2849 2850 2851 1433 2846 2847 2848 
1441 2852 2853 2854 1437 2849 2850 2851 
1445 2855 2856 2857 1441 2852 2853 2854 
1449 2858 2859 2860 1445 2855 2856 2857 
1453 2861 2862 2863 1449 2858 2859 2860 
1457 2864 2865 2866 1453 2861 2862 2863 
1461 2867 2868 2869 1457 2864 2865 2866 
87 764 765 766 1461 2867 2868 2869 
2219 2156 2870 2871 2223 2159 2872 2873 
2227 2162 2874 2875 2219 2156 2870 2871 
2231 2165 2876 2877 2227 2162 2874 2875 
2235 2168 2878 2879 2231 2165 2876 2877 
2239 2171 2880 2881 2235 2168 2878 2879 
2243 2174 2882 2883 2239 2171 2880 2881 
2247 2177 2884 2885 2243 2174 2882 2883 
2251 2180 2886 2887 2247 2177 2884 2885 
2255 2183 2888 2889 2251 2180 2886 2887 
2259 2186 2890 2891 2255 2183 2888 2889 
2263 2189 2892 2893 2259 2186 2890 2891 
2267 2192 2894 2895 2263 2189 2892 2893 
2271 2195 2896 2897 2267 2192 2894 2895 
2275 2198 2898 2899 2271 2195 2896 2897 
2279 2201 2900 2901 2275 2198 2898 2899 
2283 2204 2902 2903 2279 2201 2900 2901 
2287 2207 2904 2905 2283 2204 2902 2903 
2291 2210 2906 2907 2287 2207 2904 2905 
2295 2213 2908 2909 2291 2210 2906 2907 
2299 2216 2910 2911 2295 2213 2908 2909 
485 454 793 794 2299 2216 2910 2911 
2912 2913 2914 2702 2915 2916 2917 2704 
2918 2919 2920 2706 2912 2913 2914 2702 
2921 2922 2923 2708 2918 2919 2920 2706 
2924 2925 2926 2710 2921 2922 2923 2708 
2927 2928 2929 2712 2924 2925 2926 2710 
2930 2931 2932 2714 2927 2928 2929 2712 
2933 2934 2935 2716 2930 2931 2932 2714 
2936 2937 2938 2718 2933 2934 2935 2716 
2939 2940 2941 2720 2936 2937 2938 2718 
2942 2943 2944 2722 2939 2940 2941 2720 
2945 2946 2947 2724 2942 2943 2944 2722 
2948 2949 2950 2726 2945 2946 2947 2724 
2951 2952 2953 2728 2948 2949 2950 2726 
2954 2955 2956 2730 2951 2952 2953 2728 
2957 2958 2959 2732 2954 2955 2956 2730 
2960 2961 2962 2734 2957 2958 2959 2732 
2963 2964 2965 2736 2960 2961 2962 2734 
2966 2967 2968 2738 2963 2964 2965 2736 
2969 2970 2971 2740 2966 2967 2968 2738 
2972 2973 2974 2742 2969 2970 2971 2740 
814 815 816 713 2972 2973 2974 2742 
2975 2976 2369 2368 2977 2978 2373 2372 
2979 2980 2377 2376 2975 2976 2369 2368 
2981 2982 2381 2380 2979 2980 2377 2376 
2983 2984 2385 2384 2981 2982 2381 2380 
2985 2986 2389 2388 2983 2984 2385 2384 
2987 2988 2393 2392 2985 2986 2389 2388 
2989 2990 2397 2396 2987 2988 2393 2392 
2991 2992 2401 2400 2989 2990 2397 2396 
2993 2994 2405 2404 2991 2992 2401 2400 
2995 2996 2409 2408 2993 2994 2405 2404 
2997 2998 2413 2412 2995 2996 2409 2408 
2999 3000 2417 2416 2997 2998 2413 2412 
3001 3002 2421 2420 2999 3000 2417 2416 
3003 3004 2425 2424 3001 3002 2421 2420 
3005 3006 2429 2428 3003 3004 2425 2424 
3007 3008 2433 2432 3005 3006 2429 2428 
3009 3010 2437 2436 3007 3008 2433 2432 
3011 3012 2441 2440 3009 3010 2437 2436 
3013 3014 2445 2444 3011 3012 2441 2440 
3015 3016 2449 2448 3013 3014 2445 2444 
843 844 558 557 3015 3016 2449 2448 
2914 2450 2451 3017 2917 2452 2453 3018 
2920 2454 2455 3019 2914 2450 2451 3017 
2923 2456 2457 3020 2920 2454 2455 3019 
2926 2458 2459 3021 2923 2456 2457 3020 
2929 2460 2461 3022 2926 2458 2459 3021 
2932 2462 2463 3023 2929 2460 2461 3022 
2935 2464 2465 3024 2932 2462 2463 3023 
2938 2466 2467 3025 2935 2464 2465 3024 
2941 2468 2469 3026 2938 2466 2467 3025 
2944 2470 2471 3027 2941 2468 2469 3026 
2947 2472 2473 3028 2944 2470 2471 3027 
2950 2474 2475 3029 2947 2472 2473 3028 
2953 2476 2477 3030 2950 2474 2475 3029 
2956 2478 2479 3031 2953 2476 2477 3030 
2959 2480 2481 3032 2956 2478 2479 3031 
2962 2482 2483 3033 2959 2480 2481 3032 
2965 2484 2485 3034 2962 2482 2483 3033 
2968 2486 2487 3035 2965 2484 2485 3034 
2971 2488 2489 3036 2968 2486 2487 3035 
2974 2490 2491 3037 2971 2488 2489 3036 
816 593 594 862 2974 2490 2491 3037 
3038 3039 2976 2975 3040 3041 2978 2977 
3042 3043 2980 2979 3038 3039 2976 2975 
3044 3045 2982 2981 3042 3043 2980 2979 
3046 3047 2984 2983 3044 3045 2982 2981 
3048 3049 2986 2985 3046 3047 2984 2983 
3050 3051 2988 2987 3048 3049 2986 2985 
3052 3053 2990 2989 3050 3051 2988 2987 
3054 3055 2992 2991 3052 3053 2990 2989 
3056 3057 2994 2993 3054 3055 2992 2991 
3058 3059 2996 2995 3056 3057 2994 2993 
3060 3061 2998 2997 3058 3059 2996 2995 
3062 3063 3000 2999 3060 3061 2998 2997 
3064 3065 3002 3001 3062 3063 3000 2999 
3066 3067 3004 3003 3064 3065 3002 3001 
3068 3069 3006 3005 3066 3067 3004 3003 
3070 3071 3008 3007 3068 3069 3006 3005 
3072 3073 3010 3009 3070 3071 3008 3007 
3074 3075 3012 3011 3072 3073 3010 3009 
3076 3077 3014 3013 3074 3075 3012 3011 
3078 3079 3016 3015 3076 3077 3014 3013 
873 874 844 843 3078 3079 3016 3015 
1778 3038 2975 2598 1782 3040 2977 2602 
1786 3042 2979 2606 1778 3038 2975 2598 
1790 3044 2981 2610 1786 3042 2979 2606 
1794 3046 2983 2614 1790 3044 2981 2610 
1798 3048 2985 2618 1794 3046 2983 2614 
1802 3050 2987 2622 1798 3048 2985 2618 
1806 3052 2989 2626 1802 3050 2987 2622 
1810 3054 2991 2630 1806 3052 2989 2626 
1814 3056 2993 2634 1810 3054 2991 2630 
1818 3058 2995 2638 1814 3056 2993 2634 
1822 3060 2997 2642 1818 3058 2995 2638 
1826 3062 2999 2646 1822 3060 2997 2642 
1830 3064 3001 2650 1826 3062 2999 2646 
1834 3066 3003 2654 1830 3064 3001 2650 
1838 3068 3005 2658 1834 3066 3003 2654 
1842 3070 3007 2662 1838 3068 3005 2658 
1846 3072 3009 2666 1842 3070 3007 2662 
1850 3074 3011 2670 1846 3072 3009 2666 
1854 3076 3013 2674 1850 3074 3011 2670 
1858 3078 3015 2678 1854 3076 3013 2674 
275 873 843 666 1858 3078 3015 2678 
2702 2914 3017 2703 2704 2917 3018 2705 
2706 2920 3019 2707 2702 2914 3017 2703 
2708 2923 3020 2709 2706 2920 3019 2707 
2710 2926 3021 2711 2708 2923 3020 2709 
2712 2929 3022 2713 2710 2926 3021 2711 
2714 2932 3023 2715 2712 2929 3022 2713 
2716 2935 3024 2717 2714 2932 3023 2715 
2718 2938 3025 2719 2716 2935 3024 2717 
2720 2941 3026 2721 2718 2938 3025 2719 
2722 2944 3027 2723 2720 2941 3026 2721 
2724 2947 3028 2725 2722 2944 3027 2723 
2726 2950 3029 2727 2724 2947 3028 2725 
2728 2953 3030 2729 2726 2950 3029 2727 
2730 2956 3031 2731 2728 2953 3030 2729 
2732 2959 3032 2733 2730 2956 3031 2731 
2734 2962 3033 2735 2732 2959 3032 2733 
2736 2965 3034 2737 2734 2962 3033 2735 
2738 2968 3035 2739 2736 2965 3034 2737 
2740 2971 3036 2741 2738 2968 3035 2739 
2742 2974 3037 2743 2740 2971 3036 2741 
713 816 862 714 2742 2974 3037 2743 
2492 2913 3080 2493 2495 2916 3081 2496 
2498 2919 3082 2499 2492 2913 3080 2493 
2501 2922 3083 2502 2498 2919 3082 2499 
2504 2925 3084 2505 2501 2922 3083 2502 
2507 2928 3085 2508 2504 2925 3084 2505 
2510 2931 3086 2511 2507 2928 3085 2508 
2513 2934 3087 2514 2510 2931 3086 2511 
2516 2937 3088 2517 2513 2934 3087 2514 
2519 2940 3089 2520 2516 2937 3088 2517 
2522 2943 3090 2523 2519 2940 3089 2520 
2525 2946 3091 2526 2522 2943 3090 2523 
2528 2949 3092 2529 2525 2946 3091 2526 
2531 2952 3093 2532 2528 2949 3092 2529 
2534 2955 3094 2535 2531 2952 3093 2532 
2537 2958 3095 2538 2534 2955 3094 2535 
2540 2961 3096 2541 2537 2958 3095 2538 
2543 2964 3097 2544 2540 2961 3096 2541 
2546 2967 3098 2547 2543 2964 3097 2544 
2549 2970 3099 2550 2546 2967 3098 2547 
2552 2973 3100 2553 2549 2970 3099 2550 
614 815 892 615 2552 2973 3100 2553 
3101 2366 2369 3102 3103 2370 2373 3104 
3105 2374 2377 3106 3101 2366 2369 3102 
3107 2378 2381 3108 3105 2374 2377 3106 
3109 2382 2385 3110 3107 2378 2381 3108 
3111 2386 2389 3112 3109 2382 2385 3110 
3113 2390 2393 3114 3111 2386 2389 3112 
3115 2394 2397 3116 3113 2390 2393 3114 
3117 2398 2401 3118 3115 2394 2397 3116 
3119 2402 2405 3120 3117 2398 2401 3118 
3121 2406 2409 3122 3119 2402 2405 3120 
3123 2410 2413 3124 3121 2406 2409 3122 
3125 2414 2417 3126 3123 2410 2413 3124 
3127 2418 2421 3128 3125 2414 2417 3126 
3129 2422 2425 3130 3127 2418 2421 3128 
3131 2426 2429 3132 3129 2422 2425 3130 
3133 2430 2433 3134 3131 2426 2429 3132 
3135 2434 2437 3136 3133 2430 2433 3134 
3137 2438 2441 3138 3135 2434 2437 3136 
3139 2442 2445 3140 3137 2438 2441 3138 
3141 2446 2449 3142 3139 2442 2445 3140 
903 555 558 904 3141 2446 2449 3142 
3143 1779 2597 3144 3145 1783 2601 3146 
3147 1787 2605 3148 3143 1779 2597 3144 
3149 1791 2609 3150 3147 1787 2605 3148 
3151 1795 2613 3152 3149 1791 2609 3150 
3153 1799 2617 3154 3151 1795 2613 3152 
3155 1803 2621 3156 3153 1799 2617 3154 
3157 1807 2625 3158 3155 1803 2621 3156 
3159 1811 2629 3160 3157 1807 2625 3158 
3161 1815 2633 3162 3159 1811 2629 3160 
3163 1819 2637 3164 3161 1815 2633 3162 
3165 1823 2641 3166 3163 1819 2637 3164 
3167 1827 2645 3168 3165 1823 2641 3166 
3169 1831 2649 3170 3167 1827 2645 3168 
3171 1835 2653 3172 3169 1831 2649 3170 
3173 1839 2657 3174 3171 1835 2653 3172 
3175 1843 2661 3176 3173 1839 2657 3174 
3177 1847 2665 3178 3175 1843 2661 3176 
3179 1851 2669 3180 3177 1847 2665 3178 
3181 1855 2673 3182 3179 1851 2669 3180 
3183 1859 2677 3184 3181 1855 2673 3182 
923 276 665 924 3183 1859 2677 3184 
1780 1736 1463 1946 1784 1738 1466 1948 
1788 1740 1469 1950 1780 1736 1463 1946 
1792 1742 1472 1952 1788 1740 1469 1950 
1796 1744 1475 1954 1792 1742 1472 1952 
1800 1746 1478 1956 1796 1744 1475 1954 
1804 1748 1481 1958 1800 1746 1478 1956 
1808 1750 1484 1960 1804 1748 1481 1958 
1812 1752 1487 1962 1808 1750 1484 1960 
1816 1754 1490 1964 1812 1752 1487 1962 
1820 1756 1493 1966 1816 1754 1490 1964 
1824 1758 1496 1968 1820 1756 1493 1966 
1828 1760 1499 1970 1824 1758 1496 1968 
1832 1762 1502 1972 1828 1760 1499 1970 
1836 1764 1505 1974 1832 1762 1502 1972 
1840 1766 1508 1976 1836 1764 1505 1974 
1844 1768 1511 1978 1840 1766 1508 1976 
1848 1770 1514 1980 1844 1768 1511 1978 
1852 1772 1517 1982 1848 1770 1514 1980 
1856 1774 1520 1984 1852 1772 1517 1982 
1860 1776 1523 1986 1856 1774 1520 1984 
277 253 124 353 1860 1776 1523 1986 
3185 3186 3187 1737 3188 3189 3190 1739 
3191 3192 3193 1741 3185 3186 3187 1737 
3194 3195 3196 1743 3191 3192 3193 1741 
3197 3198 3199 1745 3194 3195 3196 1743 
3200 3201 3202 1747 3197 3198 3199 1745 
3203 3204 3205 1749 3200 3201 3202 1747 
3206 3207 3208 1751 3203 3204 3205 1749 
3209 3210 3211 1753 3206 3207 3208 1751 
3212 3213 3214 1755 3209 3210 3211 1753 
3215 3216 3217 1757 3212 3213 3214 1755 
3218 3219 3220 1759 3215 3216 3217 1757 
3221 3222 3223 1761 3218 3219 3220 1759 
3224 3225 3226 1763 3221 3222 3223 1761 
3227 3228 3229 1765 3224 3225 3226 1763 
3230 3231 3232 1767 3227 3228 3229 1765 
3233 3234 3235 1769 3230 3231 3232 1767 
3236 3237 3238 1771 3233 3234 3235 1769 
3239 3240 3241 1773 3236 3237 3238 1771 
3242 3243 3244 1775 3239 3240 3241 1773 
3245 3246 3247 1777 3242 3243 3244 1775 
944 945 946 254 3245 3246 3247 1777 
1380 3039 2807 1381 1384 3041 2810 1385 
1388 3043 2813 1389 1380 3039 2807 1381 
1392 3045 2816 1393 1388 3043 2813 1389 
1396 3047 2819 1397 1392 3045 2816 1393 
1400 3049 2822 1401 1396 3047 2819 1397 
1404 3051 2825 1405 1400 3049 2822 1401 
1408 3053 2828 1409 1404 3051 2825 1405 
1412 3055 2831 1413 1408 3053 2828 1409 
1416 3057 2834 1417 1412 3055 2831 1413 
1420 3059 2837 1421 1416 3057 2834 1417 
1424 3061 2840 1425 1420 3059 2837 1421 
1428 3063 2843 1429 1424 3061 2840 1425 
1436 3067 2849 1437 1432 3065 2846 1433 
1440 3069 2852 1441 1436 3067 2849 1437 
1444 3071 2855 1445 1440 3069 2852 1441 
1448 3073 2858 1449 1444 3071 2855 1445 
1452 3075 2861 1453 1448 3073 2858 1449 
1456 3077 2864 1457 1452 3075 2861 1453 
1460 3079 2867 1461 1456 3077 2864 1457 
86 874 764 87 1460 3079 2867 1461 
1382 1381 2809 2556 1386 1385 2812 2558 
1390 1389 2815 2560 1382 1381 2809 2556 
1394 1393 2818 2562 1390 1389 2815 2560 
1398 1397 2821 2564 1394 1393 2818 2562 
1402 1401 2824 2566 1398 1397 2821 2564 
1406 1405 2827 2568 1402 1401 2824 2566 
1410 1409 2830 2570 1406 1405 2827 2568 
1414 1413 2833 2572 1410 1409 2830 2570 
1418 1417 2836 2574 1414 1413 2833 2572 
1422 1421 2839 2576 1418 1417 2836 2574 
1426 1425 2842 2578 1422 1421 2839 2576 
1430 1429 2845 2580 1426 1425 2842 2578 
1434 1433 2848 2582 1430 1429 2845 2580 
1438 1437 2851 2584 1434 1433 2848 2582 
1442 1441 2854 2586 1438 1437 2851 2584 
1446 1445 2857 2588 1442 1441 2854 2586 
1450 1449 2860 2590 1446 1445 2857 2588 
1454 1453 2863 2592 1450 1449 2860 2590 
1458 1457 2866 2594 1454 1453 2863 2592 
1462 1461 2869 2596 1458 1457 2866 2594 
88 87 766 644 1462 1461 2869 2596 
2870 2075 3248 3249 2872 2079 3250 3251 
2874 2083 3252 3253 2870 2075 3248 3249 
2876 2087 3254 3255 2874 2083 3252 3253 
2878 2091 3256 3257 2876 2087 3254 3255 
2880 2095 3258 3259 2878 2091 3256 3257 
2882 2099 3260 3261 2880 2095 3258 3259 
2884 2103 3262 3263 2882 2099 3260 3261 
2886 2107 3264 3265 2884 2103 3262 3263 
2888 2111 3266 3267 2886 2107 3264 3265 
2890 2115 3268 3269 2888 2111 3266 3267 
2892 2119 3270 3271 2890 2115 3268 3269 
2894 2123 3272 3273 2892 2119 3270 3271 
2896 2127 3274 3275 2894 2123 3272 3273 
2898 2131 3276 3277 2896 2127 3274 3275 
2900 2135 3278 3279 2898 2131 3276 3277 
2902 2139 3280 3281 2900 2135 3278 3279 
2904 2143 3282 3283 2902 2139 3280 3281 
2906 2147 3284 3285 2904 2143 3282 3283 
2908 2151 3286 3287 2906 2147 3284 3285 
2910 2155 3288 3289 2908 2151 3286 3287 
793 418 973 974 2910 2155 3288 3289 
1214 1213 3290 2073 1218 1217 3291 2077 
1222 1221 3292 2081 1214 1213 3290 2073 
1226 1225 3293 2085 1222 1221 3292 2081 
1230 1229 3294 2089 1226 1225 3293 2085 
1234 1233 3295 2093 1230 1229 3294 2089 
1238 1237 3296 2097 1234 1233 3295 2093 
1242 1241 3297 2101 1238 1237 3296 2097 
1246 1245 3298 2105 1242 1241 3297 2101 
1250 1249 3299 2109 1246 1245 3298 2105 
1254 1253 3300 2113 1250 1249 3299 2109 
1258 1257 3301 2117 1254 1253 3300 2113 
1262 1261 3302 2121 1258 1257 3301 2117 
1266 1265 3303 2125 1262 1261 3302 2121 
1270 1269 3304 2129 1266 1265 3303 2125 
1274 1273 3305 2133 1270 1269 3304 2129 
1278 1277 3306 2137 1274 1273 3305 2133 
1282 1281 3307 2141 1278 1277 3306 2137 
1286 1285 3308 2145 1282 1281 3307 2141 
1290 1289 3309 2149 1286 1285 3308 2145 
1294 1293 3310 2153 1290 1289 3309 2149 
8 7 992 416 1294 1293 3310 2153 
2367 3311 2599 2368 2371 3312 2603 2372 
2375 3313 2607 2376 2367 3311 2599 2368 
2379 3314 2611 2380 2375 3313 2607 2376 
2383 3315 2615 2384 2379 3314 2611 2380 
2387 3316 2619 2388 2383 3315 2615 2384 
2391 3317 2623 2392 2387 3316 2619 2388 
2395 3318 2627 2396 2391 3317 2623 2392 
2399 3319 2631 2400 2395 3318 2627 2396 
2403 3320 2635 2404 2399 3319 2631 2400 
2407 3321 2639 2408 2403 3320 2635 2404 
2411 3322 2643 2412 2407 3321 2639 2408 
2415 3323 2647 2416 2411 3322 2643 2412 
2419 3324 2651 2420 2415 3323 2647 2416 
2423 3325 2655 2424 2419 3324 2651 2420 
2427 3326 2659 2428 2423 3325 2655 2424 
2431 3327 2663 2432 2427 3326 2659 2428 
2435 3328 2667 2436 2431 3327 2663 2432 
2439 3329 2671 2440 2435 3328 2667 2436 
2443 3330 2675 2444 2439 3329 2671 2440 
2447 3331 2679 2448 2443 3330 2675 2444 
556 1002 667 557 2447 3331 2679 2448 
2158 2157 2681 1465 2161 2160 2682 1468 
2164 2163 2683 1471 2158 2157 2681 1465 
2167 2166 2684 1474 2164 2163 2683 1471 
2170 2169 2685 1477 2167 2166 2684 1474 
2173 2172 2686 1480 2170 2169 2685 1477 
2176 2175 2687 1483 2173 2172 2686 1480 
2179 2178 2688 1486 2176 2175 2687 1483 
2182 2181 2689 1489 2179 2178 2688 1486 
2185 2184 2690 1492 2182 2181 2689 1489 
2188 2187 2691 1495 2185 2184 2690 1492 
2191 2190 2692 1498 2188 2187 2691 1495 
2194 2193 2693 1501 2191 2190 2692 1498 
2197 2196 2694 1504 2194 2193 2693 1501 
2200 2199 2695 1507 2197 2196 2694 1504 
2203 2202 2696 1510 2200 2199 2695 1507 
2206 2205 2697 1513 2203 2202 2696 1510 
2209 2208 2698 1516 2206 2205 2697 1513 
2212 2211 2699 1519 2209 2208 2698 1516 
2215 2214 2700 1522 2212 2211 2699 1519 
2218 2217 2701 1525 2215 2214 2700 1522 
456 455 702 126 2218 2217 2701 1525 
2745 3332 1990 2746 2748 3333 1994 2749 
2751 3334 1998 2752 2745 3332 1990 2746 
2754 3335 2002 2755 2751 3334 1998 2752 
2757 3336 2006 2758 2754 3335 2002 2755 
2760 3337 2010 2761 2757 3336 2006 2758 
2763 3338 2014 2764 2760 3337 2010 2761 
2766 3339 2018 2767 2763 3338 2014 2764 
2769 3340 2022 2770 2766 3339 2018 2767 
2772 3341 2026 2773 2769 3340 2022 2770 
2775 3342 2030 2776 2772 3341 2026 2773 
2778 3343 2034 2779 2775 3342 2030 2776 
2781 3344 2038 2782 2778 3343 2034 2779 
2784 3345 2042 2785 2781 3344 2038 2782 
2787 3346 2046 2788 2784 3345 2042 2785 
2790 3347 2050 2791 2787 3346 2046 2788 
2793 3348 2054 2794 2790 3347 2050 2791 
2796 3349 2058 2797 2793 3348 2054 2794 
2799 3350 2062 2800 2796 3349 2058 2797 
2802 3351 2066 2803 2799 3350 2062 2800 
2805 3352 2070 2806 2802 3351 2066 2803 
735 1012 377 736 2805 3352 2070 2806 
1379 3353 1610 1694 1383 3354 1614 1696 
1387 3355 1618 1698 1379 3353 1610 1694 
1391 3356 1622 1700 1387 3355 1618 1698 
1395 3357 1626 1702 1391 3356 1622 1700 
1399 3358 1630 1704 1395 3357 1626 1702 
1403 3359 1634 1706 1399 3358 1630 1704 
1407 3360 1638 1708 1403 3359 1634 1706 
1411 3361 1642 1710 1407 3360 1638 1708 
1415 3362 1646 1712 1411 3361 1642 1710 
1419 3363 1650 1714 1415 3362 1646 1712 
1423 3364 1654 1716 1419 3363 1650 1714 
1427 3365 1658 1718 1423 3364 1654 1716 
1431 3366 1662 1720 1427 3365 1658 1718 
1435 3367 1666 1722 1431 3366 1662 1720 
1439 3368 1670 1724 1435 3367 1666 1722 
1443 3369 1674 1726 1439 3368 1670 1724 
1447 3370 1678 1728 1443 3369 1674 1726 
1451 3371 1682 1730 1447 3370 1678 1728 
1455 3372 1686 1732 1451 3371 1682 1730 
1459 3373 1690 1734 1455 3372 1686 1732 
85 1022 195 233 1459 3373 1690 1734 
1296 2871 3374 1297 1300 2873 3375 1301 
1304 2875 3376 1305 1296 2871 3374 1297 
1308 2877 3377 1309 1304 2875 3376 1305 
1312 2879 3378 1313 1308 2877 3377 1309 
1316 2881 3379 1317 1312 2879 3378 1313 
1320 2883 3380 1321 1316 2881 3379 1317 
1324 2885 3381 1325 1320 2883 3380 1321 
1328 2887 3382 1329 1324 2885 3381 1325 
1332 2889 3383 1333 1328 2887 3382 1329 
1336 2891 3384 1337 1332 2889 3383 1333 
1340 2893 3385 1341 1336 2891 3384 1337 
1344 2895 3386 1345 1340 2893 3385 1341 
1348 2897 3387 1349 1344 2895 3386 1345 
1352 2899 3388 1353 1348 2897 3387 1349 
1356 2901 3389 1357 1352 2899 3388 1353 
1360 2903 3390 1361 1356 2901 3389 1357 
1364 2905 3391 1365 1360 2903 3390 1361 
1368 2907 3392 1369 1364 2905 3391 1365 
1372 2909 3393 1373 1368 2907 3392 1369 
1376 2911 3394 1377 1372 2909 3393 1373 
46 794 1032 47 1376 2911 3394 1377 
3186 3185 1989 1988 3189 3188 1993 1992 
3192 3191 1997 1996 3186 3185 1989 1988 
3195 3194 2001 2000 3192 3191 1997 1996 
3198 3197 2005 2004 3195 3194 2001 2000 
3201 3200 2009 2008 3198 3197 2005 2004 
3204 3203 2013 2012 3201 3200 2009 2008 
3207 3206 2017 2016 3204 3203 2013 2012 
3210 3209 2021 2020 3207 3206 2017 2016 
3213 3212 2025 2024 3210 3209 2021 2020 
3216 3215 2029 2028 3213 3212 2025 2024 
3219 3218 2033 2032 3216 3215 2029 2028 
3222 3221 2037 2036 3219 3218 2033 2032 
3225 3224 2041 2040 3222 3221 2037 2036 
3228 3227 2045 2044 3225 3224 2041 2040 
3231 3230 2049 2048 3228 3227 2045 2044 
3234 3233 2053 2052 3231 3230 2049 2048 
3237 3236 2057 2056 3234 3233 2053 2052 
3240 3239 2061 2060 3237 3236 2057 2056 
3243 3242 2065 2064 3240 3239 2061 2060 
3246 3245 2069 2068 3243 3242 2065 2064 
945 944 376 375 3246 3245 2069 2068 
2912 2220 1296 1295 2915 2224 1300 1299 
2918 2228 1304 1303 2912 2220 1296 1295 
2921 2232 1308 1307 2918 2228 1304 1303 
2924 2236 1312 1311 2921 2232 1308 1307 
2927 2240 1316 1315 2924 2236 1312 1311 
2930 2244 1320 1319 2927 2240 1316 1315 
2933 2248 1324 1323 2930 2244 1320 1319 
2936 2252 1328 1327 2933 2248 1324 1323 
2939 2256 1332 1331 2936 2252 1328 1327 
2942 2260 1336 1335 2939 2256 1332 1331 
2945 2264 1340 1339 2942 2260 1336 1335 
2948 2268 1344 1343 2945 2264 1340 1339 
2951 2272 1348 1347 2948 2268 1344 1343 
2954 2276 1352 1351 2951 2272 1348 1347 
2957 2280 1356 1355 2954 2276 1352 1351 
2960 2284 1360 1359 2957 2280 1356 1355 
2963 2288 1364 1363 2960 2284 1360 1359 
2966 2292 1368 1367 2963 2288 1364 1363 
2969 2296 1372 1371 2966 2292 1368 1367 
2972 2300 1376 1375 2969 2296 1372 1371 
814 486 46 45 2972 2300 1376 1375 
2075 2074 3395 3248 2079 2078 3396 3250 
2083 2082 3397 3252 2075 2074 3395 3248 
2087 2086 3398 3254 2083 2082 3397 3252 
2091 2090 3399 3256 2087 2086 3398 3254 
2095 2094 3400 3258 2091 2090 3399 3256 
2099 2098 3401 3260 2095 2094 3400 3258 
2103 2102 3402 3262 2099 2098 3401 3260 
2107 2106 3403 3264 2103 2102 3402 3262 
2111 2110 3404 3266 2107 2106 3403 3264 
2115 2114 3405 3268 2111 2110 3404 3266 
2119 2118 3406 3270 2115 2114 3405 3268 
2123 2122 3407 3272 2119 2118 3406 3270 
2127 2126 3408 3274 2123 2122 3407 3272 
2131 2130 3409 3276 2127 2126 3408 3274 
2135 2134 3410 3278 2131 2130 3409 3276 
2139 2138 3411 3280 2135 2134 3410 3278 
2143 2142 3412 3282 2139 2138 3411 3280 
2147 2146 3413 3284 2143 2142 3412 3282 
2151 2150 3414 3286 2147 2146 3413 3284 
2155 2154 3415 3288 2151 2150 3414 3286 
418 417 1042 973 2155 2154 3415 3288 
3039 3038 3416 2807 3041 3040 3417 2810 
3043 3042 3418 2813 3039 3038 3416 2807 
3045 3044 3419 2816 3043 3042 3418 2813 
3047 3046 3420 2819 3045 3044 3419 2816 
3049 3048 3421 2822 3047 3046 3420 2819 
3051 3050 3422 2825 3049 3048 3421 2822 
3053 3052 3423 2828 3051 3050 3422 2825 
3055 3054 3424 2831 3053 3052 3423 2828 
3057 3056 3425 2834 3055 3054 3424 2831 
3059 3058 3426 2837 3057 3056 3425 2834 
3061 3060 3427 2840 3059 3058 3426 2837 
3063 3062 3428 2843 3061 3060 3427 2840 
3065 3064 3429 2846 3063 3062 3428 2843 
3067 3066 3430 2849 3065 3064 3429 2846 
3069 3068 3431 2852 3067 3066 3430 2849 
3071 3070 3432 2855 3069 3068 3431 2852 
3073 3072 3433 2858 3071 3070 3432 2855 
3075 3074 3434 2861 3073 3072 3433 2858 
3077 3076 3435 2864 3075 3074 3434 2861 
3079 3078 3436 2867 3077 3076 3435 2864 
874 873 1052 764 3079 3078 3436 2867 
2158 1214 2073 2072 2161 1218 2077 2076 
2164 1222 2081 2080 2158 1214 2073 2072 
2167 1226 2085 2084 2164 1222 2081 2080 
2170 1230 2089 2088 2167 1226 2085 2084 
2173 1234 2093 2092 2170 1230 2089 2088 
2176 1238 2097 2096 2173 1234 2093 2092 
2179 1242 2101 2100 2176 1238 2097 2096 
2182 1246 2105 2104 2179 1242 2101 2100 
2185 1250 2109 2108 2182 1246 2105 2104 
2188 1254 2113 2112 2185 1250 2109 2108 
2191 1258 2117 2116 2188 1254 2113 2112 
2194 1262 2121 2120 2191 1258 2117 2116 
2197 1266 2125 2124 2194 1262 2121 2120 
2200 1270 2129 2128 2197 1266 2125 2124 
2203 1274 2133 2132 2200 1270 2129 2128 
2206 1278 2137 2136 2203 1274 2133 2132 
2209 1282 2141 2140 2206 1278 2137 2136 
2212 1286 2145 2144 2209 1282 2141 2140 
2215 1290 2149 2148 2212 1286 2145 2144 
2218 1294 2153 2152 2215 1290 2149 2148 
456 8 416 415 2218 1294 2153 2152 
3437 1694 1695 3102 3438 1696 1697 3104 
3439 1698 1699 3106 3437 1694 1695 3102 
3440 1700 1701 3108 3439 1698 1699 3106 
3441 1702 1703 3110 3440 1700 1701 3108 
3442 1704 1705 3112 3441 1702 1703 3110 
3443 1706 1707 3114 3442 1704 1705 3112 
3444 1708 1709 3116 3443 1706 1707 3114 
3445 1710 1711 3118 3444 1708 1709 3116 
3446 1712 1713 3120 3445 1710 1711 3118 
3447 1714 1715 3122 3446 1712 1713 3120 
3448 1716 1717 3124 3447 1714 1715 3122 
3449 1718 1719 3126 3448 1716 1717 3124 
3450 1720 1721 3128 3449 1718 1719 3126 
3451 1722 1723 3130 3450 1720 1721 3128 
3452 1724 1725 3132 3451 1722 1723 3130 
3453 1726 1727 3134 3452 1724 1725 3132 
3454 1728 1729 3136 3453 1726 1727 3134 
3455 1730 1731 3138 3454 1728 1729 3136 
3456 1732 1733 3140 3455 1730 1731 3138 
3457 1734 1735 3142 3456 1732 1733 3140 
1062 233 234 904 3457 1734 1735 3142 
3080 1295 1298 3458 3081 1299 1302 3459 
3082 1303 1306 3460 3080 1295 1298 3458 
3083 1307 1310 3461 3082 1303 1306 3460 
3084 1311 1314 3462 3083 1307 1310 3461 
3085 1315 1318 3463 3084 1311 1314 3462 
3086 1319 1322 3464 3085 1315 1318 3463 
3087 1323 1326 3465 3086 1319 1322 3464 
3088 1327 1330 3466 3087 1323 1326 3465 
3089 1331 1334 3467 3088 1327 1330 3466 
3090 1335 1338 3468 3089 1331 1334 3467 
3091 1339 1342 3469 3090 1335 1338 3468 
3092 1343 1346 3470 3091 1339 1342 3469 
3093 1347 1350 3471 3092 1343 1346 3470 
3094 1351 1354 3472 3093 1347 1350 3471 
3095 1355 1358 3473 3094 1351 1354 3472 
3096 1359 1362 3474 3095 1355 1358 3473 
3097 1363 1366 3475 3096 1359 1362 3474 
3098 1367 1370 3476 3097 1363 1366 3475 
3099 1371 1374 3477 3098 1367 1370 3476 
3100 1375 1378 3478 3099 1371 1374 3477 
892 45 48 1072 3100 1375 1378 3478 
3185 3143 3144 1989 3188 3145 3146 1993 
3191 3147 3148 1997 3185 3143 3144 1989 
3194 3149 3150 2001 3191 3147 3148 1997 
3197 3151 3152 2005 3194 3149 3150 2001 
3200 3153 3154 2009 3197 3151 3152 2005 
3203 3155 3156 2013 3200 3153 3154 2009 
3206 3157 3158 2017 3203 3155 3156 2013 
3209 3159 3160 2021 3206 3157 3158 2017 
3212 3161 3162 2025 3209 3159 3160 2021 
3215 3163 3164 2029 3212 3161 3162 2025 
3218 3165 3166 2033 3215 3163 3164 2029 
3221 3167 3168 2037 3218 3165 3166 2033 
3224 3169 3170 2041 3221 3167 3168 2037 
3227 3171 3172 2045 3224 3169 3170 2041 
3230 3173 3174 2049 3227 3171 3172 2045 
3233 3175 3176 2053 3230 3173 3174 2049 
3236 3177 3178 2057 3233 3175 3176 2053 
3239 3179 3180 2061 3236 3177 3178 2057 
3242 3181 3182 2065 3239 3179 3180 2061 
3245 3183 3184 2069 3242 3181 3182 2065 
944 923 924 376 3245 3183 3184 2069 
2809 2808 2703 3017 2812 2811 2705 3018 
2815 2814 2707 3019 2809 2808 2703 3017 
2818 2817 2709 3020 2815 2814 2707 3019 
2821 2820 2711 3021 2818 2817 2709 3020 
2824 2823 2713 3022 2821 2820 2711 3021 
2827 2826 2715 3023 2824 2823 2713 3022 
2830 2829 2717 3024 2827 2826 2715 3023 
2833 2832 2719 3025 2830 2829 2717 3024 
2836 2835 2721 3026 2833 2832 2719 3025 
2839 2838 2723 3027 2836 2835 2721 3026 
2842 2841 2725 3028 2839 2838 2723 3027 
2845 2844 2727 3029 2842 2841 2725 3028 
2848 2847 2729 3030 2845 2844 2727 3029 
2851 2850 2731 3031 2848 2847 2729 3030 
2854 2853 2733 3032 2851 2850 2731 3031 
2857 2856 2735 3033 2854 2853 2733 3032 
2860 2859 2737 3034 2857 2856 2735 3033 
2863 2862 2739 3035 2860 2859 2737 3034 
2866 2865 2741 3036 2863 2862 2739 3035 
2869 2868 2743 3037 2866 2865 2741 3036 
766 765 714 862 2869 2868 2743 3037 
2556 2809 3017 2451 2558 2812 3018 2453 
2560 2815 3019 2455 2556 2809 3017 2451 
2562 2818 3020 2457 2560 2815 3019 2455 
2564 2821 3021 2459 2562 2818 3020 2457 
2566 2824 3022 2461 2564 2821 3021 2459 
2568 2827 3023 2463 2566 2824 3022 2461 
2570 2830 3024 2465 2568 2827 3023 2463 
2572 2833 3025 2467 2570 2830 3024 2465 
2574 2836 3026 2469 2572 2833 3025 2467 
2576 2839 3027 2471 2574 2836 3026 2469 
2578 2842 3028 2473 2576 2839 3027 2471 
2580 2845 3029 2475 2578 2842 3028 2473 
2582 2848 3030 2477 2580 2845 3029 2475 
2584 2851 3031 2479 2582 2848 3030 2477 
2586 2854 3032 2481 2584 2851 3031 2479 
2588 2857 3033 2483 2586 2854 3032 2481 
2590 2860 3034 2485 2588 2857 3033 2483 
2592 2863 3035 2487 2590 2860 3034 2485 
2594 2866 3036 2489 2592 2863 3035 2487 
2596 2869 3037 2491 2594 2866 3036 2489 
644 766 862 594 2596 2869 3037 2491 
2156 2072 2075 2870 2159 2076 2079 2872 
2162 2080 2083 2874 2156 2072 2075 2870 
2165 2084 2087 2876 2162 2080 2083 2874 
2168 2088 2091 2878 2165 2084 2087 2876 
2171 2092 2095 2880 2168 2088 2091 2878 
2174 2096 2099 2882 2171 2092 2095 2880 
2177 2100 2103 2884 2174 2096 2099 2882 
2180 2104 2107 2886 2177 2100 2103 2884 
2183 2108 2111 2888 2180 2104 2107 2886 
2186 2112 2115 2890 2183 2108 2111 2888 
2189 2116 2119 2892 2186 2112 2115 2890 
2192 2120 2123 2894 2189 2116 2119 2892 
2195 2124 2127 2896 2192 2120 2123 2894 
2198 2128 2131 2898 2195 2124 2127 2896 
2201 2132 2135 2900 2198 2128 2131 2898 
2204 2136 2139 2902 2201 2132 2135 2900 
2207 2140 2143 2904 2204 2136 2139 2902 
2210 2144 2147 2906 2207 2140 2143 2904 
2213 2148 2151 2908 2210 2144 2147 2906 
2216 2152 2155 2910 2213 2148 2151 2908 
454 415 418 793 2216 2152 2155 2910 
2157 2222 2304 2681 2160 2226 2307 2682 
2163 2230 2310 2683 2157 2222 2304 2681 
2166 2234 2313 2684 2163 2230 2310 2683 
2169 2238 2316 2685 2166 2234 2313 2684 
2172 2242 2319 2686 2169 2238 2316 2685 
2175 2246 2322 2687 2172 2242 2319 2686 
2178 2250 2325 2688 2175 2246 2322 2687 
2181 2254 2328 2689 2178 2250 2325 2688 
2184 2258 2331 2690 2181 2254 2328 2689 
2187 2262 2334 2691 2184 2258 2331 2690 
2190 2266 2337 2692 2187 2262 2334 2691 
2193 2270 2340 2693 2190 2266 2337 2692 
2196 2274 2343 2694 2193 2270 2340 2693 
2199 2278 2346 2695 2196 2274 2343 2694 
2202 2282 2349 2696 2199 2278 2346 2695 
2205 2286 2352 2697 2202 2282 2349 2696 
2208 2290 2355 2698 2205 2286 2352 2697 
2211 2294 2358 2699 2208 2290 2355 2698 
2214 2298 2361 2700 2211 2294 2358 2699 
2217 2302 2364 2701 2214 2298 2361 2700 
455 488 525 702 2217 2302 2364 2701 
2807 3416 2303 2808 2810 3417 2306 2811 
2813 3418 2309 2814 2807 3416 2303 2808 
2816 3419 2312 2817 2813 3418 2309 2814 
2819 3420 2315 2820 2816 3419 2312 2817 
2822 3421 2318 2823 2819 3420 2315 2820 
2825 3422 2321 2826 2822 3421 2318 2823 
2828 3423 2324 2829 2825 3422 2321 2826 
2831 3424 2327 2832 2828 3423 2324 2829 
2834 3425 2330 2835 2831 3424 2327 2832 
2837 3426 2333 2838 2834 3425 2330 2835 
2840 3427 2336 2841 2837 3426 2333 2838 
2843 3428 2339 2844 2840 3427 2336 2841 
2846 3429 2342 2847 2843 3428 2339 2844 
2849 3430 2345 2850 2846 3429 2342 2847 
2852 3431 2348 2853 2849 3430 2345 2850 
2855 3432 2351 2856 2852 3431 2348 2853 
2858 3433 2354 2859 2855 3432 2351 2856 
2861 3434 2357 2862 2858 3433 2354 2859 
2864 3435 2360 2865 2861 3434 2357 2862 
2867 3436 2363 2868 2864 3435 2360 2865 
764 1052 524 765 2867 3436 2363 2868 
2493 3080 3458 3479 2496 3081 3459 3480 
2499 3082 3460 3481 2493 3080 3458 3479 
2502 3083 3461 3482 2499 3082 3460 3481 
2505 3084 3462 3483 2502 3083 3461 3482 
2508 3085 3463 3484 2505 3084 3462 3483 
2511 3086 3464 3485 2508 3085 3463 3484 
2514 3087 3465 3486 2511 3086 3464 3485 
2517 3088 3466 3487 2514 3087 3465 3486 
2520 3089 3467 3488 2517 3088 3466 3487 
2523 3090 3468 3489 2520 3089 3467 3488 
2526 3091 3469 3490 2523 3090 3468 3489 
2529 3092 3470 3491 2526 3091 3469 3490 
2532 3093 3471 3492 2529 3092 3470 3491 
2535 3094 3472 3493 2532 3093 3471 3492 
2538 3095 3473 3494 2535 3094 3472 3493 
2541 3096 3474 3495 2538 3095 3473 3494 
2544 3097 3475 3496 2541 3096 3474 3495 
2547 3098 3476 3497 2544 3097 3475 3496 
2550 3099 3477 3498 2547 3098 3476 3497 
2553 3100 3478 3499 2550 3099 3477 3498 
615 892 1072 1082 2553 3100 3478 3499 
1380 1379 1694 3437 1384 1383 1696 3438 
1388 1387 1698 3439 1380 1379 1694 3437 
1392 1391 1700 3440 1388 1387 1698 3439 
1396 1395 1702 3441 1392 1391 1700 3440 
1400 1399 1704 3442 1396 1395 1702 3441 
1404 1403 1706 3443 1400 1399 1704 3442 
1408 1407 1708 3444 1404 1403 1706 3443 
1412 1411 1710 3445 1408 1407 1708 3444 
1416 1415 1712 3446 1412 1411 1710 3445 
1420 1419 1714 3447 1416 1415 1712 3446 
1424 1423 1716 3448 1420 1419 1714 3447 
1428 1427 1718 3449 1424 1423 1716 3448 
1432 1431 1720 3450 1428 1427 1718 3449 
1436 1435 1722 3451 1432 1431 1720 3450 
1440 1439 1724 3452 1436 1435 1722 3451 
1444 1443 1726 3453 1440 1439 1724 3452 
1448 1447 1728 3454 1444 1443 1726 3453 
1452 1451 1730 3455 1448 1447 1728 3454 
1456 1455 1732 3456 1452 1451 1730 3455 
1460 1459 1734 3457 1456 1455 1732 3456 
86 85 233 1062 1460 1459 1734 3457 
3500 3501 1695 1613 3502 3503 1697 1617 
3504 3505 1699 1621 3500 3501 1695 1613 
3506 3507 1701 1625 3504 3505 1699 1621 
3508 3509 1703 1629 3506 3507 1701 1625 
3510 3511 1705 1633 3508 3509 1703 1629 
3512 3513 1707 1637 3510 3511 1705 1633 
3514 3515 1709 1641 3512 3513 1707 1637 
3516 3517 1711 1645 3514 3515 1709 1641 
3518 3519 1713 1649 3516 3517 1711 1645 
3520 3521 1715 1653 3518 3519 1713 1649 
3522 3523 1717 1657 3520 3521 1715 1653 
3524 3525 1719 1661 3522 3523 1717 1657 
3526 3527 1721 1665 3524 3525 1719 1661 
3528 3529 1723 1669 3526 3527 1721 1665 
3530 3531 1725 1673 3528 3529 1723 1669 
3532 3533 1727 1677 3530 3531 1725 1673 
3534 3535 1729 1681 3532 3533 1727 1677 
3536 3537 1731 1685 3534 3535 1729 1681 
3538 3539 1733 1689 3536 3537 1731 1685 
3540 3541 1735 1693 3538 3539 1733 1689 
1093 1094 234 198 3540 3541 1735 1693 
2156 2219 2222 2157 2159 2223 2226 2160 
2162 2227 2230 2163 2156 2219 2222 2157 
2165 2231 2234 2166 2162 2227 2230 2163 
2168 2235 2238 2169 2165 2231 2234 2166 
2171 2239 2242 2172 2168 2235 2238 2169 
2174 2243 2246 2175 2171 2239 2242 2172 
2177 2247 2250 2178 2174 2243 2246 2175 
2180 2251 2254 2181 2177 2247 2250 2178 
2183 2255 2258 2184 2180 2251 2254 2181 
2186 2259 2262 2187 2183 2255 2258 2184 
2189 2263 2266 2190 2186 2259 2262 2187 
2192 2267 2270 2193 2189 2263 2266 2190 
2195 2271 2274 2196 2192 2267 2270 2193 
2198 2275 2278 2199 2195 2271 2274 2196 
2201 2279 2282 2202 2198 2275 2278 2199 
2204 2283 2286 2205 2201 2279 2282 2202 
2207 2287 2290 2208 2204 2283 2286 2205 
2210 2291 2294 2211 2207 2287 2290 2208 
2213 2295 2298 2214 2210 2291 2294 2211 
2216 2299 2302 2217 2213 2295 2298 2214 
454 485 488 455 2216 2299 2302 2217 
3501 3101 3102 1695 3503 3103 3104 1697 
3505 3105 3106 1699 3501 3101 3102 1695 
3507 3107 3108 1701 3505 3105 3106 1699 
3509 3109 3110 1703 3507 3107 3108 1701 
3511 3111 3112 1705 3509 3109 3110 1703 
3513 3113 3114 1707 3511 3111 3112 1705 
3515 3115 3116 1709 3513 3113 3114 1707 
3517 3117 3118 1711 3515 3115 3116 1709 
3519 3119 3120 1713 3517 3117 3118 1711 
3521 3121 3122 1715 3519 3119 3120 1713 
3523 3123 3124 1717 3521 3121 3122 1715 
3525 3125 3126 1719 3523 3123 3124 1717 
3527 3127 3128 1721 3525 3125 3126 1719 
3529 3129 3130 1723 3527 3127 3128 1721 
3531 3131 3132 1725 3529 3129 3130 1723 
3533 3133 3134 1727 3531 3131 3132 1725 
3535 3135 3136 1729 3533 3133 3134 1727 
3537 3137 3138 1731 3535 3135 3136 1729 
3539 3139 3140 1733 3537 3137 3138 1731 
3541 3141 3142 1735 3539 3139 3140 1733 
1094 903 904 234 3541 3141 3142 1735 
2220 2912 2702 2221 2224 2915 2704 2225 
2228 2918 2706 2229 2220 2912 2702 2221 
2232 2921 2708 2233 2228 2918 2706 2229 
2236 2924 2710 2237 2232 2921 2708 2233 
2240 2927 2712 2241 2236 2924 2710 2237 
2244 2930 2714 2245 2240 2927 2712 2241 
2248 2933 2716 2249 2244 2930 2714 2245 
2252 2936 2718 2253 2248 2933 2716 2249 
2256 2939 2720 2257 2252 2936 2718 2253 
2260 2942 2722 2261 2256 2939 2720 2257 
2264 2945 2724 2265 2260 2942 2722 2261 
2268 2948 2726 2269 2264 2945 2724 2265 
2272 2951 2728 2273 2268 2948 2726 2269 
2276 2954 2730 2277 2272 2951 2728 2273 
2280 2957 2732 2281 2276 2954 2730 2277 
2284 2960 2734 2285 2280 2957 2732 2281 
2288 2963 2736 2289 2284 2960 2734 2285 
2292 2966 2738 2293 2288 2963 2736 2289 
2296 2969 2740 2297 2292 2966 2738 2293 
2300 2972 2742 2301 2296 2969 2740 2297 
486 814 713 487 2300 2972 2742 2301 
3542 2555 1863 1862 3543 2557 1867 1866 
3544 2559 1871 1870 3542 2555 1863 1862 
3545 2561 1875 1874 3544 2559 1871 1870 
3546 2563 1879 1878 3545 2561 1875 1874 
3547 2565 1883 1882 3546 2563 1879 1878 
3548 2567 1887 1886 3547 2565 1883 1882 
3549 2569 1891 1890 3548 2567 1887 1886 
3550 2571 1895 1894 3549 2569 1891 1890 
3551 2573 1899 1898 3550 2571 1895 1894 
3552 2575 1903 1902 3551 2573 1899 1898 
3553 2577 1907 1906 3552 2575 1903 1902 
3554 2579 1911 1910 3553 2577 1907 1906 
3555 2581 1915 1914 3554 2579 1911 1910 
3556 2583 1919 1918 3555 2581 1915 1914 
3557 2585 1923 1922 3556 2583 1919 1918 
3558 2587 1927 1926 3557 2585 1923 1922 
3559 2589 1931 1930 3558 2587 1927 1926 
3560 2591 1935 1934 3559 2589 1931 1930 
3561 2593 1939 1938 3560 2591 1935 1934 
3562 2595 1943 1942 3561 2593 1939 1938 
1112 643 316 315 3562 2595 1943 1942 
3563 3353 2555 3542 3564 3354 2557 3543 
3565 3355 2559 3544 3563 3353 2555 3542 
3566 3356 2561 3545 3565 3355 2559 3544 
3567 3357 2563 3546 3566 3356 2561 3545 
3568 3358 2565 3547 3567 3357 2563 3546 
3569 3359 2567 3548 3568 3358 2565 3547 
3570 3360 2569 3549 3569 3359 2567 3548 
3571 3361 2571 3550 3570 3360 2569 3549 
3572 3362 2573 3551 3571 3361 2571 3550 
3573 3363 2575 3552 3572 3362 2573 3551 
3574 3364 2577 3553 3573 3363 2575 3552 
3575 3365 2579 3554 3574 3364 2577 3553 
3576 3366 2581 3555 3575 3365 2579 3554 
3577 3367 2583 3556 3576 3366 2581 3555 
3578 3368 2585 3557 3577 3367 2583 3556 
3579 3369 2587 3558 3578 3368 2585 3557 
3580 3370 2589 3559 3579 3369 2587 3558 
3581 3371 2591 3560 3580 3370 2589 3559 
3582 3372 2593 3561 3581 3371 2591 3560 
3583 3373 2595 3562 3582 3372 2593 3561 
1122 1022 643 1112 3583 3373 2595 3562 
2871 2870 3249 3374 2873 2872 3251 3375 
2875 2874 3253 3376 2871 2870 3249 3374 
2877 2876 3255 3377 2875 2874 3253 3376 
2879 2878 3257 3378 2877 2876 3255 3377 
2881 2880 3259 3379 2879 2878 3257 3378 
2883 2882 3261 3380 2881 2880 3259 3379 
2885 2884 3263 3381 2883 2882 3261 3380 
2887 2886 3265 3382 2885 2884 3263 3381 
2889 2888 3267 3383 2887 2886 3265 3382 
2891 2890 3269 3384 2889 2888 3267 3383 
2893 2892 3271 3385 2891 2890 3269 3384 
2895 2894 3273 3386 2893 2892 3271 3385 
2897 2896 3275 3387 2895 2894 3273 3386 
2899 2898 3277 3388 2897 2896 3275 3387 
2901 2900 3279 3389 2899 2898 3277 3388 
2903 2902 3281 3390 2901 2900 3279 3389 
2905 2904 3283 3391 2903 2902 3281 3390 
2907 2906 3285 3392 2905 2904 3283 3391 
2909 2908 3287 3393 2907 2906 3285 3392 
2911 2910 3289 3394 2909 2908 3287 3393 
794 793 974 1032 2911 2910 3289 3394 
3332 3584 1991 1990 3333 3585 1995 1994 
3334 3586 1999 1998 3332 3584 1991 1990 
3335 3587 2003 2002 3334 3586 1999 1998 
3336 3588 2007 2006 3335 3587 2003 2002 
3337 3589 2011 2010 3336 3588 2007 2006 
3338 3590 2015 2014 3337 3589 2011 2010 
3339 3591 2019 2018 3338 3590 2015 2014 
3340 3592 2023 2022 3339 3591 2019 2018 
3341 3593 2027 2026 3340 3592 2023 2022 
3342 3594 2031 2030 3341 3593 2027 2026 
3343 3595 2035 2034 3342 3594 2031 2030 
3344 3596 2039 2038 3343 3595 2035 2034 
3345 3597 2043 2042 3344 3596 2039 2038 
3346 3598 2047 2046 3345 3597 2043 2042 
3347 3599 2051 2050 3346 3598 2047 2046 
3348 3600 2055 2054 3347 3599 2051 2050 
3349 3601 2059 2058 3348 3600 2055 2054 
3350 3602 2063 2062 3349 3601 2059 2058 
3351 3603 2067 2066 3350 3602 2063 2062 
3352 3604 2071 2070 3351 3603 2067 2066 
1012 1132 378 377 3352 3604 2071 2070 
2913 2492 2450 2914 2916 2495 2452 2917 
2919 2498 2454 2920 2913 2492 2450 2914 
2922 2501 2456 2923 2919 2498 2454 2920 
2925 2504 2458 2926 2922 2501 2456 2923 
2928 2507 2460 2929 2925 2504 2458 2926 
2931 2510 2462 2932 2928 2507 2460 2929 
2934 2513 2464 2935 2931 2510 2462 2932 
2937 2516 2466 2938 2934 2513 2464 2935 
2940 2519 2468 2941 2937 2516 2466 2938 
2943 2522 2470 2944 2940 2519 2468 2941 
2946 2525 2472 2947 2943 2522 2470 2944 
2949 2528 2474 2950 2946 2525 2472 2947 
2952 2531 2476 2953 2949 2528 2474 2950 
2955 2534 2478 2956 2952 2531 2476 2953 
2958 2537 2480 2959 2955 2534 2478 2956 
2961 2540 2482 2962 2958 2537 2480 2959 
2964 2543 2484 2965 2961 2540 2482 2962 
2967 2546 2486 2968 2964 2543 2484 2965 
2970 2549 2488 2971 2967 2546 2486 2968 
2973 2552 2490 2974 2970 2549 2488 2971 
815 614 593 816 2973 2552 2490 2974 
3605 2494 3606 3607 3608 2497 3609 3610 
3611 2500 3612 3613 3605 2494 3606 3607 
3614 2503 3615 3616 3611 2500 3612 3613 
3617 2506 3618 3619 3614 2503 3615 3616 
3620 2509 3621 3622 3617 2506 3618 3619 
3623 2512 3624 3625 3620 2509 3621 3622 
3626 2515 3627 3628 3623 2512 3624 3625 
3629 2518 3630 3631 3626 2515 3627 3628 
3632 2521 3633 3634 3629 2518 3630 3631 
3635 2524 3636 3637 3632 2521 3633 3634 
3638 2527 3639 3640 3635 2524 3636 3637 
3641 2530 3642 3643 3638 2527 3639 3640 
3644 2533 3645 3646 3641 2530 3642 3643 
3647 2536 3648 3649 3644 2533 3645 3646 
3650 2539 3651 3652 3647 2536 3648 3649 
3653 2542 3654 3655 3650 2539 3651 3652 
3656 2545 3657 3658 3653 2542 3654 3655 
3659 2548 3660 3661 3656 2545 3657 3658 
3662 2551 3663 3664 3659 2548 3660 3661 
3665 2554 3666 3667 3662 2551 3663 3664 
1144 616 1145 1146 3665 2554 3666 3667 
3668 3500 1613 1612 3669 3502 1617 1616 
3670 3504 1621 1620 3668 3500 1613 1612 
3671 3506 1625 1624 3670 3504 1621 1620 
3672 3508 1629 1628 3671 3506 1625 1624 
3673 3510 1633 1632 3672 3508 1629 1628 
3674 3512 1637 1636 3673 3510 1633 1632 
3675 3514 1641 1640 3674 3512 1637 1636 
3676 3516 1645 1644 3675 3514 1641 1640 
3677 3518 1649 1648 3676 3516 1645 1644 
3678 3520 1653 1652 3677 3518 1649 1648 
3679 3522 1657 1656 3678 3520 1653 1652 
3680 3524 1661 1660 3679 3522 1657 1656 
3681 3526 1665 1664 3680 3524 1661 1660 
3682 3528 1669 1668 3681 3526 1665 1664 
3683 3530 1673 1672 3682 3528 1669 1668 
3684 3532 1677 1676 3683 3530 1673 1672 
3685 3534 1681 1680 3684 3532 1677 1676 
3686 3536 1685 1684 3685 3534 1681 1680 
3687 3538 1689 1688 3686 3536 1685 1684 
3688 3540 1693 1692 3687 3538 1689 1688 
1172 1093 198 197 3688 3540 1693 1692 
2598 2975 2368 2599 2602 2977 2372 2603 
2606 2979 2376 2607 2598 2975 2368 2599 
2610 2981 2380 2611 2606 2979 2376 2607 
2614 2983 2384 2615 2610 2981 2380 2611 
2618 2985 2388 2619 2614 2983 2384 2615 
2622 2987 2392 2623 2618 2985 2388 2619 
2626 2989 2396 2627 2622 2987 2392 2623 
2630 2991 2400 2631 2626 2989 2396 2627 
2634 2993 2404 2635 2630 2991 2400 2631 
2638 2995 2408 2639 2634 2993 2404 2635 
2642 2997 2412 2643 2638 2995 2408 2639 
2646 2999 2416 2647 2642 2997 2412 2643 
2650 3001 2420 2651 2646 2999 2416 2647 
2654 3003 2424 2655 2650 3001 2420 2651 
2658 3005 2428 2659 2654 3003 2424 2655 
2662 3007 2432 2663 2658 3005 2428 2659 
2666 3009 2436 2667 2662 3007 2432 2663 
2670 3011 2440 2671 2666 3009 2436 2667 
2674 3013 2444 2675 2670 3011 2440 2671 
2678 3015 2448 2679 2674 3013 2444 2675 
666 843 557 667 2678 3015 2448 2679 
3039 1380 3437 2976 3041 1384 3438 2978 
3043 1388 3439 2980 3039 1380 3437 2976 
3045 1392 3440 2982 3043 1388 3439 2980 
3047 1396 3441 2984 3045 1392 3440 2982 
3049 1400 3442 2986 3047 1396 3441 2984 
3051 1404 3443 2988 3049 1400 3442 2986 
3053 1408 3444 2990 3051 1404 3443 2988 
3055 1412 3445 2992 3053 1408 3444 2990 
3057 1416 3446 2994 3055 1412 3445 2992 
3059 1420 3447 2996 3057 1416 3446 2994 
3061 1424 3448 2998 3059 1420 3447 2996 
3063 1428 3449 3000 3061 1424 3448 2998 
3065 1432 3450 3002 3063 1428 3449 3000 
3067 1436 3451 3004 3065 1432 3450 3002 
3069 1440 3452 3006 3067 1436 3451 3004 
3071 1444 3453 3008 3069 1440 3452 3006 
3073 1448 3454 3010 3071 1444 3453 3008 
3075 1452 3455 3012 3073 1448 3454 3010 
3077 1456 3456 3014 3075 1452 3455 3012 
3079 1460 3457 3016 3077 1456 3456 3014 
874 86 1062 844 3079 1460 3457 3016 
3311 2744 2600 2599 3312 2747 2604 2603 
3313 2750 2608 2607 3311 2744 2600 2599 
3314 2753 2612 2611 3313 2750 2608 2607 
3315 2756 2616 2615 3314 2753 2612 2611 
3316 2759 2620 2619 3315 2756 2616 2615 
3317 2762 2624 2623 3316 2759 2620 2619 
3318 2765 2628 2627 3317 2762 2624 2623 
3319 2768 2632 2631 3318 2765 2628 2627 
3320 2771 2636 2635 3319 2768 2632 2631 
3321 2774 2640 2639 3320 2771 2636 2635 
3322 2777 2644 2643 3321 2774 2640 2639 
3323 2780 2648 2647 3322 2777 2644 2643 
3324 2783 2652 2651 3323 2780 2648 2647 
3325 2786 2656 2655 3324 2783 2652 2651 
3326 2789 2660 2659 3325 2786 2656 2655 
3327 2792 2664 2663 3326 2789 2660 2659 
3328 2795 2668 2667 3327 2792 2664 2663 
3329 2798 2672 2671 3328 2795 2668 2667 
3330 2801 2676 2675 3329 2798 2672 2671 
3331 2804 2680 2679 3330 2801 2676 2675 
1002 734 668 667 3331 2804 2680 2679 
3038 1778 1781 3416 3040 1782 1785 3417 
3042 1786 1789 3418 3038 1778 1781 3416 
3044 1790 1793 3419 3042 1786 1789 3418 
3046 1794 1797 3420 3044 1790 1793 3419 
3048 1798 1801 3421 3046 1794 1797 3420 
3050 1802 1805 3422 3048 1798 1801 3421 
3052 1806 1809 3423 3050 1802 1805 3422 
3054 1810 1813 3424 3052 1806 1809 3423 
3056 1814 1817 3425 3054 1810 1813 3424 
3058 1818 1821 3426 3056 1814 1817 3425 
3060 1822 1825 3427 3058 1818 1821 3426 
3062 1826 1829 3428 3060 1822 1825 3427 
3064 1830 1833 3429 3062 1826 1829 3428 
3066 1834 1837 3430 3064 1830 1833 3429 
3068 1838 1841 3431 3066 1834 1837 3430 
3070 1842 1845 3432 3068 1838 1841 3431 
3072 1846 1849 3433 3070 1842 1845 3432 
3074 1850 1853 3434 3072 1846 1849 3433 
3076 1854 1857 3435 3074 1850 1853 3434 
3078 1858 1861 3436 3076 1854 1857 3435 
873 275 278 1052 3078 1858 1861 3436 
2073 3290 3689 2074 2077 3291 3690 2078 
2081 3292 3691 2082 2073 3290 3689 2074 
2085 3293 3692 2086 2081 3292 3691 2082 
2089 3294 3693 2090 2085 3293 3692 2086 
2093 3295 3694 2094 2089 3294 3693 2090 
2097 3296 3695 2098 2093 3295 3694 2094 
2101 3297 3696 2102 2097 3296 3695 2098 
2105 3298 3697 2106 2101 3297 3696 2102 
2109 3299 3698 2110 2105 3298 3697 2106 
2113 3300 3699 2114 2109 3299 3698 2110 
2117 3301 3700 2118 2113 3300 3699 2114 
2121 3302 3701 2122 2117 3301 3700 2118 
2125 3303 3702 2126 2121 3302 3701 2122 
2129 3304 3703 2130 2125 3303 3702 2126 
2133 3305 3704 2134 2129 3304 3703 2130 
2137 3306 3705 2138 2133 3305 3704 2134 
2141 3307 3706 2142 2137 3306 3705 2138 
2145 3308 3707 2146 2141 3307 3706 2142 
2149 3309 3708 2150 2145 3308 3707 2146 
2153 3310 3709 2154 2149 3309 3708 2150 
416 992 1182 417 2153 3310 3709 2154 
2492 1526 1529 2450 2495 1530 1533 2452 
2498 1534 1537 2454 2492 1526 1529 2450 
2501 1538 1541 2456 2498 1534 1537 2454 
2504 1542 1545 2458 2501 1538 1541 2456 
2507 1546 1549 2460 2504 1542 1545 2458 
2510 1550 1553 2462 2507 1546 1549 2460 
2513 1554 1557 2464 2510 1550 1553 2462 
2516 1558 1561 2466 2513 1554 1557 2464 
2519 1562 1565 2468 2516 1558 1561 2466 
2522 1566 1569 2470 2519 1562 1565 2468 
2525 1570 1573 2472 2522 1566 1569 2470 
2528 1574 1577 2474 2525 1570 1573 2472 
2531 1578 1581 2476 2528 1574 1577 2474 
2534 1582 1585 2478 2531 1578 1581 2476 
2537 1586 1589 2480 2534 1582 1585 2478 
2540 1590 1593 2482 2537 1586 1589 2480 
2543 1594 1597 2484 2540 1590 1593 2482 
2546 1598 1601 2486 2543 1594 1597 2484 
2549 1602 1605 2488 2546 1598 1601 2486 
2552 1606 1609 2490 2549 1602 1605 2488 
614 155 158 593 2552 1606 1609 2490 
3416 1781 1947 2303 3417 1785 1949 2306 
3418 1789 1951 2309 3416 1781 1947 2303 
3419 1793 1953 2312 3418 1789 1951 2309 
3420 1797 1955 2315 3419 1793 1953 2312 
3421 1801 1957 2318 3420 1797 1955 2315 
3422 1805 1959 2321 3421 1801 1957 2318 
3423 1809 1961 2324 3422 1805 1959 2321 
3424 1813 1963 2327 3423 1809 1961 2324 
3425 1817 1965 2330 3424 1813 1963 2327 
3426 1821 1967 2333 3425 1817 1965 2330 
3427 1825 1969 2336 3426 1821 1967 2333 
3428 1829 1971 2339 3427 1825 1969 2336 
3429 1833 1973 2342 3428 1829 1971 2339 
3430 1837 1975 2345 3429 1833 1973 2342 
3431 1841 1977 2348 3430 1837 1975 2345 
3432 1845 1979 2351 3431 1841 1977 2348 
3433 1849 1981 2354 3432 1845 1979 2351 
3434 1853 1983 2357 3433 1849 1981 2354 
3435 1857 1985 2360 3434 1853 1983 2357 
3436 1861 1987 2363 3435 1857 1985 2360 
1052 278 354 524 3436 1861 1987 2363 
1779 3143 1736 1780 1783 3145 1738 1784 
1787 3147 1740 1788 1779 3143 1736 1780 
1791 3149 1742 1792 1787 3147 1740 1788 
1795 3151 1744 1796 1791 3149 1742 1792 
1799 3153 1746 1800 1795 3151 1744 1796 
1803 3155 1748 1804 1799 3153 1746 1800 
1807 3157 1750 1808 1803 3155 1748 1804 
1811 3159 1752 1812 1807 3157 1750 1808 
1815 3161 1754 1816 1811 3159 1752 1812 
1819 3163 1756 1820 1815 3161 1754 1816 
1823 3165 1758 1824 1819 3163 1756 1820 
1827 3167 1760 1828 1823 3165 1758 1824 
1831 3169 1762 1832 1827 3167 1760 1828 
1835 3171 1764 1836 1831 3169 1762 1832 
1839 3173 1766 1840 1835 3171 1764 1836 
1843 3175 1768 1844 1839 3173 1766 1840 
1847 3177 1770 1848 1843 3175 1768 1844 
1851 3179 1772 1852 1847 3177 1770 1848 
1855 3181 1774 1856 1851 3179 1772 1852 
1859 3183 1776 1860 1855 3181 1774 1856 
276 923 253 277 1859 3183 1776 1860 
2222 2221 2305 2304 2226 2225 2308 2307 
2230 2229 2311 2310 2222 2221 2305 2304 
2234 2233 2314 2313 2230 2229 2311 2310 
2238 2237 2317 2316 2234 2233 2314 2313 
2242 2241 2320 2319 2238 2237 2317 2316 
2246 2245 2323 2322 2242 2241 2320 2319 
2250 2249 2326 2325 2246 2245 2323 2322 
2254 2253 2329 2328 2250 2249 2326 2325 
2258 2257 2332 2331 2254 2253 2329 2328 
2262 2261 2335 2334 2258 2257 2332 2331 
2266 2265 2338 2337 2262 2261 2335 2334 
2270 2269 2341 2340 2266 2265 2338 2337 
2274 2273 2344 2343 2270 2269 2341 2340 
2278 2277 2347 2346 2274 2273 2344 2343 
2282 2281 2350 2349 2278 2277 2347 2346 
2286 2285 2353 2352 2282 2281 2350 2349 
2290 2289 2356 2355 2286 2285 2353 2352 
2294 2293 2359 2358 2290 2289 2356 2355 
2298 2297 2362 2361 2294 2293 2359 2358 
2302 2301 2365 2364 2298 2297 2362 2361 
488 487 526 525 2302 2301 2365 2364 
3144 2597 2600 2746 3146 2601 2604 2749 
3148 2605 2608 2752 3144 2597 2600 2746 
3150 2609 2612 2755 3148 2605 2608 2752 
3152 2613 2616 2758 3150 2609 2612 2755 
3154 2617 2620 2761 3152 2613 2616 2758 
3156 2621 2624 2764 3154 2617 2620 2761 
3158 2625 2628 2767 3156 2621 2624 2764 
3160 2629 2632 2770 3158 2625 2628 2767 
3162 2633 2636 2773 3160 2629 2632 2770 
3164 2637 2640 2776 3162 2633 2636 2773 
3166 2641 2644 2779 3164 2637 2640 2776 
3168 2645 2648 2782 3166 2641 2644 2779 
3170 2649 2652 2785 3168 2645 2648 2782 
3172 2653 2656 2788 3170 2649 2652 2785 
3174 2657 2660 2791 3172 2653 2656 2788 
3176 2661 2664 2794 3174 2657 2660 2791 
3178 2665 2668 2797 3176 2661 2664 2794 
3180 2669 2672 2800 3178 2665 2668 2797 
3182 2673 2676 2803 3180 2669 2672 2800 
3184 2677 2680 2806 3182 2673 2676 2803 
924 665 668 736 3184 2677 2680 2806 
1863 2556 2451 1864 1867 2558 2453 1868 
1871 2560 2455 1872 1863 2556 2451 1864 
1875 2562 2457 1876 1871 2560 2455 1872 
1879 2564 2459 1880 1875 2562 2457 1876 
1883 2566 2461 1884 1879 2564 2459 1880 
1887 2568 2463 1888 1883 2566 2461 1884 
1891 2570 2465 1892 1887 2568 2463 1888 
1895 2572 2467 1896 1891 2570 2465 1892 
1899 2574 2469 1900 1895 2572 2467 1896 
1903 2576 2471 1904 1899 2574 2469 1900 
1907 2578 2473 1908 1903 2576 2471 1904 
1911 2580 2475 1912 1907 2578 2473 1908 
1915 2582 2477 1916 1911 2580 2475 1912 
1919 2584 2479 1920 1915 2582 2477 1916 
1923 2586 2481 1924 1919 2584 2479 1920 
1927 2588 2483 1928 1923 2586 2481 1924 
1931 2590 2485 1932 1927 2588 2483 1928 
1935 2592 2487 1936 1931 2590 2485 1932 
1939 2594 2489 1940 1935 2592 2487 1936 
1943 2596 2491 1944 1939 2594 2489 1940 
316 644 594 317 1943 2596 2491 1944 
1464 3710 1212 1211 1467 3711 1216 1215 
1470 3712 1220 1219 1464 3710 1212 1211 
1473 3713 1224 1223 1470 3712 1220 1219 
1476 3714 1228 1227 1473 3713 1224 1223 
1479 3715 1232 1231 1476 3714 1228 1227 
1482 3716 1236 1235 1479 3715 1232 1231 
1485 3717 1240 1239 1482 3716 1236 1235 
1488 3718 1244 1243 1485 3717 1240 1239 
1491 3719 1248 1247 1488 3718 1244 1243 
1494 3720 1252 1251 1491 3719 1248 1247 
1497 3721 1256 1255 1494 3720 1252 1251 
1500 3722 1260 1259 1497 3721 1256 1255 
1503 3723 1264 1263 1500 3722 1260 1259 
1506 3724 1268 1267 1503 3723 1264 1263 
1509 3725 1272 1271 1506 3724 1268 1267 
1512 3726 1276 1275 1509 3725 1272 1271 
1515 3727 1280 1279 1512 3726 1276 1275 
1518 3728 1284 1283 1515 3727 1280 1279 
1521 3729 1288 1287 1518 3728 1284 1283 
1524 3730 1292 1291 1521 3729 1288 1287 
125 1192 6 5 1524 3730 1292 1291 
3353 3563 1611 1610 3354 3564 1615 1614 
3355 3565 1619 1618 3353 3563 1611 1610 
3356 3566 1623 1622 3355 3565 1619 1618 
3357 3567 1627 1626 3356 3566 1623 1622 
3358 3568 1631 1630 3357 3567 1627 1626 
3359 3569 1635 1634 3358 3568 1631 1630 
3360 3570 1639 1638 3359 3569 1635 1634 
3361 3571 1643 1642 3360 3570 1639 1638 
3362 3572 1647 1646 3361 3571 1643 1642 
3363 3573 1651 1650 3362 3572 1647 1646 
3364 3574 1655 1654 3363 3573 1651 1650 
3365 3575 1659 1658 3364 3574 1655 1654 
3366 3576 1663 1662 3365 3575 1659 1658 
3367 3577 1667 1666 3366 3576 1663 1662 
3368 3578 1671 1670 3367 3577 1667 1666 
3369 3579 1675 1674 3368 3578 1671 1670 
3370 3580 1679 1678 3369 3579 1675 1674 
3371 3581 1683 1682 3370 3580 1679 1678 
3372 3582 1687 1686 3371 3581 1683 1682 
3373 3583 1691 1690 3372 3582 1687 1686 
1022 1122 196 195 3373 3583 1691 1690 
1465 1211 1214 2158 1468 1215 1218 2161 
1471 1219 1222 2164 1465 1211 1214 2158 
1474 1223 1226 2167 1471 1219 1222 2164 
1477 1227 1230 2170 1474 1223 1226 2167 
1480 1231 1234 2173 1477 1227 1230 2170 
1483 1235 1238 2176 1480 1231 1234 2173 
1486 1239 1242 2179 1483 1235 1238 2176 
1489 1243 1246 2182 1486 1239 1242 2179 
1492 1247 1250 2185 1489 1243 1246 2182 
1495 1251 1254 2188 1492 1247 1250 2185 
1498 1255 1258 2191 1495 1251 1254 2188 
1501 1259 1262 2194 1498 1255 1258 2191 
1504 1263 1266 2197 1501 1259 1262 2194 
1507 1267 1270 2200 1504 1263 1266 2197 
1510 1271 1274 2203 1507 1267 1270 2200 
1513 1275 1278 2206 1510 1271 1274 2203 
1516 1279 1282 2209 1513 1275 1278 2206 
1519 1283 1286 2212 1516 1279 1282 2209 
1522 1287 1290 2215 1519 1283 1286 2212 
1525 1291 1294 2218 1522 1287 1290 2215 
126 5 8 456 1525 1291 1294 2218 
2074 3689 3731 3395 2078 3690 3732 3396 
2082 3691 3733 3397 2074 3689 3731 3395 
2086 3692 3734 3398 2082 3691 3733 3397 
2090 3693 3735 3399 2086 3692 3734 3398 
2094 3694 3736 3400 2090 3693 3735 3399 
2098 3695 3737 3401 2094 3694 3736 3400 
2102 3696 3738 3402 2098 3695 3737 3401 
2106 3697 3739 3403 2102 3696 3738 3402 
2110 3698 3740 3404 2106 3697 3739 3403 
2114 3699 3741 3405 2110 3698 3740 3404 
2118 3700 3742 3406 2114 3699 3741 3405 
2122 3701 3743 3407 2118 3700 3742 3406 
2126 3702 3744 3408 2122 3701 3743 3407 
2130 3703 3745 3409 2126 3702 3744 3408 
2134 3704 3746 3410 2130 3703 3745 3409 
2138 3705 3747 3411 2134 3704 3746 3410 
2142 3706 3748 3412 2138 3705 3747 3411 
2146 3707 3749 3413 2142 3706 3748 3412 
2150 3708 3750 3414 2146 3707 3749 3413 
2154 3709 3751 3415 2150 3708 3750 3414 
417 1182 1202 1042 2154 3709 3751 3415 
1527 1526 2494 3605 1531 1530 2497 3608 
1535 1534 2500 3611 1527 1526 2494 3605 
1539 1538 2503 3614 1535 1534 2500 3611 
1543 1542 2506 3617 1539 1538 2503 3614 
1547 1546 2509 3620 1543 1542 2506 3617 
1551 1550 2512 3623 1547 1546 2509 3620 
1555 1554 2515 3626 1551 1550 2512 3623 
1559 1558 2518 3629 1555 1554 2515 3626 
1563 1562 2521 3632 1559 1558 2518 3629 
1567 1566 2524 3635 1563 1562 2521 3632 
1571 1570 2527 3638 1567 1566 2524 3635 
1575 1574 2530 3641 1571 1570 2527 3638 
1579 1578 2533 3644 1575 1574 2530 3641 
1583 1582 2536 3647 1579 1578 2533 3644 
1587 1586 2539 3650 1583 1582 2536 3647 
1591 1590 2542 3653 1587 1586 2539 3650 
1595 1594 2545 3656 1591 1590 2542 3653 
1599 1598 2548 3659 1595 1594 2545 3656 
1603 1602 2551 3662 1599 1598 2548 3659 
1607 1606 2554 3665 1603 1602 2551 3662 
156 155 616 1144 1607 1606 2554 3665 
1989 3144 2746 1990 1993 3146 2749 1994 
1997 3148 2752 1998 1989 3144 2746 1990 
2001 3150 2755 2002 1997 3148 2752 1998 
2005 3152 2758 2006 2001 3150 2755 2002 
2009 3154 2761 2010 2005 3152 2758 2006 
2013 3156 2764 2014 2009 3154 2761 2010 
2017 3158 2767 2018 2013 3156 2764 2014 
2021 3160 2770 2022 2017 3158 2767 2018 
2025 3162 2773 2026 2021 3160 2770 2022 
2029 3164 2776 2030 2025 3162 2773 2026 
2033 3166 2779 2034 2029 3164 2776 2030 
2037 3168 2782 2038 2033 3166 2779 2034 
2041 3170 2785 2042 2037 3168 2782 2038 
2045 3172 2788 2046 2041 3170 2785 2042 
2049 3174 2791 2050 2045 3172 2788 2046 
2053 3176 2794 2054 2049 3174 2791 2050 
2057 3178 2797 2058 2053 3176 2794 2054 
2061 3180 2800 2062 2057 3178 2797 2058 
2065 3182 2803 2066 2061 3180 2800 2062 
2069 3184 2806 2070 2065 3182 2803 2066 
376 924 736 377 2069 3184 2806 2070 
1779 1778 2598 2597 1783 1782 2602 2601 
1787 1786 2606 2605 1779 1778 2598 2597 
1791 1790 2610 2609 1787 1786 2606 2605 
1795 1794 2614 2613 1791 1790 2610 2609 
1799 1798 2618 2617 1795 1794 2614 2613 
1803 1802 2622 2621 1799 1798 2618 2617 
1807 1806 2626 2625 1803 1802 2622 2621 
1811 1810 2630 2629 1807 1806 2626 2625 
1815 1814 2634 2633 1811 1810 2630 2629 
1819 1818 2638 2637 1815 1814 2634 2633 
1823 1822 2642 2641 1819 1818 2638 2637 
1827 1826 2646 2645 1823 1822 2642 2641 
1831 1830 2650 2649 1827 1826 2646 2645 
1835 1834 2654 2653 1831 1830 2650 2649 
1839 1838 2658 2657 1835 1834 2654 2653 
1843 1842 2662 2661 1839 1838 2658 2657 
1847 1846 2666 2665 1843 1842 2662 2661 
1851 1850 2670 2669 1847 1846 2666 2665 
1855 1854 2674 2673 1851 1850 2670 2669 
1859 1858 2678 2677 1855 1854 2674 2673 
276 275 666 665 1859 1858 2678 2677 
2976 3437 3102 2369 2978 3438 3104 2373 
2980 3439 3106 2377 2976 3437 3102 2369 
2982 3440 3108 2381 2980 3439 3106 2377 
2984 3441 3110 2385 2982 3440 3108 2381 
2986 3442 3112 2389 2984 3441 3110 2385 
2988 3443 3114 2393 2986 3442 3112 2389 
2990 3444 3116 2397 2988 3443 3114 2393 
2992 3445 3118 2401 2990 3444 3116 2397 
2994 3446 3120 2405 2992 3445 3118 2401 
2996 3447 3122 2409 2994 3446 3120 2405 
2998 3448 3124 2413 2996 3447 3122 2409 
3000 3449 3126 2417 2998 3448 3124 2413 
3002 3450 3128 2421 3000 3449 3126 2417 
3004 3451 3130 2425 3002 3450 3128 2421 
3006 3452 3132 2429 3004 3451 3130 2425 
3008 3453 3134 2433 3006 3452 3132 2429 
3010 3454 3136 2437 3008 3453 3134 2433 
3012 3455 3138 2441 3010 3454 3136 2437 
3014 3456 3140 2445 3012 3455 3138 2441 
3016 3457 3142 2449 3014 3456 3140 2445 
844 1062 904 558 3016 3457 3142 2449 
3353 1379 1382 2555 3354 1383 1386 2557 
3355 1387 1390 2559 3353 1379 1382 2555 
3356 1391 1394 2561 3355 1387 1390 2559 
3357 1395 1398 2563 3356 1391 1394 2561 
3358 1399 1402 2565 3357 1395 1398 2563 
3359 1403 1406 2567 3358 1399 1402 2565 
3360 1407 1410 2569 3359 1403 1406 2567 
3361 1411 1414 2571 3360 1407 1410 2569 
3362 1415 1418 2573 3361 1411 1414 2571 
3363 1419 1422 2575 3362 1415 1418 2573 
3364 1423 1426 2577 3363 1419 1422 2575 
3365 1427 1430 2579 3364 1423 1426 2577 
3366 1431 1434 2581 3365 1427 1430 2579 
3367 1435 1438 2583 3366 1431 1434 2581 
3368 1439 1442 2585 3367 1435 1438 2583 
3369 1443 1446 2587 3368 1439 1442 2585 
3370 1447 1450 2589 3369 1443 1446 2587 
3371 1451 1454 2591 3370 1447 1450 2589 
3372 1455 1458 2593 3371 1451 1454 2591 
3373 1459 1462 2595 3372 1455 1458 2593 
1022 85 88 643 3373 1459 1462 2595 
1946 1463 1465 2681 1948 1466 1468 2682 
1950 1469 1471 2683 1946 1463 1465 2681 
1952 1472 1474 2684 1950 1469 1471 2683 
1954 1475 1477 2685 1952 1472 1474 2684 
1956 1478 1480 2686 1954 1475 1477 2685 
1958 1481 1483 2687 1956 1478 1480 2686 
1960 1484 1486 2688 1958 1481 1483 2687 
1962 1487 1489 2689 1960 1484 1486 2688 
1964 1490 1492 2690 1962 1487 1489 2689 
1966 1493 1495 2691 1964 1490 1492 2690 
1968 1496 1498 2692 1966 1493 1495 2691 
1970 1499 1501 2693 1968 1496 1498 2692 
1972 1502 1504 2694 1970 1499 1501 2693 
1974 1505 1507 2695 1972 1502 1504 2694 
1976 1508 1510 2696 1974 1505 1507 2695 
1978 1511 1513 2697 1976 1508 1510 2696 
1980 1514 1516 2698 1978 1511 1513 2697 
1982 1517 1519 2699 1980 1514 1516 2698 
1984 1520 1522 2700 1982 1517 1519 2699 
1986 1523 1525 2701 1984 1520 1522 2700 
353 124 126 702 1986 1523 1525 2701 
2220 2219 2871 1296 2224 2223 2873 1300 
2228 2227 2875 1304 2220 2219 2871 1296 
2232 2231 2877 1308 2228 2227 2875 1304 
2236 2235 2879 1312 2232 2231 2877 1308 
2240 2239 2881 1316 2236 2235 2879 1312 
2244 2243 2883 1320 2240 2239 2881 1316 
2248 2247 2885 1324 2244 2243 2883 1320 
2252 2251 2887 1328 2248 2247 2885 1324 
2256 2255 2889 1332 2252 2251 2887 1328 
2260 2259 2891 1336 2256 2255 2889 1332 
2264 2263 2893 1340 2260 2259 2891 1336 
2268 2267 2895 1344 2264 2263 2893 1340 
2272 2271 2897 1348 2268 2267 2895 1344 
2276 2275 2899 1352 2272 2271 2897 1348 
2280 2279 2901 1356 2276 2275 2899 1352 
2284 2283 2903 1360 2280 2279 2901 1356 
2288 2287 2905 1364 2284 2283 2903 1360 
2292 2291 2907 1368 2288 2287 2905 1364 
2296 2295 2909 1372 2292 2291 2907 1368 
2300 2299 2911 1376 2296 2295 2909 1372 
486 485 794 46 2300 2299 2911 1376 
3143 3185 1737 1736 3145 3188 1739 1738 
3147 3191 1741 1740 3143 3185 1737 1736 
3149 3194 1743 1742 3147 3191 1741 1740 
3151 3197 1745 1744 3149 3194 1743 1742 
3153 3200 1747 1746 3151 3197 1745 1744 
3155 3203 1749 1748 3153 3200 1747 1746 
3157 3206 1751 1750 3155 3203 1749 1748 
3159 3209 1753 1752 3157 3206 1751 1750 
3161 3212 1755 1754 3159 3209 1753 1752 
3163 3215 1757 1756 3161 3212 1755 1754 
3165 3218 1759 1758 3163 3215 1757 1756 
3167 3221 1761 1760 3165 3218 1759 1758 
3169 3224 1763 1762 3167 3221 1761 1760 
3171 3227 1765 1764 3169 3224 1763 1762 
3173 3230 1767 1766 3171 3227 1765 1764 
3175 3233 1769 1768 3173 3230 1767 1766 
3177 3236 1771 1770 3175 3233 1769 1768 
3179 3239 1773 1772 3177 3236 1771 1770 
3181 3242 1775 1774 3179 3239 1773 1772 
3183 3245 1777 1776 3181 3242 1775 1774 
923 944 254 253 3183 3245 1777 1776 
2913 2912 1295 3080 2916 2915 1299 3081 
2919 2918 1303 3082 2913 2912 1295 3080 
2922 2921 1307 3083 2919 2918 1303 3082 
2925 2924 1311 3084 2922 2921 1307 3083 
2928 2927 1315 3085 2925 2924 1311 3084 
2931 2930 1319 3086 2928 2927 1315 3085 
2934 2933 1323 3087 2931 2930 1319 3086 
2937 2936 1327 3088 2934 2933 1323 3087 
2940 2939 1331 3089 2937 2936 1327 3088 
2943 2942 1335 3090 2940 2939 1331 3089 
2946 2945 1339 3091 2943 2942 1335 3090 
2949 2948 1343 3092 2946 2945 1339 3091 
2952 2951 1347 3093 2949 2948 1343 3092 
2955 2954 1351 3094 2952 2951 1347 3093 
2958 2957 1355 3095 2955 2954 1351 3094 
2961 2960 1359 3096 2958 2957 1355 3095 
2964 2963 1363 3097 2961 2960 1359 3096 
2967 2966 1367 3098 2964 2963 1363 3097 
2970 2969 1371 3099 2967 2966 1367 3098 
2973 2972 1375 3100 2970 2969 1371 3099 
815 814 45 892 2973 2972 1375 3100 
2494 2493 3479 3606 2497 2496 3480 3609 
2500 2499 3481 3612 2494 2493 3479 3606 
2503 2502 3482 3615 2500 2499 3481 3612 
2506 2505 3483 3618 2503 2502 3482 3615 
2509 2508 3484 3621 2506 2505 3483 3618 
2512 2511 3485 3624 2509 2508 3484 3621 
2515 2514 3486 3627 2512 2511 3485 3624 
2518 2517 3487 3630 2515 2514 3486 3627 
2521 2520 3488 3633 2518 2517 3487 3630 
2524 2523 3489 3636 2521 2520 3488 3633 
2527 2526 3490 3639 2524 2523 3489 3636 
2530 2529 3491 3642 2527 2526 3490 3639 
2533 2532 3492 3645 2530 2529 3491 3642 
2536 2535 3493 3648 2533 2532 3492 3645 
2539 2538 3494 3651 2536 2535 3493 3648 
2542 2541 3495 3654 2539 2538 3494 3651 
2545 2544 3496 3657 2542 2541 3495 3654 
2548 2547 3497 3660 2545 2544 3496 3657 
2551 2550 3498 3663 2548 2547 3497 3660 
2554 2553 3499 3666 2551 2550 3498 3663 
616 615 1082 1145 2554 2553 3499 3666 
2808 2303 2305 2703 2811 2306 2308 2705 
2814 2309 2311 2707 2808 2303 2305 2703 
2817 2312 2314 2709 2814 2309 2311 2707 
2820 2315 2317 2711 2817 2312 2314 2709 
2823 2318 2320 2713 2820 2315 2317 2711 
2826 2321 2323 2715 2823 2318 2320 2713 
2829 2324 2326 2717 2826 2321 2323 2715 
2832 2327 2329 2719 2829 2324 2326 2717 
2835 2330 2332 2721 2832 2327 2329 2719 
2838 2333 2335 2723 2835 2330 2332 2721 
2841 2336 2338 2725 2838 2333 2335 2723 
2844 2339 2341 2727 2841 2336 2338 2725 
2847 2342 2344 2729 2844 2339 2341 2727 
2850 2345 2347 2731 2847 2342 2344 2729 
2853 2348 2350 2733 2850 2345 2347 2731 
2856 2351 2353 2735 2853 2348 2350 2733 
2859 2354 2356 2737 2856 2351 2353 2735 
2862 2357 2359 2739 2859 2354 2356 2737 
2865 2360 2362 2741 2862 2357 2359 2739 
2868 2363 2365 2743 2865 2360 2362 2741 
765 524 526 714 2868 2363 2365 2743 
1737 3187 3710 1464 1739 3190 3711 1467 
1741 3193 3712 1470 1737 3187 3710 1464 
1743 3196 3713 1473 1741 3193 3712 1470 
1745 3199 3714 1476 1743 3196 3713 1473 
1747 3202 3715 1479 1745 3199 3714 1476 
1749 3205 3716 1482 1747 3202 3715 1479 
1751 3208 3717 1485 1749 3205 3716 1482 
1753 3211 3718 1488 1751 3208 3717 1485 
1755 3214 3719 1491 1753 3211 3718 1488 
1757 3217 3720 1494 1755 3214 3719 1491 
1759 3220 3721 1497 1757 3217 3720 1494 
1761 3223 3722 1500 1759 3220 3721 1497 
1763 3226 3723 1503 1761 3223 3722 1500 
1765 3229 3724 1506 1763 3226 3723 1503 
1767 3232 3725 1509 1765 3229 3724 1506 
1769 3235 3726 1512 1767 3232 3725 1509 
1771 3238 3727 1515 1769 3235 3726 1512 
1773 3241 3728 1518 1771 3238 3727 1515 
1775 3244 3729 1521 1773 3241 3728 1518 
1777 3247 3730 1524 1775 3244 3729 1521 
254 946 1192 125 1777 3247 3730 1524 
1432 3065 2846 1433 1428 3063 2843 1429 
