# For a description of the Tecplot format see the Tecplot User's guide.
#
Variables=x,y,z,stress_xx,stress_yy,stress_zz,stress_xy,stress_yz,stress_zx,disp_x,disp_y,disp_z
Zone f=fepoint, n=3751, e=3000, et=brick, t="T 1", c=black
6000.00 9000.00 -1333.33 -23258599.535183616 -307779.86240840046 -32685854.386736754 -1.0498049976446686e-05 -0.00075834668490975090 0.00010177777099039625 1.6000000000589962 -0.30000000000963428 -6.1258094013926572 
6000.0000000000000 10000.000000000000 -1333.3333333329999 -23258599.535249062 -307779.86250893981 -32685854.386955258 -6.1600471089069001e-06 -0.00041429008393446663 0.00010390764227916028 1.6000000000588062 0.0000000000000000 -6.1258094013775164 
7000.0000000000000 10000.000000000000 -1333.3333333329999 -23258599.535350036 -307779.86238259496 -32685854.386323847 -2.3164337668432139e-06 -0.00041165899131350445 0.0012037469733186426 1.2000000000443798 0.0000000000000000 -6.1258094017180209 
7000.0000000000000 9000.0000000000000 -1333.3333333329999 -23258599.535283670 -307779.86228503968 -32685854.386106316 -4.5014906406993823e-06 -0.00075562332818357501 0.0012032313107689827 1.2000000000444455 -0.30000000000984928 -6.1258094017336582 
6000.0000000000000 9000.0000000000000 -1500.0000000000000 -24410524.611410491 -1459704.9398076630 -36769952.386966467 -6.6722781336961703e-06 -0.00078320583483369017 3.5333174019123908e-05 1.5999999999819197 -0.29999999999588073 -6.0037679162221291 
6000.0000000000000 10000.000000000000 -1500.0000000000000 -24410524.611469552 -1459704.9398782300 -36769952.387187958 -4.2564898321525805e-06 -0.00042979375148453566 3.8331018020461191e-05 1.5999999999817900 0.0000000000000000 -6.0037679162061766 
7000.0000000000000 10000.000000000000 -1500.0000000000000 -24410524.611611612 -1459704.9397892798 -36769952.386662282 2.4444190565947424e-08 -0.00042699684174980898 0.0012156198757976638 1.1999999999891651 0.0000000000000000 -6.0037679165497080 
7000.0000000000000 9000.0000000000000 -1500.0000000000000 -24410524.611551493 -1459704.9397217534 -36769952.386441693 1.3408809270756018e-07 -0.00078003031178588045 0.0012155338741819458 1.1999999999891580 -0.29999999999597099 -6.0037679165661482 
6000.0000000000000 9000.0000000000000 -1166.6666666670001 -22106571.360798158 844248.31318361883 -28601390.856428169 -1.4487290499401022e-05 -0.00072285606343438624 0.00016591317563223500 1.6000000001361809 -0.30000000002276167 -6.2329450072177455 
6000.0000000000000 10000.000000000000 -1166.6666666670001 -22106571.360869601 844248.31304890104 -28601390.856637701 -8.1475821480670754e-06 -0.00039311633617811925 0.00016727373271810183 1.6000000001359280 0.0000000000000000 -6.2329450072033508 
7000.0000000000000 10000.000000000000 -1166.6666666670001 -22106571.360904165 844248.31320875790 -28601390.855944492 -4.7493536568896720e-06 -0.00039069003112938831 0.0011760982210548699 1.2000000000986457 0.0000000000000000 -6.2329450075406481 
7000.0000000000000 9000.0000000000000 -1166.6666666670001 -22106571.360831913 844248.31334056531 -28601390.855735961 -9.3225235928888231e-06 -0.00072059404806295755 0.0011752833406451460 1.2000000000987872 -0.30000000002310662 -6.2329450075555446 
6000.0000000000000 9000.0000000000000 -1000.0000000000000 -20954440.079023380 1996379.5961998191 -24516561.763294838 -1.8658548509097761e-05 -0.00067525344013051201 0.00022301859561387166 1.6000000002133485 -0.30000000003516769 -6.3251733996102422 
6000.0000000000000 10000.000000000000 -1000.0000000000000 -20954440.079100568 1996379.5960262234 -24516561.763489652 -1.0236967691964820e-05 -0.00036554090780742805 0.00022371120473479132 1.6000000002130295 0.0000000000000000 -6.3251733995964967 
7000.0000000000000 10000.000000000000 -1000.0000000000000 -20954440.079039752 1996379.5962168246 -24516561.762777247 -7.2720972252566415e-06 -0.00036335516705861037 0.0011283141487136185 1.2000000001517683 0.0000000000000000 -6.3251733999306081 
7000.0000000000000 9000.0000000000000 -1000.0000000000000 -20954440.078961816 1996379.5963875728 -24516561.762583435 -1.4323294159328419e-05 -0.00067345215861069213 0.0011273215996717616 1.2000000001519882 -0.30000000003564803 -6.3251733999448598 
6000.0000000000000 9000.0000000000000 -833.33333333329995 -19802205.680632517 3148613.9958676207 -20431367.074603908 -2.3023650355918299e-05 -0.00061390186134152201 0.00026779581207865853 1.6000000002903576 -0.30000000004675081 -6.4024932443614100 
6000.0000000000000 10000.000000000000 -833.33333333329995 -19802205.680715337 3148613.9956499347 -20431367.074778609 -1.2442768194412457e-05 -0.00033074513453597889 0.00026791654898810729 1.6000000002899699 0.0000000000000000 -6.4024932443481921 
7000.0000000000000 10000.000000000000 -833.33333333329995 -19802205.680526234 3148613.9958697334 -20431367.074088015 -9.8812954331108864e-06 -0.00032883076370336108 0.0010554253250796353 1.2000000002035349 0.0000000000000000 -6.4024932446793450 
7000.0000000000000 9000.0000000000000 -833.33333333329995 -19802205.680442646 3148613.9960846072 -20431367.073914312 -1.9498681088561467e-05 -0.00061254344613814900 0.0010543763997465352 1.2000000002038360 -0.30000000004737176 -6.4024932446930745 
6000.0000000000000 9000.0000000000000 -666.66666666670005 -18649868.156399630 4300951.5214135339 -16345806.757624274 -2.7582875925237115e-05 -0.00053700307264894901 0.00029434578209462404 1.6000000003670480 -0.30000000005740124 -6.4649032071439967 
6000.0000000000000 10000.000000000000 -666.66666666670005 -18649868.156488098 4300951.5211460898 -16345806.757773638 -1.4773961683933902e-05 -0.00028784281855704643 0.00029401132905253273 1.6000000003665882 0.0000000000000000 -6.4649032071311563 
7000.0000000000000 10000.000000000000 -666.66666666670005 -18649868.156133540 4300951.5213948479 -16345806.757144196 -1.2573134028604878e-05 -0.00028623058854245002 0.00095175846233007172 1.2000000002537057 0.0000000000000000 -6.4649032074597761 
7000.0000000000000 9000.0000000000000 -666.66666666670005 -18649868.156044144 4300951.5216594944 -16345806.756995751 -2.4843864711046391e-05 -0.00053605444781972184 0.00095076442056621769 1.2000000002540896 -0.30000000005816746 -6.4649032074731272 
6000.0000000000000 9000.0000000000000 -500.00000000000000 -17497427.497097176 5453392.1820656331 -12259880.779617487 -3.2317199520551972e-05 -0.00044259772021636152 0.00029610082047554893 1.6000000004432269 -0.30000000006699917 -6.5124019535111932 
6000.0000000000000 10000.000000000000 -500.00000000000000 -17497427.497191451 5453392.1817422863 -12259880.779736567 -1.7233208156413719e-05 -0.00023587888162235039 0.00029543637172867903 1.6000000004426926 0.0000000000000000 -6.5124019534985536 
7000.0000000000000 10000.000000000000 -500.00000000000000 -17497427.496629477 5453392.1820212081 -12259880.779205831 -1.5340506092880974e-05 -0.00023458265738311688 0.00081086262696756888 1.2000000003020073 0.0000000000000000 -6.5124019538252673 
7000.0000000000000 9000.0000000000000 -500.00000000000000 -17497427.496533930 5453392.1823417284 -12259880.779087510 -3.0353080255930589e-05 -0.00044200329054550026 0.00081001146994186637 1.2000000003024767 -0.30000000006791444 -6.5124019538384124 
6000.0000000000000 9000.0000000000000 -333.33333333330000 -16344883.693499129 6605935.9870504541 -8173589.1078482848 -3.7181443303114149e-05 -0.00032856764194405741 0.00026577598564410751 1.6000000005186608 -0.30000000007541333 -6.5449881488965840 
6000.0000000000000 10000.000000000000 -333.33333333330000 -16344883.693599567 6605935.9866645653 -8173589.1079326300 -1.9819841961984549e-05 -0.00017381446559365532 0.00026490902659391367 1.6000000005180499 0.0000000000000000 -6.5449881488839434 
7000.0000000000000 10000.000000000000 -333.33333333330000 -16344883.692782678 6605935.9869764317 -8173589.1075364165 -1.8173755797485124e-05 -0.00017281716067008650 0.00062541734368837438 1.2000000003481250 0.0000000000000000 -6.5449881492095816 
7000.0000000000000 9000.0000000000000 -333.33333333330000 -16344883.692680387 6605935.9873593943 -8173589.1074526450 -3.6021844350052678e-05 -0.00032822448251413120 0.00062478224255025901 1.2000000003486806 -0.30000000007647992 -6.5449881492227195 
6000.0000000000000 9000.0000000000000 -166.66666666670000 -15192236.736380033 7758582.9455939429 -4086931.7095807847 -4.2090119865218878e-05 -0.00019263388180166296 0.00019517939979482691 1.6000000005930617 -0.30000000008249922 -6.5626604586143014 
6000.0000000000000 10000.000000000000 -166.66666666670000 -15192236.736487128 7758582.9451385103 -4086931.7096262621 -2.2535370576291252e-05 -0.00010056678464864995 0.00019427583781268288 1.6000000005923714 0.0000000000000000 -6.5626604586014317 
7000.0000000000000 10000.000000000000 -166.66666666670000 -15192236.735361382 7758582.9454877656 -4086931.7093991246 -2.1058412417660648e-05 -9.9828866207945222e-05 0.00038716390239889865 1.2000000003916949 0.0000000000000000 -6.5626604589270370 
7000.0000000000000 9000.0000000000000 -166.66666666670000 -15192236.735251473 7758582.9459401071 -4086931.7093538856 -4.1851950863394183e-05 -0.00019238284761909021 0.00038679670667337099 1.2000000003923377 -0.30000000008371680 -6.5626604589403987 
6000.0000000000000 9000.0000000000000 0.0000000000000000 -14615887.468287010 8334932.2144086268 -2043511.5747301891 -4.4541842845260422e-05 -0.00011889657068434000 0.00014872290579764336 1.6000000006660695 -0.30000000008809868 -6.5654175478590027 
6000.0000000000000 10000.000000000000 0.0000000000000000 -14615887.468397567 8334932.2139166426 -2043511.5747552055 -2.3925974767383234e-05 -6.1011616561295010e-05 0.00014785035077568328 1.6000000006652939 0.0000000000000000 -6.5654175478456551 
7000.0000000000000 10000.000000000000 0.0000000000000000 -14615887.467103042 8334932.2142859120 -2043511.5746211410 -2.2511278737545572e-05 -6.0391477357616697e-05 0.00025374354936949565 1.2000000004322995 0.0000000000000000 -6.5654175481724950 
7000.0000000000000 9000.0000000000000 0.0000000000000000 -14615887.466989074 8334932.2147747120 -2043511.5745961226 -4.4808162674656916e-05 -0.00011864480749800119 0.00025351891900904106 1.2000000004330267 -0.30000000008946387 -6.5654175481863311 
9000.0000000000000 4000.0000000000000 -1333.3333333329999 -23258599.535420228 -307779.86319676577 -32685854.385596737 -2.7279928429834065e-05 0.0044345716497345032 0.00041266745693758729 0.40000000001828362 -1.8000000000502414 -6.1258094037299733 
9000.0000000000000 5000.0000000000000 -1333.3333333329999 -23258599.534671504 -307779.86199884448 -32685854.383568786 -4.9578376253595973e-05 0.0018767395471265189 0.00059522017477360578 0.40000000001668246 -1.5000000000576248 -6.1258094029905630 
10000.000000000000 5000.0000000000000 -1333.3333333329999 -23258599.534596261 -307779.86191921768 -32685854.383254334 -2.6322999900566530e-05 0.0019557712480949944 0.00033680854351707566 0.0000000000000000 -1.5000000000584719 -6.1258094030207442 
10000.000000000000 4000.0000000000000 -1333.3333333329999 -23258599.535356864 -307779.86313138518 -32685854.385254800 -1.2956674192140455e-05 0.0045340350073399217 0.00025667563028823951 0.0000000000000000 -1.8000000000506307 -6.1258094037663007 
9000.0000000000000 4000.0000000000000 -1500.0000000000000 -24410524.611946795 -1459704.9405205406 -36769952.386718526 -1.4897931377940602e-05 0.0046518680101298024 0.00042162950292179744 0.40000000000064773 -1.7999999999542682 -6.0037679185679531 
9000.0000000000000 5000.0000000000000 -1500.0000000000000 -24410524.611195058 -1459704.9396013918 -36769952.384350717 -4.1459929956046554e-05 0.0020225162501610358 0.00061179012836074746 0.39999999999935415 -1.4999999999736233 -6.0037679178349102 
10000.000000000000 5000.0000000000000 -1500.0000000000000 -24410524.611145210 -1459704.9395268329 -36769952.384022921 -2.2009911604594141e-05 0.0021063181074295828 0.00035244787519656559 0.0000000000000000 -1.4999999999743410 -6.0037679178660799 
10000.000000000000 4000.0000000000000 -1500.0000000000000 -24410524.611905403 -1459704.9404592488 -36769952.386360675 -6.3562359081449185e-06 0.0047548619399172378 0.00027146679038602149 0.0000000000000000 -1.7999999999544587 -6.0037679186052300 
9000.0000000000000 4000.0000000000000 -1166.6666666670001 -22106571.360689886 844248.31238452159 -28601390.854627032 -4.1316156527589646e-05 0.0041489351992614080 0.00039498412714153105 0.40000000003528990 -1.8000000001505438 -6.2329450095440029 
9000.0000000000000 5000.0000000000000 -1166.6666666670001 -22106571.359939154 844248.31386160385 -28601390.852921113 -5.8721465115942216e-05 0.0017020671621293694 0.00056887735985638804 0.40000000003333730 -1.5000000001436566 -6.2329450087998524 
10000.000000000000 5000.0000000000000 -1166.6666666670001 -22106571.359835461 844248.31394537434 -28601390.852628723 -3.1381258488992882e-05 0.0017759346004189377 0.00031606715053715745 0.0000000000000000 -1.5000000001446581 -6.2329450088291667 
10000.000000000000 4000.0000000000000 -1166.6666666670001 -22106571.360602833 844248.31245263899 -28601390.854311131 -2.0647455637489094e-05 0.0042440351985540137 0.00023710618376267075 0.0000000000000000 -1.8000000001511682 -6.2329450095795558 
9000.0000000000000 4000.0000000000000 -1000.0000000000000 -20954440.078513660 1996379.5954738015 -24516561.761061188 -5.7548143968776745e-05 0.0037924458035575202 0.00036787403228906803 0.40000000005163006 -1.8000000002555319 -6.3251734019240464 
9000.0000000000000 5000.0000000000000 -1000.0000000000000 -20954440.077756200 1996379.5972271990 -24516561.759659290 -6.9487264289883890e-05 0.0015008187157243211 0.00053160818789291925 0.40000000004925779 -1.5000000002317864 -6.3251734011766647 
10000.000000000000 5000.0000000000000 -1000.0000000000000 -20954440.077621084 1996379.5973144155 -24516561.759396680 -3.7607061737600161e-05 0.0015689291349013366 0.00028991182150278925 0.0000000000000000 -1.5000000002329830 -6.3251734012052649 
10000.000000000000 4000.0000000000000 -1000.0000000000000 -20954440.078401864 1996379.5955433180 -24516561.760780316 -2.9843175100299767e-05 0.0038820890777460544 0.00021285161749062023 0.0000000000000000 -1.8000000002564427 -6.3251734019590202 
9000.0000000000000 4000.0000000000000 -833.33333333329995 -19802205.679652929 3148613.9953194452 -20431367.072164156 -7.6780148536813322e-05 0.0033628375800600057 0.00033088886630707777 0.40000000006727759 -1.8000000003655825 -6.4024932466625453 
9000.0000000000000 5000.0000000000000 -833.33333333329995 -19802205.678884156 3148613.9973424128 -20431367.071047634 -8.2650027846695032e-05 0.0012760115058989270 0.00048228778524345975 0.40000000006438347 -1.5000000003220757 -6.4024932459133321 
10000.000000000000 5000.0000000000000 -833.33333333329995 -19802205.678714838 3148613.9974326589 -20431367.070821457 -4.5525622145383593e-05 0.0013374894626979369 0.00025808612066063625 0.0000000000000000 -1.5000000003235248 -6.4024932459413835 
10000.000000000000 4000.0000000000000 -833.33333333329995 -19802205.679516204 3148613.9953890811 -20431367.071925946 -4.1120898076015009e-05 0.0034455438488115312 0.00018426967097733560 0.0000000000000000 -1.8000000003668517 -6.4024932466971451 
9000.0000000000000 4000.0000000000000 -666.66666666670005 -18649868.154869311 4300951.5211712224 -16345806.755202828 -0.00010016838061904101 0.0028581980533460374 0.00028389829026507829 0.40000000008221548 -1.8000000004810934 -6.4649032094334453 
9000.0000000000000 5000.0000000000000 -666.66666666670005 -18649868.154084761 4300951.5234520454 -16345806.754352489 -9.9190456781310371e-05 0.0010315012821722322 0.00041982289967448523 0.40000000007865311 -1.5000000004145713 -6.4649032086836637 
10000.000000000000 5000.0000000000000 -666.66666666670005 -18649868.153878715 4300951.5235453509 -16345806.754167950 -5.5776796732170706e-05 0.0010850850585322638 0.00022038646850185094 0.0000000000000000 -1.5000000004163501 -6.4649032087113563 
10000.000000000000 4000.0000000000000 -666.66666666670005 -18649868.154708471 4300951.5212399410 -16345806.755012905 -5.5256031156148544e-05 0.0029319163444079584 0.00015198621825612170 0.0000000000000000 -1.8000000004828192 -6.4649032094678676 
9000.0000000000000 4000.0000000000000 -500.00000000000000 -17497427.494922005 5453392.1822833037 -12259880.777436804 -0.00012931556888097162 0.0022770922246308917 0.00022714129936916258 0.40000000009643621 -1.8000000006024757 -6.5124019557911605 
9000.0000000000000 5000.0000000000000 -500.00000000000000 -17497427.494117387 5453392.1848038109 -12259880.776833184 -0.00012032276588072594 0.00077211757646533251 0.00034317059062667025 0.40000000009200415 -1.5000000005092955 -6.5124019550419465 
10000.000000000000 5000.0000000000000 -500.00000000000000 -17497427.493872430 5453392.1849007551 -12259880.776693907 -6.9123210223443290e-05 0.00081607369863115147 0.00017667088980726620 0.0000000000000000 -1.5000000005115048 -6.5124019550694712 
10000.000000000000 4000.0000000000000 -500.00000000000000 -17497427.494738989 5453392.1823505759 -12259880.777298190 -7.3238054623846617e-05 0.0023390191088919461 0.00011688929700035160 0.0000000000000000 -1.8000000006047887 -6.5124019558255810 
9000.0000000000000 4000.0000000000000 -333.33333333330000 -16344883.690570904 6605935.9879116034 -8173589.1061293958 -0.00016634871372510942 0.0016187953114274408 0.00016125320998712939 0.40000000010993958 -1.8000000007301478 -6.5449881511705268 
9000.0000000000000 5000.0000000000000 -333.33333333330000 -16344883.689742088 6605935.9906451739 -8173589.1057530269 -0.00014751020803277005 0.00050386912941976180 0.00025134390502992422 0.40000000010436898 -1.5000000006062373 -6.5449881504228884 
10000.000000000000 5000.0000000000000 -333.33333333330000 -16344883.689456433 6605935.9907470206 -8173589.1056608744 -8.6437830743295579e-05 0.00053588983529789455 0.00012680430365047391 0.0000000000000000 -1.5000000006090031 -6.5449881504504335 
10000.000000000000 4000.0000000000000 -333.33333333330000 -16344883.690368667 6605935.9879777646 -8173589.1060419194 -9.6231753339318574e-05 0.0016651622421047919 8.0056395604969824e-05 0.0000000000000000 -1.8000000007332138 -6.5449881512050876 
9000.0000000000000 4000.0000000000000 -166.66666666670000 -15192236.732575547 7758582.9473152338 -4086931.7085440625 -0.00021396946839408003 0.00088369960107655089 8.7192276740811271e-05 0.40000000012272985 -1.8000000008645212 -6.5626604608869687 
9000.0000000000000 5000.0000000000000 -166.66666666670000 -15192236.731718611 7758582.9502241947 -4086931.7083757385 -0.00018247015121661709 0.00023416632680375537 0.00014338012051076266 0.40000000011567410 -1.5000000007053413 -6.5626604601417649 
10000.000000000000 5000.0000000000000 -166.66666666670000 -15192236.731390815 7758582.9503330421 -4086931.7083305656 -0.00010868218648761439 0.00025133794802772140 7.0607597277594906e-05 0.0000000000000000 -1.5000000007088155 -6.5626604601695151 
10000.000000000000 4000.0000000000000 -166.66666666670000 -15192236.732357724 7758582.9473819928 -4086931.7085037669 -0.00012548271355162737 0.00090963084823901226 4.2540806482780131e-05 0.0000000000000000 -1.8000000008685388 -6.5626604609217587 
9000.0000000000000 4000.0000000000000 0.0000000000000000 -14615887.464011667 8334932.2166185519 -2043511.5740896191 -0.00024080116365117032 0.00049708164612662271 4.8253793767862027e-05 0.40000000013481046 -1.8000000010059709 -6.5654175501364964 
9000.0000000000000 5000.0000000000000 0.0000000000000000 -14615887.463139700 8334932.2196042314 -2043511.5740205357 -0.00020212358765465447 9.9968050384122332e-05 8.5243798946280428e-05 0.40000000012583642 -1.5000000008064969 -6.5654175493944242 
10000.000000000000 5000.0000000000000 0.0000000000000000 -14615887.462790526 8334932.2197172083 -2043511.5739985837 -0.00012116121741221955 0.00010891194070311057 4.0900777124570537e-05 0.0000000000000000 -1.5000000008108585 -6.5654175494225493 
10000.000000000000 4000.0000000000000 0.0000000000000000 -14615887.463787008 8334932.2166862395 -2043511.5740714371 -0.00014182869635315028 0.00051143121740027174 2.3733210550122548e-05 0.0000000000000000 -1.8000000010111690 -6.5654175501715386 
3000.0000000000000 2000.0000000000000 -1333.3333333329999 -23258599.534663055 -307779.86401813413 -32685854.389673389 5.2303694347047175e-05 0.0070453338969829584 -0.0080742980377624431 2.8000000000240317 -2.4000000000028225 -6.1258094024435090 
3000.0000000000000 3000.0000000000000 -1333.3333333329999 -23258599.533079814 -307779.86258194677 -32685854.383928463 3.8986600692957013e-06 0.0064179514507427407 -0.0078853749066307537 2.8000000000256549 -2.1000000000257160 -6.1258094014650117 
4000.0000000000000 3000.0000000000000 -1333.3333333329999 -23258599.534922503 -307779.86416094413 -32685854.388962325 -8.8913638619189767e-06 0.0066257840925335867 -0.0049510077209901655 2.4000000000543356 -2.1000000000255081 -6.1258094025804288 
4000.0000000000000 2000.0000000000000 -1333.3333333329999 -23258599.536494128 -307779.86560446367 -32685854.394905485 2.1538034409703879e-05 0.0071180504535555706 -0.0050513230965400216 2.4000000000537409 -2.4000000000004307 -6.1258094035801545 
3000.0000000000000 2000.0000000000000 -1500.0000000000000 -24410524.611917380 -1459704.9401468113 -36769952.390237406 7.2110875943627486e-05 0.0071830438470298335 -0.0083185771048092539 2.7999999999081591 -2.3999999999260488 -6.0037679172592266 
3000.0000000000000 3000.0000000000000 -1500.0000000000000 -24410524.610382166 -1459704.9393092329 -36769952.384127818 2.8248003773829612e-05 0.0066256768109507922 -0.0081404606838485685 2.7999999999106642 -2.0999999999325287 -6.0037679163049811 
4000.0000000000000 3000.0000000000000 -1500.0000000000000 -24410524.611645967 -1459704.9408699488 -36769952.389661282 1.0647853307483023e-05 0.0068324348873046517 -0.0052103571149198086 2.3999999999398764 -2.0999999999314318 -6.0037679174013485 
4000.0000000000000 2000.0000000000000 -1500.0000000000000 -24410524.613159705 -1459704.9417112027 -36769952.396001555 3.7257143401328497e-05 0.0072418787833176887 -0.0053053310729327058 2.3999999999386250 -2.3999999999229327 -6.0037679183752850 
3000.0000000000000 2000.0000000000000 -1166.6666666670001 -22106571.359263938 844248.31027932663 -28601390.859046724 2.9182447744083352e-05 0.0068012251946448351 -0.0077041399603024257 2.8000000001477137 -2.4000000000860751 -6.2329450082807591 
3000.0000000000000 3000.0000000000000 -1166.6666666670001 -22106571.357628148 844248.31238720904 -28601390.853719451 -2.3321035292227680e-05 0.0061106521187578311 -0.0075083293821040335 2.8000000001483176 -2.1000000001250219 -6.2329450072804642 
4000.0000000000000 3000.0000000000000 -1166.6666666670001 -22106571.360090755 844248.31078688242 -28601390.858231783 -3.0036725600193880e-05 0.0063163802308194017 -0.0046146040314503072 2.4000000001738169 -2.1000000001258008 -6.2329450084120461 
4000.0000000000000 2000.0000000000000 -1166.6666666670001 -22106571.361726895 844248.30866702646 -28601390.863720197 3.9689533895782929e-06 0.0068850329672582268 -0.0047182214052584924 2.4000000001739523 -2.4000000000845314 -6.2329450094348147 
3000.0000000000000 2000.0000000000000 -1000.0000000000000 -20954440.076497555 1996379.5919800957 -24516561.765601981 2.5086512312793540e-06 0.0064350813174081437 -0.0071950809628143356 2.8000000002800474 -2.4000000001766857 -6.3251734006837745 
3000.0000000000000 3000.0000000000000 -1000.0000000000000 -20954440.074804772 1996379.5948421145 -24516561.760755438 -5.3644314915634893e-05 0.0056939550101885224 -0.0069970308295034030 2.8000000002794923 -2.1000000002311272 -6.3251733996645036 
4000.0000000000000 3000.0000000000000 -1000.0000000000000 -20954440.077929251 1996379.5932178954 -24516561.764720868 -5.2878274286792007e-05 0.0058939240202696367 -0.0041996153466782515 2.4000000002986783 -2.1000000002329968 -6.3251734008092475 
4000.0000000000000 2000.0000000000000 -1000.0000000000000 -20954440.079637159 1996379.5903378313 -24516561.769688588 -1.5541978433699817e-05 0.0065265599314781580 -0.0043041617351143582 2.4000000002996171 -2.4000000001761186 -6.3251734018519130 
3000.0000000000000 2000.0000000000000 -833.33333333329995 -19802205.677147705 3148613.9903153013 -20431367.076596476 -2.8032322802465224e-05 0.0059288262211480390 -0.0065328235596078853 2.8000000004219632 -2.4000000002756434 -6.4024932454437211 
3000.0000000000000 3000.0000000000000 -833.33333333329995 -19802205.675393429 3148613.9940245273 -20431367.072303928 -8.7530878161476178e-05 0.0051572397204548495 -0.0063380696202967289 2.8000000004200944 -2.1000000003447767 -6.4024932444087037 
4000.0000000000000 3000.0000000000000 -833.33333333329995 -19802205.679222073 3148613.9923742460 -20431367.075694151 -7.7652231442048707e-05 0.0053471348427221940 -0.0037052905428507938 2.4000000004292867 -2.1000000003478547 -6.4024932455634849 
4000.0000000000000 2000.0000000000000 -833.33333333329995 -19802205.681010369 3148613.9886386264 -20431367.080067694 -3.7137881856644390e-05 0.0060238164116447942 -0.0038079430211599829 2.4000000004311115 -2.4000000002761905 -6.4024932466224698 
3000.0000000000000 2000.0000000000000 -666.66666666670005 -18649868.152001828 4300951.5145159978 -16345806.759289457 -6.2901086708131465e-05 0.0052614599317773328 -0.0057017429365928702 2.8000000005744798 -2.4000000003840714 -6.4649032082331832 
3000.0000000000000 3000.0000000000000 -666.66666666670005 -18649868.150181405 4300951.5191775197 -16345806.755634502 -0.00012584858665603668 0.0044890259537917363 -0.0055169472859268624 2.8000000005711141 -2.1000000004667729 -6.4649032071861177 
4000.0000000000000 3000.0000000000000 -666.66666666670005 -18649868.154755898 4300951.5174993947 -16345806.758418644 -0.00010484799117991913 0.0046635390688232305 -0.0031318026507475339 2.4000000005660169 -2.1000000004712138 -6.4649032083476978 
4000.0000000000000 2000.0000000000000 -666.66666666670005 -18649868.156635609 4300951.5127994036 -16345806.762117593 -6.1063344585668099e-05 0.0053549813393719767 -0.0032290750673772701 2.4000000005688258 -2.4000000003858832 -6.4649032094189547 
3000.0000000000000 2000.0000000000000 -500.00000000000000 -17497427.491848700 5453392.1738162711 -12259880.780932678 -0.00010284148121416187 0.0044086019806021228 -0.0046848081077861432 2.8000000007387196 -2.4000000005032400 -6.5124019546051466 
3000.0000000000000 3000.0000000000000 -500.00000000000000 -17497427.489957340 5453392.1795486445 -12259880.778009422 -0.00017016609334593376 0.0036771065213075005 -0.0045182692664073945 2.8000000007336188 -2.1000000005979866 -6.5124019535502367 
4000.0000000000000 3000.0000000000000 -500.00000000000000 -17497427.495317411 5453392.1778414277 -12259880.780154299 -0.00013536081872540004 0.0038293368100245058 -0.0024803481391209329 2.4000000007092428 -2.1000000006040120 -6.5124019547152665 
4000.0000000000000 2000.0000000000000 -500.00000000000000 -17497427.497303419 5453392.1720521813 -12259880.783092065 -8.7747177050318483e-05 0.0044946115945332229 -0.0025677766165534003 2.4000000007131703 -2.4000000005064934 -6.5124019557942585 
3000.0000000000000 2000.0000000000000 -333.33333333330000 -16344883.687481739 6605935.9774508839 -8173589.1087813396 -0.00014913147769406586 0.0033418596010578688 -0.0034635728062359776 2.8000000009159223 -2.4000000006346025 -6.5449881499929328 
3000.0000000000000 3000.0000000000000 -333.33333333330000 -16344883.685514608 6605935.9843875840 -8173589.1066945000 -0.00022320282527989941 0.0027087489209395182 -0.0033262227063338250 2.8000000009087320 -2.1000000007393473 -6.5449881489349480 
4000.0000000000000 3000.0000000000000 -333.33333333330000 -16344883.691696018 6605935.9826511908 -8173589.1081640292 -0.00017072660004154676 0.0028291314512432762 -0.0017532494056829307 2.4000000008593374 -2.1000000007472983 -6.5449881500999822 
4000.0000000000000 2000.0000000000000 -333.33333333330000 -16344883.693809241 6605935.9756282698 -8173589.1102488646 -0.00011794551237111267 0.0034128379349364266 -0.0018247166580872725 2.4000000008645812 -2.4000000006395203 -6.5449881511816566 
3000.0000000000000 2000.0000000000000 -166.66666666670000 -15192236.729697689 7758582.9346576873 -4086931.7100897045 -0.00020401951816343699 0.0020280547903163411 -0.0020182409138458065 2.8000000011074668 -2.4000000007798223 -6.5626604597103784 
3000.0000000000000 3000.0000000000000 -166.66666666670000 -15192236.727650329 7758582.9429482212 -4086931.7089551389 -0.00028950366617994734 0.0015709057071124331 -0.0019253333413079873 2.8000000010976178 -2.1000000008918445 -6.5626604586546842 
4000.0000000000000 3000.0000000000000 -166.66666666670000 -15192236.734682191 7758582.9411849482 -4086931.7097094334 -0.00021342961333372607 0.0016454457867626233 -0.00095395442996029363 2.4000000010166684 -2.1000000009022606 -6.5626604598161880 
4000.0000000000000 2000.0000000000000 -166.66666666670000 -15192236.736952543 7758582.9327599555 -4086931.7108444930 -0.00015297090447164436 0.0020742030059780823 -0.0010006760730415397 2.4000000010235323 -2.4000000007867217 -6.5626604608949739 
3000.0000000000000 2000.0000000000000 0.0000000000000000 -14615887.461301103 8334932.2028091867 -2043511.5750152585 -0.00023397235625883416 0.0013049171856274948 -0.0012369921139222825 2.8000000013149076 -2.4000000009408144 -6.5654175489518023 
3000.0000000000000 3000.0000000000000 0.0000000000000000 -14615887.459212607 8334932.2118160613 -2043511.5743872703 -0.00032667764066590568 0.00095797351798029894 -0.0011707889074551916 2.8000000013014232 -2.1000000010565141 -6.5654175479044126 
4000.0000000000000 3000.0000000000000 0.0000000000000000 -14615887.466675960 8334932.2100403151 -2043511.5747734485 -0.00023699580564959333 0.0010054040026663228 -0.00053675414216295845 2.4000000011816063 -2.1000000010702475 -6.5654175490587861 
4000.0000000000000 2000.0000000000000 0.0000000000000000 -14615887.469033690 8334932.2008688757 -2043511.5754087248 -0.00017189837986646397 0.0013358472741000008 -0.00056850438070098273 2.4000000011905476 -2.4000000009501985 -6.5654175501285357 
5000.0000000000000 8000.0000000000000 -1333.3333333329999 -23258599.534285981 -307779.86194968194 -32685854.385928079 -2.5511250735590480e-05 -0.0012371843765155231 -0.0019599631030646678 2.0000000000629981 -0.60000000002042742 -6.1258094008790120 
5000.0000000000000 9000.0000000000000 -1333.3333333329999 -23258599.534452934 -307779.86220573710 -32685854.386488572 -1.7386062888928070e-05 -0.00076938304862430315 -0.0019429441421722120 2.0000000000621507 -0.30000000000910870 -6.1258094008219466 
6000.0000000000000 8000.0000000000000 -1333.3333333329999 -23258599.535014763 -307779.86216629826 -32685854.386162765 -1.2202455574370850e-05 -0.0012315148378548996 0.00010246127103568632 1.6000000000595151 -0.60000000002104847 -6.1258094014513551 
5000.0000000000000 8000.0000000000000 -1500.0000000000000 -24410524.610619929 -1459704.9393887990 -36769952.385926925 -1.8017210917335809e-05 -0.0012722379255186581 -0.0021363289429817416 1.9999999999650195 -0.59999999999167253 -6.0037679157102426 
5000.0000000000000 9000.0000000000000 -1500.0000000000000 -24410524.610767797 -1459704.9395674572 -36769952.386480600 -1.3916513963233366e-05 -0.00079612244159026828 -0.0021170442800416680 1.9999999999643252 -0.29999999999544441 -6.0037679156510375 
6000.0000000000000 8000.0000000000000 -1500.0000000000000 -24410524.611260444 -1459704.9396432454 -36769952.386395611 -3.9748565843602828e-06 -0.0012645582457592329 3.4436874303068630e-05 1.5999999999822747 -0.59999999999208053 -6.0037679162832385 
5000.0000000000000 8000.0000000000000 -1166.6666666670001 -22106571.359818526 844248.31369928573 -28601390.855822287 -3.3353312612463386e-05 -0.0011853030600076492 -0.0017553110838765477 2.0000000001630949 -0.60000000004820120 -6.2329450067032557 
5000.0000000000000 9000.0000000000000 -1166.6666666670001 -22106571.360003278 844248.31335339206 -28601390.856371805 -2.1053877840663306e-05 -0.00073213177196756823 -0.0017405916785780270 2.0000000001620868 -0.30000000002214189 -6.2329450066482011 
6000.0000000000000 8000.0000000000000 -1166.6666666670001 -22106571.360611621 844248.31351588317 -28601390.855868712 -2.0751191137678959e-05 -0.0011814712704123821 0.00016797776984091626 1.6000000001368713 -0.60000000004904408 -6.2329450072742159 
5000.0000000000000 8000.0000000000000 -1000.0000000000000 -20954440.077990878 1996379.5967903566 -24516561.762862608 -4.1632663926972594e-05 -0.0011136917772878092 -0.0015263585503504352 2.0000000002653340 -0.60000000007482301 -6.3251733990956689 
5000.0000000000000 9000.0000000000000 -1000.0000000000000 -20954440.078192454 1996379.5963404912 -24516561.763383854 -2.5006173494186679e-05 -0.00068289411818845183 -0.0015139702352659021 2.0000000002641518 -0.30000000003444699 -6.3251733990424066 
6000.0000000000000 8000.0000000000000 -1000.0000000000000 -20954440.078819886 1996379.5966363184 -24516561.762767032 -2.9593276080734208e-05 -0.0011114946293657754 0.00022625384489880244 1.6000000002142158 -0.60000000007589793 -6.3251733996647523 
5000.0000000000000 8000.0000000000000 -833.33333333329995 -19802205.679580368 3148613.9965517134 -20431367.074315555 -5.0424734004505034e-05 -0.0010191076627174395 -0.0012780666994304723 2.0000000003697260 -0.60000000010010901 -6.4024932438473607 
5000.0000000000000 9000.0000000000000 -833.33333333329995 -19802205.679798033 3148613.9959820784 -20431367.074791525 -2.9326562242159385e-05 -0.00062003964606399144 -0.0012680191529527837 2.0000000003683556 -0.30000000004592059 -6.4024932437955959 
6000.0000000000000 8000.0000000000000 -833.33333333329995 -19802205.680412356 3148613.9964240300 -20431367.074124377 -3.8681567292135174e-05 -0.0010182976284470371 0.00027195803478096401 1.6000000002914097 -0.60000000010142573 -6.4024932444143152 
5000.0000000000000 8000.0000000000000 -666.66666666670005 -18649868.155365165 4300951.5222105253 -16345806.757450050 -5.9785845328883360e-05 -0.00089795185381887500 -0.0010162851684219697 2.0000000004762701 -0.60000000012386057 -6.4649032066309378 
5000.0000000000000 9000.0000000000000 -666.66666666670005 -18649868.155598398 4300951.5215036543 -16345806.757863980 -3.4092865236610398e-05 -0.00054177683231049299 -0.0010085742942442496 2.0000000004746936 -0.30000000005645117 -6.4649032065802814 
6000.0000000000000 8000.0000000000000 -666.66666666670005 -18649868.156162694 4300951.5221071374 -16345806.757209174 -4.7938667136326489e-05 -0.00089822508443040158 0.00029912858834576052 1.6000000003682917 -0.60000000012542742 -6.4649032071957304 
5000.0000000000000 8000.0000000000000 -500.00000000000000 -17497427.496121675 5453392.1829954786 -12259880.779528175 -6.9748763147946363e-05 -0.00074626579765626675 -0.00074767438567597871 2.0000000005849490 -0.60000000014585819 -6.5124019529994559 
5000.0000000000000 9000.0000000000000 -500.00000000000000 -17497427.496370167 5453392.1821321761 -12259880.779863752 -3.9373305513912831e-05 -0.00044615258558102058 -0.00074227932734762349 2.0000000005831455 -0.30000000006591782 -6.5124019529494381 
6000.0000000000000 8000.0000000000000 -500.00000000000000 -17497427.496842876 5453392.1829153756 -12259880.779282385 -5.7247031566782475e-05 -0.00074724287793249662 0.00030114898409753843 1.6000000004446664 -0.60000000014768207 -6.5124019535622661 
5000.0000000000000 8000.0000000000000 -333.33333333330000 -16344883.692627724 6605935.9881335562 -8173589.1078162706 -8.0313753027351685e-05 -0.00055973406270725160 -0.00047953485873595316 2.0000000006957239 -0.60000000016586175 -6.5449881483863894 
5000.0000000000000 9000.0000000000000 -333.33333333330000 -16344883.692891350 6605935.9870928694 -8173589.1080577215 -4.5227758583387321e-05 -0.00033106779854573864 -0.00047640800189669883 2.0000000006936722 -0.30000000007418892 -6.5449881483364498 
6000.0000000000000 8000.0000000000000 -333.33333333330000 -16344883.693226323 6605935.9880770287 -8173589.1076079700 -6.6430822271539865e-05 -0.00056093026068688588 0.00027063338633774640 1.6000000005202961 -0.60000000016794341 -6.5449881489475832 
5000.0000000000000 8000.0000000000000 -166.66666666670000 -15192236.735661859 7758582.9468509164 -4086931.7095813449 -9.1433828070790598e-05 -0.00033367874289118500 -0.00021953349938107290 2.0000000008085390 -0.60000000018360489 -6.5626604581057695 
5000.0000000000000 9000.0000000000000 -166.66666666670000 -15192236.735940551 7758582.9456101619 -4086931.7097133840 -5.1704091786962455e-05 -0.00019427482762174989 -0.00021856534072236112 2.0000000008062173 -0.30000000008112004 -6.5626604580552641 
6000.0000000000000 8000.0000000000000 -166.66666666670000 -15192236.736086950 7758582.9468198717 -4086931.7094491939 -7.5221850915120758e-05 -0.00033443966313643277 0.00019920674985751468 1.6000000005948820 -0.60000000018593480 -6.5626604586658877 
5000.0000000000000 8000.0000000000000 0.0000000000000000 -14615887.467658263 8334932.2157576876 -2043511.5747413367 -9.7123357923975626e-05 -0.00021016323211653720 -9.2542348593906232e-05 2.0000000009233161 -0.60000000019879485 -6.5654175473521805 
5000.0000000000000 9000.0000000000000 0.0000000000000000 -14615887.467944458 8334932.2144110231 -2043511.5748148784 -5.5102679138922334e-05 -0.00012016062850025686 -9.2613055016322921e-05 2.0000000009207026 -0.30000000008655303 -6.5654175473003802 
6000.0000000000000 8000.0000000000000 0.0000000000000000 -14615887.467983274 8334932.2157400884 -2043511.5746563694 -7.9478821542614306e-05 -0.00021051679200019273 0.00015214744611760647 1.6000000006680450 -0.60000000020134325 -6.5654175479118999 
8000.0000000000000 1000.0000000000000 -1333.3333333329999 -23258599.539895974 -307779.86732101371 -32685854.401960894 5.3909177605360853e-05 0.0047775428439453651 0.00036184988883939079 0.80000000003061245 -2.6999999999936786 -6.1258094063216353 
8000.0000000000000 0.0000000000000000 -1333.3333333329999 -23258599.540486723 -307779.86762415402 -32685854.404254995 3.5091366941361878e-05 0.0027863274882867278 0.00042398151554387184 0.80000000002911464 -3.0000000000000000 -6.1258094066317383 
7000.0000000000000 7.4168059059999997e-30 -1333.3333333329999 -23258599.540654339 -307779.86782447743 -32685854.404804211 -1.1865057009919996e-06 0.0028703955360732890 0.0010966646932105311 1.2000000000476247 -3.0000000000000000 -6.1258094063926469 
7000.0000000000000 1000.0000000000000 -1333.3333333329999 -23258599.540053234 -307779.86751613626 -32685854.402591333 -2.7751472365859814e-06 0.0048437837364357153 0.0010955872256442657 1.2000000000475761 -2.6999999999954500 -6.1258094060733654 
8000.0000000000000 1000.0000000000000 -1500.0000000000000 -24410524.616243280 -1459704.9430231333 -36769952.404122554 6.1667240891148870e-05 0.0048329727077852580 0.00039306235171351775 0.79999999999213589 -2.6999999999492350 -6.0037679210896613 
8000.0000000000000 0.0000000000000000 -1500.0000000000000 -24410524.616807275 -1459704.9431234256 -36769952.406494543 3.8200679089979203e-05 0.0028048549593150999 0.00046459504435592810 0.79999999999057203 -3.0000000000000000 -6.0037679213887776 
7000.0000000000000 2.1239035100000000e-29 -1500.0000000000000 -24410524.616920747 -1459704.9432992556 -36769952.406952314 1.1076205506091848e-06 0.0028942362087214252 0.0011047483035424017 1.1999999999893745 -3.0000000000000000 -6.0037679211482624 
7000.0000000000000 1000.0000000000000 -1500.0000000000000 -24410524.616345178 -1459704.9431944962 -36769952.404661551 1.7132629936820234e-06 0.0049076687664698169 0.0011041249011790085 1.1999999999893964 -2.6999999999512130 -6.0037679208392101 
8000.0000000000000 1000.0000000000000 -1166.6666666670001 -22106571.365362585 844248.30645213951 -28601390.869790100 4.4429813191508154e-05 0.0046521209536079539 0.00032553244517832483 0.80000000006836225 -2.7000000000424360 -6.2329450121986341 
8000.0000000000000 0.0000000000000000 -1166.6666666670001 -22106571.365981668 844248.30590990628 -28601390.871979531 3.1156135183134521e-05 0.0027278724393328220 0.00037847480236760173 0.80000000006695737 -3.0000000000000000 -6.2329450125191199 
7000.0000000000000 2.3261800339999999e-29 -1166.6666666670001 -22106571.366218388 844248.30568992160 -28601390.872589298 -3.5861292118844020e-06 0.0028062247087913116 0.0010759122471449408 1.2000000001050810 -3.0000000000000000 -6.2329450122818004 
7000.0000000000000 1000.0000000000000 -1166.6666666670001 -22106571.365590502 844248.30623818561 -28601390.870479986 -7.4942246727810710e-06 0.0047101213263844015 0.0010743851994846874 1.2000000001049587 -2.7000000000439566 -6.2329450119529728 
8000.0000000000000 1000.0000000000000 -1000.0000000000000 -20954440.083399426 1996379.5875224695 -24516561.774836842 3.3118365112995478e-05 0.0044442187162575730 0.00028339809995249206 0.80000000010529515 -2.7000000000961539 -6.3251734046336221 
8000.0000000000000 0.0000000000000000 -1000.0000000000000 -20954440.084048569 1996379.5866978224 -24516561.776888523 2.6321906394917415e-05 0.0026215385336622894 0.00032753006824102891 0.80000000010401295 -3.0000000000000000 -6.3251734049636781 
7000.0000000000000 -2.4273182999999999e-29 -1000.0000000000000 -20954440.084370784 1996379.5864629596 -24516561.777527042 -6.0616732578442282e-06 0.0026938054407119839 0.0010379937202840066 1.2000000001615503 -3.0000000000000000 -6.3251734047283472 
7000.0000000000000 1000.0000000000000 -1000.0000000000000 -20954440.083714709 1996379.5872946463 -24516561.775552791 -1.2405422372910155e-05 0.0044943656217196551 0.0010360406983660002 1.2000000001613531 -2.7000000000973725 -6.3251734043908598 
8000.0000000000000 1000.0000000000000 -833.33333333329995 -19802205.684766036 3148613.9851102857 -20431367.084340796 1.9907879581078170e-05 0.0041389663157615254 0.00023501894183698991 0.80000000014134010 -2.7000000001555806 -6.4024932494178639 
8000.0000000000000 0.0000000000000000 -833.33333333329995 -19802205.685447250 3148613.9839512506 -20431367.086214375 2.0568015055665458e-05 0.0024577371916827775 0.00027088247651027624 0.80000000014021477 -3.0000000000000000 -6.4024932497564313 
7000.0000000000000 -4.5191771299999999e-29 -833.33333333329995 -19802205.685871940 3148613.9837065404 -20431367.086848050 -8.5774860832636831e-06 0.0025235296010562361 0.00097766020219723941 1.2000000002168212 -3.0000000000000000 -6.4024932495231583 
7000.0000000000000 1000.0000000000000 -833.33333333329995 -19802205.685185913 3148613.9848739961 -20431367.085047070 -1.7455536947835446e-05 0.0041817836923873702 0.00097534388645957723 1.2000000002165481 -2.7000000001564426 -6.4024932491781374 
8000.0000000000000 1000.0000000000000 -666.66666666670005 -18649868.160221882 4300951.5084328037 -16345806.765543912 4.8377661922058432e-06 0.0037185390962650865 0.00018053398837856321 0.80000000017646122 -2.7000000002215825 -6.4649032122239953 
8000.0000000000000 0.0000000000000000 -666.66666666670005 -18649868.160937682 4300951.5068767322 -16345806.767190551 1.4011889786308038e-05 0.0022247530868150268 0.00020878558162807913 0.80000000017552531 -3.0000000000000000 -6.4649032125697019 
7000.0000000000000 0.0000000000000000 -666.66666666670005 -18649868.161481109 4300951.5066277441 -16345806.767783310 -1.1090855010343518e-05 0.0022836284307402028 0.00088881513853231219 1.2000000002706526 -3.0000000000000000 -6.4649032123383900 
7000.0000000000000 1000.0000000000000 -666.66666666670005 -18649868.160762634 4300951.5081944503 -16345806.766201494 -2.2576250330335784e-05 0.0037546604969276674 0.00088625991784616628 1.2000000002703055 -2.7000000002220332 -6.4649032119872540 
8000.0000000000000 1000.0000000000000 -500.00000000000000 -17497427.500523657 5453392.1667062845 -12259880.785681428 -1.1854521169776872e-05 0.0031613546582722140 0.00012117259334241688 0.80000000021068174 -2.7000000002951747 -6.5124019586049950 
8000.0000000000000 0.0000000000000000 -500.00000000000000 -17497427.501277611 5453392.1646769904 -12259880.787043137 7.0600196153645942e-06 0.0019081037885847439 0.00014246810208493212 0.80000000020995388 -3.0000000000000000 -6.5124019589560751 
7000.0000000000000 -1.8204887200000001e-29 -500.00000000000000 -17497427.501952935 5453392.1644303240 -12259880.787555080 -1.3548632193090037e-05 0.0019594757536327040 0.00076452552295859012 1.2000000003227673 -3.0000000000000000 -6.5124019587264437 
7000.0000000000000 1000.0000000000000 -500.00000000000000 -17497427.501198061 5453392.1664741794 -12259880.786246808 -2.7676069076321683e-05 0.0031914344922951091 0.00076191568947602537 1.2000000003223501 -2.7000000002951725 -6.5124019583709449 
8000.0000000000000 1000.0000000000000 -333.33333333330000 -16344883.696428200 6605935.9691424761 -8173589.1119926507 -2.9566684800504844e-05 0.0024411462879159783 6.0067407412022324e-05 0.80000000024412632 -2.7000000003775537 -6.5449881539941241 
8000.0000000000000 0.0000000000000000 -333.33333333330000 -16344883.697225679 6605935.9665464116 -8173589.1130014509 6.9930206978153815e-07 0.0014898031494457813 7.4738417274814909e-05 0.80000000024358364 -3.0000000000000000 -6.5449881543483448 
7000.0000000000000 0.0000000000000000 -333.33333333330000 -16344883.698038982 6605935.9663102403 -8173589.1133874115 -1.5880611097383271e-05 0.0015325868669263120 0.00059691678176695614 1.2000000003728426 -3.0000000000000000 -6.5449881541199009 
7000.0000000000000 1000.0000000000000 -333.33333333330000 -16344883.697241087 6605935.9689283231 -8173589.1124164695 -3.2627785500058767e-05 0.0024656048780420286 0.00059453191190371067 1.2000000003723617 -2.7000000003770954 -6.5449881537621968 
8000.0000000000000 1000.0000000000000 -166.66666666670000 -15192236.738691699 7758582.9249488823 -4086931.7117175250 -4.7053003064501369e-05 0.0015256907412433481 3.6385168110934880e-06 0.80000000027709905 -2.7000000004701543 -6.5626604637050994 
8000.0000000000000 0.0000000000000000 -166.66666666670000 -15192236.739541046 7758582.9216697635 -4086931.7122948333 -2.9725336848682767e-06 0.00094721944882409834 1.1071734282993231e-05 0.80000000027661600 -3.0000000000000000 -6.5626604640596460 
7000.0000000000000 -1.9553397400000001e-29 -166.66666666670000 -15192236.740484748 7758582.9214543141 -4086931.7125032498 -1.7995374650956847e-05 0.00097902106477039852 0.00037716163746942321 1.2000000004204943 -3.0000000000000000 -6.5626604638316541 
7000.0000000000000 1000.0000000000000 -166.66666666670000 -15192236.739632448 7758582.9247701084 -4086931.7119436087 -3.7253085280363985e-05 0.0015441062650648220 0.00037540091980201593 1.2000000004199591 -2.7000000004693234 -6.5626604634743737 
8000.0000000000000 1000.0000000000000 0.0000000000000000 -14615887.470257614 8334932.1923453482 -2043511.5758382033 -5.5532913729398564e-05 0.0010147068683255148 -2.2341882562434228e-05 0.80000000031022167 -2.7000000005747102 -6.5654175529320753 
8000.0000000000000 0.0000000000000000 0.0000000000000000 -14615887.471135460 8334932.1886923779 -2043511.5761788078 -3.7833559736274552e-06 0.00064170327393680486 -1.8848538172739229e-05 0.80000000030945062 -3.0000000000000000 -6.5654175532834307 
7000.0000000000000 0.0000000000000000 0.0000000000000000 -14615887.472140241 8334932.1884901356 -2043511.5762846796 -1.8985049335107375e-05 0.00066717991435073906 0.00025308805695460900 1.2000000004652525 -3.0000000000000000 -6.5654175530548873 
7000.0000000000000 1000.0000000000000 0.0000000000000000 -14615887.471257120 8334932.1921895174 -2043511.5759504624 -3.9457495468486313e-05 0.0010298378205501129 0.00025175607681637261 1.2000000004646714 -2.7000000005737830 -6.5654175527012359 
2000.0000000000000 1000.0000000000000 -1333.3333333329999 -23258599.534354500 -307779.86288133683 -32685854.387312494 1.5227229321971733e-05 0.0047813982046624008 -0.0090267306133464554 3.1999999999946631 -2.6999999999950681 -6.1258094020006606 
2000.0000000000000 -7.4168059100000006e-30 -1333.3333333329999 -23258599.534934979 -307779.86318972841 -32685854.389493231 1.0330955370368248e-05 0.0028339925594417829 -0.0090468205685610079 3.1999999999943078 -3.0000000000000000 -6.1258094023151557 
1000.0000000000000 1.8542014770000000e-30 -1333.3333333329999 -23258599.533705518 -307779.86135949072 -32685854.382447205 -1.2742270713089965e-05 0.0027309574166414388 -0.0063307016417190002 3.5999999999885257 -3.0000000000000000 -6.1258094012949602 
1000.0000000000000 1000.0000000000000 -1333.3333333329999 -23258599.533146299 -307779.86105272605 -32685854.380235154 -1.9845804910396497e-05 0.0046777653343170163 -0.0062497913744171607 3.5999999999878254 -2.6999999999941582 -6.1258094009925230 
2000.0000000000000 1000.0000000000000 -1500.0000000000000 -24410524.612305406 -1459704.9385699632 -36769952.387624204 2.1575862762270395e-05 0.0048425415973330317 -0.0091935666660891893 3.1999999998985338 -2.6999999999517064 -6.0037679168257210 
2000.0000000000000 -2.1239035100000000e-29 -1500.0000000000000 -24410524.612860776 -1459704.9386769626 -36769952.389880434 1.3624198640613939e-05 0.0028565180815243391 -0.0092133731013247719 3.1999999998980737 -3.0000000000000000 -6.0037679171300828 
1000.0000000000000 5.3097587739999998e-30 -1500.0000000000000 -24410524.612278961 -1459704.9369288664 -36769952.382536054 -1.1165949341142721e-05 0.0027495098265415039 -0.0064173776345212265 3.5999999999337029 -3.0000000000000000 -6.0037679161407782 
1000.0000000000000 1000.0000000000000 -1500.0000000000000 -24410524.611744918 -1459704.9368217529 -36769952.380248033 -1.8094439319874045e-05 0.0047320320691766832 -0.0063286657772015937 3.5999999999330794 -2.6999999999509181 -6.0037679158489539 
2000.0000000000000 1000.0000000000000 -1166.6666666670001 -22106571.358166054 844248.31090135453 -28601390.856955361 7.5295396980778672e-06 0.0046513026364661900 -0.0087235926570309041 3.2000000000992292 -2.7000000000426252 -6.2329450078300841 
2000.0000000000000 -2.3261800299999999e-29 -1166.6666666670001 -22106571.358773280 844248.31035570428 -28601390.859035432 6.2680021523237607e-06 0.0027716024453590827 -0.0087436576178306167 3.2000000000990041 -3.0000000000000000 -6.2329450081540543 
1000.0000000000000 5.8154500860000000e-30 -1166.6666666670001 -22106571.356790148 844248.31227490038 -28601390.852367513 -1.4565259187906476e-05 0.0026732344263265375 -0.0061545417835517559 3.6000000000489085 -3.0000000000000000 -6.2329450071051982 
1000.0000000000000 1000.0000000000000 -1166.6666666670001 -22106571.356203981 844248.31281680451 -28601390.850256857 -2.1870231011566798e-05 0.0045549405580821746 -0.0060814919958862221 3.6000000000481194 -2.7000000000415771 -6.2329450067927450 
2000.0000000000000 1000.0000000000000 -1000.0000000000000 -20954440.074504770 1996379.5919988456 -24516561.763796400 -1.7080002807802374e-06 0.0044400140169358303 -0.0082633783282203138 3.2000000002133602 -2.7000000000950184 -6.3251734002268893 
2000.0000000000000 2.4273182970000001e-29 -1000.0000000000000 -20954440.075140603 1996379.5911729760 -24516561.765744787 1.3261758796798223e-06 0.0026615004927940103 -0.0082830228274193250 3.2000000002132949 -3.0000000000000000 -6.3251734005594695 
1000.0000000000000 -6.0682957399999997e-30 -1000.0000000000000 -20954440.072278697 1996379.5931888791 -24516561.759550482 -1.6683646931631420e-05 0.0025686096387425596 -0.0058725347998287158 3.6000000001156867 -3.0000000000000000 -6.3251733994847363 
1000.0000000000000 1000.0000000000000 -1000.0000000000000 -20954440.071663670 1996379.5940084271 -24516561.757572670 -2.4282136500194390e-05 0.0043513884320047439 -0.0058073933283323284 3.6000000001147994 -2.7000000000938091 -6.3251733991630505 
2000.0000000000000 1000.0000000000000 -833.33333333329995 -19802205.674140263 3148613.9896259927 -20431367.075090647 -1.2698429815176543e-05 0.0041328781761955265 -0.0076219378566697365 3.2000000003383353 -2.7000000001529858 -6.4024932449823151 
2000.0000000000000 4.5191771310000001e-29 -833.33333333329995 -19802205.674807023 3148613.9884681525 -20431367.076869734 -4.6330202773326528e-06 0.0024941494440193462 -0.0076406650886158001 3.2000000003384641 -3.0000000000000000 -6.4024932453224013 
1000.0000000000000 -1.1297942800000000e-29 -833.33333333329995 -19802205.670918249 3148613.9905900354 -20431367.071262017 -1.9199570843339043e-05 0.0024076840985910505 -0.0054651466111213052 3.6000000001898327 -3.0000000000000000 -6.4024932442252256 
1000.0000000000000 1000.0000000000000 -833.33333333329995 -19802205.670272123 3148613.9917383101 -20431367.069455303 -2.7246185969804104e-05 0.0040525124122209122 -0.0054078976537695733 3.6000000001888344 -2.7000000001515883 -6.4024932438953481 
2000.0000000000000 1000.0000000000000 -666.66666666670005 -18649868.147844635 4300951.5129943471 -16345806.758093841 -2.5677286550484850e-05 0.0037121929032516809 -0.0067711992930148436 3.2000000004756077 -2.7000000002173943 -6.4649032077689839 
2000.0000000000000 0.0000000000000000 -666.66666666670005 -18649868.148545470 4300951.5114417579 -16345806.759658309 -1.1777465471702263e-05 0.0022578216418778440 -0.0067883960891688645 3.2000000004759719 -3.0000000000000000 -6.4649032081151931 
1000.0000000000000 0.0000000000000000 -666.66666666670005 -18649868.143454123 4300951.5136809126 -16345806.754770782 -2.2345485923906565e-05 0.0021789222169070000 -0.0049086893439707563 3.6000000002724910 -3.0000000000000000 -6.4649032069997876 
1000.0000000000000 1000.0000000000000 -666.66666666670005 -18649868.142774180 4300951.5152195469 -16345806.753181366 -3.1023987629023334e-05 0.0036407496732571544 -0.0048593779879108892 3.6000000002713608 -2.7000000002157662 -6.4649032066630534 
2000.0000000000000 1000.0000000000000 -500.00000000000000 -17497427.486390550 5453392.1713143103 -12259880.780052867 -4.0905342076724811e-05 0.0031564809695515733 -0.0056785693232193771 3.2000000006268259 -2.7000000002892710 -6.5124019541398628 
2000.0000000000000 1.8204887220000000e-29 -500.00000000000000 -17497427.487130176 5453392.1692899512 -12259880.781348683 -2.0294909416213040e-05 0.0019379630052393435 -0.0056934608706071949 3.2000000006274743 -3.0000000000000000 -6.5124019544904641 
1000.0000000000000 -4.5512218100000003e-30 -500.00000000000000 -17497427.480627138 5453392.1716604503 -12259880.777339445 -2.6631764238519758e-05 0.0018681782102123970 -0.0041743047247219788 3.6000000003650245 -3.0000000000000000 -6.5124019533619872 
1000.0000000000000 1000.0000000000000 -500.00000000000000 -17497427.479909882 5453392.1736642383 -12259880.776022788 -3.6074501420296716e-05 0.0030949633827192609 -0.0041332312778482429 3.6000000003637180 -2.7000000002873410 -6.5124019530201043 
2000.0000000000000 1000.0000000000000 -333.33333333330000 -16344883.680555448 6605935.9737913655 -8173589.1082168603 -5.8701049539045479e-05 0.0024393412190480209 -0.0043062867463780144 3.2000000007938629 -2.7000000003698492 -6.5449881495281730 
2000.0000000000000 0.0000000000000000 -333.33333333330000 -16344883.681341404 6605935.9711992405 -8173589.1091803089 -3.0431415182042341e-05 0.0015161830880119249 -0.0043178505373744321 3.2000000007948541 -3.0000000000000000 -6.5449881498810294 
1000.0000000000000 0.0000000000000000 -333.33333333330000 -16344883.673176274 6605935.9737197850 -8173589.1062347088 -3.3157625437245357e-05 0.0014580103093162456 -0.0032265900254536718 3.6000000004690809 -3.0000000000000000 -6.5449881487457828 
1000.0000000000000 1000.0000000000000 -333.33333333330000 -16344883.672416914 6605935.9762803325 -8173589.1052566515 -4.3263634545527013e-05 0.0023895758949857840 -0.0031946872237846391 3.6000000004674964 -2.7000000003674902 -6.5449881484009174 
2000.0000000000000 1000.0000000000000 -166.66666666670000 -15192236.721121881 7758582.9296264658 -4086931.7098332304 -7.9489463261875812e-05 0.0015278152665044941 -0.0026107232559613100 3.2000000009788327 -2.7000000004606530 -6.5626604592475157 
2000.0000000000000 1.9553397389999999e-29 -166.66666666670000 -15192236.721966811 7758582.9263444543 -4086931.7103898730 -4.2527170640907940e-05 0.00096866843368805216 -0.0026175665323426799 3.2000000009802370 -3.0000000000000000 -6.5626604596000027 
1000.0000000000000 -4.8883493500000002e-30 -166.66666666670000 -15192236.711837709 7758582.9290413754 -4086931.7087235129 -4.4215036531958356e-05 0.00092657106283894580 -0.0020212592810388819 3.6000000005866983 -3.0000000000000000 -6.5626604584656825 
1000.0000000000000 1000.0000000000000 -166.66666666670000 -15192236.711029332 7758582.9322720822 -4086931.7081615366 -5.4260455012939279e-05 0.0014932520732059964 -0.0020009933373723080 3.6000000005846080 -2.7000000004576163 -6.5626604581205461 
2000.0000000000000 1000.0000000000000 0.0000000000000000 -14615887.451853592 8334932.1970334239 -2043511.5749100226 -9.0692525837605004e-05 0.0010188693826293266 -0.0016762805354283120 3.2000000011840983 -2.7000000005636133 -6.5654175484918138 
2000.0000000000000 0.0000000000000000 0.0000000000000000 -14615887.452731986 8334932.1933721313 -2043511.5752432477 -4.9112942063419258e-05 0.00066010038520601558 -0.0016803605126200177 3.2000000011859915 -3.0000000000000000 -6.5654175488407134 
1000.0000000000000 0.0000000000000000 0.0000000000000000 -14615887.441538278 8334932.1961650010 -2043511.5742744154 -5.1261475848594844e-05 0.00062748589534607159 -0.0013480179433744471 3.6000000007204842 -3.0000000000000000 -6.5654175477167334 
1000.0000000000000 1000.0000000000000 0.0000000000000000 -14615887.440703351 8334932.1997622149 -2043511.5739414210 -6.0985039166851653e-05 0.00099302771267248402 -0.0013344547797062866 3.6000000007173885 -2.7000000005594122 -6.5654175473747083 
2000.0000000000000 2000.0000000000000 -1333.3333333329999 -23258599.532933522 -307779.86194546794 -32685854.382095892 1.4808590230684304e-05 0.0069699121393493940 -0.0089774968371730858 3.1999999999953461 -2.4000000000049053 -6.1258094012120878 
1000.0000000000000 2000.0000000000000 -1333.3333333329999 -23258599.531770382 -307779.86012166820 -32685854.374957159 -2.1880891823784086e-05 0.0069341517968949194 -0.0061660184690124674 3.5999999999863301 -2.4000000000039026 -6.1258094002148331 
2000.0000000000000 2000.0000000000000 -1500.0000000000000 -24410524.610936910 -1459704.9381420966 -36769952.382182740 2.6429312949786464e-05 0.0071166682901866556 -0.0091443557320338240 3.1999999998995152 -2.3999999999287791 -6.0037679160601618 
1000.0000000000000 2000.0000000000000 -1500.0000000000000 -24410524.610422883 -1459704.9363955241 -36769952.374736235 -2.0305931258866862e-05 0.0070725324859497313 -0.0062282540204109714 3.5999999999316126 -2.3999999999278683 -6.0037679150954668 
2000.0000000000000 2000.0000000000000 -1166.6666666670001 -22106571.356689237 844248.31242546497 -28601390.852019478 1.1119147299360407e-06 0.0067190431143155857 -0.0086751433999961245 3.2000000000995499 -2.4000000000873900 -6.2329450070201791 
1000.0000000000000 2000.0000000000000 -1166.6666666670001 -22106571.354770325 844248.31433235144 -28601390.845269635 -2.3781894115910621e-05 0.0066911953648523537 -0.0060133987950838743 3.6000000000465984 -2.4000000000862793 -6.2329450059925833 
2000.0000000000000 2000.0000000000000 -1000.0000000000000 -20954440.072968513 1996379.5942055238 -24516561.759209707 -1.4930306088047545e-05 0.0063489703372390915 -0.0082167214206734975 3.2000000002132447 -2.4000000001771009 -6.3251733993977304 
1000.0000000000000 2000.0000000000000 -1000.0000000000000 -20954440.070168145 1996379.5962021938 -24516561.752945364 -2.6228597384305743e-05 0.0063285155746542112 -0.0057538250762810680 3.6000000001132482 -2.4000000001758584 -6.3251733983425789 
2000.0000000000000 2000.0000000000000 -833.33333333329995 -19802205.672540445 3148613.9926264975 -20431367.070935879 -3.3591837437554846e-05 0.0058421835820038348 -0.0075782796957003457 3.2000000003377029 -2.4000000002750208 -6.4024932441364593 
1000.0000000000000 2000.0000000000000 -833.33333333329995 -19802205.668709986 3148613.9947209260 -20431367.065270413 -2.9400103968509166e-05 0.0058284832545413626 -0.0053674652719790479 3.6000000001872441 -2.4000000002736108 -6.4024932430572301 
2000.0000000000000 2000.0000000000000 -666.66666666670005 -18649868.146176320 4300951.5169204539 -16345806.754470058 -5.5138109589815426e-05 0.0051783393111709541 -0.0067319574368603641 3.2000000004743652 -2.4000000003822604 -6.4649032069095833 
1000.0000000000000 2000.0000000000000 -666.66666666670005 -18649868.141139835 4300951.5191218415 -16345806.749537088 -3.3355258358229519e-05 0.0051706312835793676 -0.0048305340999301120 3.6000000002697101 -2.4000000003806403 -6.4649032058105718 
2000.0000000000000 2000.0000000000000 -500.00000000000000 -17497427.484647512 5453392.1763229715 -12259880.777077818 -7.9834736802723592e-05 0.0043338698466454826 -0.0056454298673331389 3.2000000006248692 -2.4000000005000746 -6.5124019532707740 
1000.0000000000000 2000.0000000000000 -500.00000000000000 -17497427.478196722 5453392.1786413155 -12259880.773036161 -3.7926195286264233e-05 0.0043312103575921081 -0.0041143847947718347 3.6000000003619701 -2.4000000004982045 -6.5124019521572700 
2000.0000000000000 2000.0000000000000 -333.33333333330000 -16344883.678729294 6605935.9800709877 -8173589.1060292451 -0.00010797914566994679 0.0032814646244821752 -0.0042813159512630240 3.2000000007910776 -2.4000000006298783 -6.5449881486541051 
1000.0000000000000 2000.0000000000000 -333.33333333330000 -16344883.670616360 6605935.9825174101 -8173589.1030650623 -4.2563766629965129e-05 0.0032825614904915118 -0.0031844074236499708 3.6000000004655837 -2.4000000006277342 -6.5449881475326084 
2000.0000000000000 2000.0000000000000 -166.66666666670000 -15192236.719200805 7758582.9374053599 -4086931.7085951888 -0.00013993260615782850 0.0019895830537403473 -0.0025965109456824740 3.2000000009750882 -2.4000000007732574 -6.5626604583742232 
1000.0000000000000 2000.0000000000000 -166.66666666670000 -15192236.709129367 7758582.9399922481 -4086931.7069237535 -4.6015273146380181e-05 0.0019923344389256056 -0.0019983818653669929 3.6000000005824093 -2.4000000007708682 -6.5626604572526830 
2000.0000000000000 2000.0000000000000 0.0000000000000000 -14615887.449881589 8334932.2056246186 -2043511.5741904331 -0.00015691092335460232 0.0012795549085472262 -0.0016681659320220438 3.2000000011792507 -2.4000000009319598 -6.5654175476263266 
1000.0000000000000 2000.0000000000000 0.0000000000000000 -14615887.438750152 8334932.2082849639 -2043511.5732230248 -4.7229300475264927e-05 0.0012824589262924225 -0.0013355409536603873 3.6000000007146964 -2.4000000009294951 -6.5654175465144160 
4000.0000000000000 8000.0000000000000 -1333.3333333329999 -23258599.532919858 -307779.86115305987 -32685854.383626003 -4.0332166337091297e-05 -0.0012697181066439714 -0.0044874695932371938 2.4000000000457571 -0.60000000001935672 -6.1258094000408354 
4000.0000000000000 9000.0000000000000 -1333.3333333329999 -23258599.533091839 -307779.86141761550 -32685854.384169687 -2.1794897150958749e-05 -0.00079142242586683297 -0.0044494637108964032 2.4000000000447179 -0.30000000000846211 -6.1258093999868990 
4000.0000000000000 8000.0000000000000 -1500.0000000000000 -24410524.609563343 -1459704.9385646333 -36769952.383212134 -3.3535923716558176e-05 -0.0013075226728590352 -0.0047168753865905891 2.3999999999334851 -0.59999999999083109 -6.0037679148785106 
4000.0000000000000 9000.0000000000000 -1500.0000000000000 -24410524.609714899 -1459704.9387508945 -36769952.383743875 -1.8476823057792599e-05 -0.00081986343512345527 -0.0046766382806088715 2.3999999999325969 -0.29999999999490873 -6.0037679148224887 
4000.0000000000000 8000.0000000000000 -1166.6666666670001 -22106571.358149812 844248.31447129021 -28601390.853912029 -4.7580534489762042e-05 -0.0012149239965741365 -0.0041831785057073502 2.4000000001629491 -0.60000000004688880 -6.2329450058606444 
4000.0000000000000 9000.0000000000000 -1166.6666666670001 -22106571.358340979 844248.31411585491 -28601390.854449965 -2.5398388802538606e-05 -0.00075236945111669762 -0.0041476931990165845 2.4000000001617465 -0.30000000002137689 -6.2329450058086699 
4000.0000000000000 8000.0000000000000 -1000.0000000000000 -20954440.076032490 1996379.5975397527 -24516561.761321496 -5.5560678358546673e-05 -0.0011402198494192203 -0.0038028944270786275 2.4000000002853739 -0.60000000007325027 -6.3251733982504685 
4000.0000000000000 9000.0000000000000 -1000.0000000000000 -20954440.076241847 1996379.5970791318 -24516561.761836085 -2.9460863828827011e-05 -0.00070120228058386143 -0.0037702802288201898 2.4000000002839861 -0.30000000003355159 -6.3251733982002403 
4000.0000000000000 8000.0000000000000 -833.33333333329995 -19802205.677351866 3148613.9972796547 -20431367.073118165 -6.4566775263183801e-05 -0.0010423230931355344 -0.0033467559236097242 2.4000000004133359 -0.60000000009825172 -6.4024932430012154 
4000.0000000000000 9000.0000000000000 -833.33333333329995 -19802205.677578628 3148613.9966978277 -20431367.073591769 -3.4164805324328870e-05 -0.00063625467548900094 -0.0033174222978417881 2.4000000004117310 -0.30000000004487837 -6.4024932429524331 
4000.0000000000000 8000.0000000000000 -666.66666666670005 -18649868.152893394 4300951.5229173182 -16345806.756567560 -7.4909498837204464e-05 -0.00091758371000971316 -0.0028163979216324869 2.4000000005471196 -0.60000000012168753 -6.4649032057852462 
4000.0000000000000 9000.0000000000000 -666.66666666670005 -18649868.153136972 4300951.5221965183 -16345806.756982543 -3.9700726707177117e-05 -0.00055568592562289082 -0.0027908822343882624 2.4000000005452584 -0.30000000005524136 -6.4649032057375280 
4000.0000000000000 8000.0000000000000 -500.00000000000000 -17497427.493441075 5453392.1836805968 -12259880.778928006 -8.6915466200076228e-05 -0.00076197053138791365 -0.0022153458417023190 2.4000000006869810 -0.60000000014333332 -6.5124019521553427 
4000.0000000000000 9000.0000000000000 -500.00000000000000 -17497427.493701085 5453392.1828012466 -12259880.779266927 -4.6266890098034965e-05 -0.00045747709324128565 -0.0021943091258253152 2.4000000006848130 -0.30000000006451494 -6.5124019521082150 
4000.0000000000000 8000.0000000000000 -333.33333333330000 -16344883.689779926 6605935.9887957536 -8173589.1074620271 -0.00010092766407726162 -0.00057107027261368533 -0.0015493684641925327 2.4000000008331348 -0.60000000016294119 -6.5449881475446778 
4000.0000000000000 9000.0000000000000 -333.33333333330000 -16344883.690056199 6605935.9877364691 -8173589.1077075619 -5.4067553239610810e-05 -0.00033944441979132182 -0.0015336542811834985 2.4000000008305995 -0.30000000007256200 -6.5449881474975786 
4000.0000000000000 8000.0000000000000 -166.66666666670000 -15192236.732693892 7758582.9474886041 -4086931.7094329190 -0.00011731313631850375 -0.00034009489943745522 -0.00082677519620147832 2.4000000009857505 -0.60000000018023691 -6.5626604572669729 
4000.0000000000000 9000.0000000000000 -166.66666666670000 -15192236.732986441 7758582.9462261498 -4086931.7095679860 -6.3316133286216890e-05 -0.00019922747439315037 -0.00081745287655607163 2.4000000009827733 -0.30000000007923161 -6.5626604572192599 
4000.0000000000000 8000.0000000000000 0.0000000000000000 -14615887.464642461 8334932.2163827224 -2043511.5746853170 -0.00012614657041686817 -0.00021396566021726390 -0.00045253543359807395 2.4000000011449587 -0.60000000019491528 -6.5654175465165245 
4000.0000000000000 9000.0000000000000 0.0000000000000000 -14615887.464943193 8334932.2150126360 -2043511.5747609409 -6.8329653173877428e-05 -0.00012326555968338469 -0.00044669798801288973 2.4000000011414522 -0.30000000008435712 -6.5654175464674678 
3000.0000000000000 6000.0000000000000 -1333.3333333329999 -23258599.530965794 -307779.85939468048 -32685854.377262469 -7.5699103644924235e-05 -0.00026441414412303380 -0.0072273103859421418 2.8000000000190184 -1.2000000000438404 -6.1258093993921943 
3000.0000000000000 7000.0000000000000 -1333.3333333329999 -23258599.531053971 -307779.85937470128 -32685854.377590403 -6.0583927408968671e-05 -0.0012145589739741211 -0.0071176280201732528 2.8000000000165910 -0.90000000003080705 -6.1258093991253482 
4000.0000000000000 7000.0000000000000 -1333.3333333329999 -23258599.532738235 -307779.86090514471 -32685854.382955775 -5.3179193155643627e-05 -0.0011386973632396748 -0.0045427774982184687 2.4000000000473327 -0.90000000003311242 -6.1258094001763617 
4000.0000000000000 6000.0000000000000 -1333.3333333329999 -23258599.532691948 -307779.86092454341 -32685854.382539444 -6.0310033751159599e-05 -0.00016141356998698790 -0.0046110550606018120 2.4000000000492765 -1.2000000000468007 -6.1258094004524022 
3000.0000000000000 6000.0000000000000 -1500.0000000000000 -24410524.608239572 -1459704.9369511008 -36769952.376519129 -6.3199813358515091e-05 -0.00022347604200564003 -0.0074480614188130690 2.7999999999058600 -1.1999999999800195 -6.0037679142560014 
3000.0000000000000 7000.0000000000000 -1500.0000000000000 -24410524.608291544 -1459704.9368865197 -36769952.376725301 -5.1124791981763062e-05 -0.0012340576724199151 -0.0073280909353236863 2.7999999999037404 -0.89999999998546820 -6.0037679139875522 
4000.0000000000000 7000.0000000000000 -1500.0000000000000 -24410524.609412763 -1459704.9384059608 -36769952.382586956 -4.2965494569602766e-05 -0.0011518724816745980 -0.0047762430371733377 2.3999999999348063 -0.89999999998749558 -6.0037679150168222 
4000.0000000000000 6000.0000000000000 -1500.0000000000000 -24410524.609401714 -1459704.9384670176 -36769952.382279076 -4.7190314395288944e-05 -0.00011062447469302653 -0.0048507671203980316 2.3999999999364046 -1.1999999999826139 -6.0037679152950796 
3000.0000000000000 6000.0000000000000 -1166.6666666670001 -22106571.355532788 844248.31641867314 -28601390.847970493 -8.8789220240722300e-05 -0.00030379671189015317 -0.0068890965036792840 2.8000000001397356 -1.2000000001078037 -6.2329450051885456 
3000.0000000000000 7000.0000000000000 -1166.6666666670001 -22106571.355654825 844248.31637076277 -28601390.848386914 -7.0605281822775964e-05 -0.0011796388951462156 -0.0067897376088420979 2.8000000001369818 -0.90000000007533376 -6.2329450049236055 
4000.0000000000000 7000.0000000000000 -1166.6666666670001 -22106571.357939124 844248.31482804788 -28601390.853224739 -6.3892951875026735e-05 -0.0011103995129654780 -0.0042341367854181857 2.4000000001647961 -0.90000000007793202 -6.2329450059934421 
4000.0000000000000 6000.0000000000000 -1166.6666666670001 -22106571.357860271 844248.31487324799 -28601390.852734696 -7.3931771136201397e-05 -0.00021081201769677588 -0.0042960673771841075 2.4000000001671009 -1.2000000001111426 -6.2329450062670428 
3000.0000000000000 6000.0000000000000 -1000.0000000000000 -20954440.072720543 1996379.5997255947 -24516561.755900912 -0.00010294158905275386 -0.00033739382939784236 -0.0064217677785152732 2.8000000002688070 -1.2000000001717657 -6.3251733975580757 
3000.0000000000000 7000.0000000000000 -1000.0000000000000 -20954440.072874945 1996379.5995824290 -24516561.756371878 -8.1602784429426507e-05 -0.0011252262762186166 -0.0063328325544417148 2.8000000002656935 -0.90000000011883619 -6.3251733972951731 
4000.0000000000000 7000.0000000000000 -1000.0000000000000 -20954440.075794347 1996379.5980278892 -24516561.760645285 -7.5409369776712176e-05 -0.0010629899194445221 -0.0038491744188497031 2.4000000002875193 -0.90000000012175962 -6.3251733983807252 
4000.0000000000000 6000.0000000000000 -1000.0000000000000 -20954440.075685170 1996379.5981646809 -24516561.760116398 -8.8345921729185607e-05 -0.00025468128427103622 -0.0039046178491025387 2.4000000002902095 -1.2000000001755138 -6.3251733986518417 
3000.0000000000000 6000.0000000000000 -833.33333333329995 -19802205.673315655 3148613.9997587921 -20431367.068323243 -0.00011872035832401581 -0.00036019195028866129 -0.0058130099760339993 2.8000000004070804 -1.2000000002355602 -6.4024932422922154 
3000.0000000000000 7000.0000000000000 -833.33333333329995 -19802205.673501812 3148613.9994887183 -20431367.068813898 -9.4047540026963146e-05 -0.0010466446344037468 -0.0057347882190783173 2.8000000004035530 -0.90000000016108495 -6.4024932420312988 
4000.0000000000000 7000.0000000000000 -833.33333333329995 -19802205.677087579 3148613.9979247535 -20431367.072481304 -8.8058970225347413e-05 -0.00099192340388184076 -0.0033879248213765653 2.4000000004158157 -0.90000000016438109 -6.4024932431292640 
4000.0000000000000 6000.0000000000000 -833.33333333329995 -19802205.676949926 3148613.9981844565 -20431367.071948629 -0.00010388591796693097 -0.00028817917395182257 -0.0034366189403620324 2.4000000004189315 -1.2000000002397704 -6.4024932433980357 
3000.0000000000000 6000.0000000000000 -666.66666666670005 -18649868.148108985 4300951.5257499171 -16345806.752507810 -0.00013679416683730984 -0.00036629633622430470 -0.0050502476979558727 2.8000000005554360 -1.2000000002989966 -6.4649032050638358 
3000.0000000000000 7000.0000000000000 -666.66666666670005 -18649868.148327127 4300951.5253167925 -16345806.752982069 -0.00010846113258492166 -0.00093855185093245420 -0.0049832942563558767 2.8000000005514201 -0.90000000020182447 -6.4649032048046724 
4000.0000000000000 7000.0000000000000 -666.66666666670005 -18649868.152603999 4300951.5237480924 -16345806.755998494 -0.00010219703147060805 -0.00089206169084706378 -0.0028518783405265726 2.4000000005499853 -0.90000000020556203 -6.4649032059115674 
4000.0000000000000 6000.0000000000000 -666.66666666670005 -18649868.152439423 4300951.5241666296 -16345806.755497318 -0.00012092802472895997 -0.00030567958281718340 -0.0028934244040133054 2.4000000005535775 -1.2000000003037445 -6.4649032061783185 
3000.0000000000000 6000.0000000000000 -500.00000000000000 -17497427.487893622 5453392.1869320823 -12259880.775715878 -0.00015794508462571620 -0.00034889527321502786 -0.0041212484693728688 2.8000000007147707 -1.2000000003618465 -6.5124019514262290 
3000.0000000000000 7000.0000000000000 -500.00000000000000 -17497427.488144979 5453392.1862949673 -12259880.776136510 -0.00012541769249072447 -0.00079494948841643239 -0.0040665052576516923 2.8000000007101638 -0.90000000024077043 -6.5124019511683793 
4000.0000000000000 7000.0000000000000 -500.00000000000000 -17497427.493127361 5453392.1847290155 -12259880.778455259 -0.00011820524599862727 -0.00075767846270052971 -0.0022443878381922509 2.4000000006902962 -0.90000000024503835 -6.5124019522805643 
4000.0000000000000 6000.0000000000000 -500.00000000000000 -17497427.492937166 5453392.1853472162 -12259880.778021079 -0.00013989831868069724 -0.00030074785151097639 -0.0022781521683351998 2.4000000006944320 -1.2000000003672364 -6.5124019525458028 
3000.0000000000000 6000.0000000000000 -333.33333333330000 -16344883.683468902 6605935.9925363818 -8173589.1052111089 -0.00018308708106800137 -0.00030022491975233503 -0.0030151088795001371 2.8000000008859605 -1.2000000004238396 -6.5449881468130195 
3000.0000000000000 7000.0000000000000 -333.33333333330000 -16344883.683755714 6605935.9916493557 -8173589.1055393443 -0.00014555081167111892 -0.00060915878926708338 -0.0029740737573958173 2.8000000008806327 -0.90000000027760418 -6.5449881465558368 
4000.0000000000000 7000.0000000000000 -333.33333333330000 -16344883.689442471 6605935.9900971558 -8173589.1071141409 -0.00013649766885558248 -0.00058244985477275439 -0.0015709794406362023 2.4000000008369784 -0.90000000028251559 -6.5449881476695726 
4000.0000000000000 6000.0000000000000 -333.33333333330000 -16344883.689227894 6605935.9909609696 -8173589.1067827968 -0.00016127660232940428 -0.00026610635626510873 -0.0015960261771149401 2.4000000008417426 -1.2000000004300089 -6.5449881479340082 
3000.0000000000000 6000.0000000000000 -166.66666666670000 -15192236.725639779 7758582.9517927831 -4086931.7082555611 -0.00021329023475654473 -0.00021144307112826640 -0.0017238446291474258 2.8000000010698076 -1.2000000004846543 -6.5626604565383166 
3000.0000000000000 7000.0000000000000 -166.66666666670000 -15192236.725965377 7758582.9506047498 -4086931.7084508454 -0.00016954506892339664 -0.00037377265864745876 -0.0016987168968788300 2.8000000010635882 -0.90000000031196570 -6.5626604562809225 
4000.0000000000000 7000.0000000000000 -166.66666666670000 -15192236.732333077 7758582.9490818176 -4086931.7092383164 -0.00015752386624967547 -0.00035940198097905848 -0.00083963611401322122 2.4000000009902176 -0.90000000031765903 -6.5626604573924689 
4000.0000000000000 6000.0000000000000 -166.66666666670000 -15192236.732095420 7758582.9502425799 -4086931.7090459280 -0.00018559928358905550 -0.00019355548489129418 -0.00085464766236382833 2.4000000009957145 -1.2000000004917799 -6.5626604576570040 
3000.0000000000000 6000.0000000000000 0.0000000000000000 -14615887.457225000 8334932.2209877735 -2043511.5740724094 -0.00022980105572391771 -0.00015584628625461974 -0.0010311680788508827 2.8000000012669499 -1.2000000005439102 -6.5654175457966746 
3000.0000000000000 7000.0000000000000 0.0000000000000000 -14615887.457570979 8334932.2196357865 -2043511.5741908986 -0.00018259602933833996 -0.00024270869573417303 -0.0010146431047961084 2.8000000012596318 -0.90000000034344851 -6.5654175455379580 
4000.0000000000000 7000.0000000000000 0.0000000000000000 -14615887.464270039 8334932.2181319976 -2043511.5745744195 -0.00016877912549505592 -0.00023500905515734326 -0.00046064403834478136 2.4000000011501679 -0.90000000035008920 -6.5654175466436957 
4000.0000000000000 6000.0000000000000 0.0000000000000000 -14615887.464021182 8334932.2194547644 -2043511.5744605507 -0.00019856759406988120 -0.00014672021442304172 -0.00047024589274856799 2.4000000011565232 -1.2000000005522145 -6.5654175469094307 
5000.0000000000000 0.0000000000000000 -1333.3333333329999 -23258599.539851718 -307779.86764624994 -32685854.405339934 -2.1738781218203152e-05 0.0026614091243219950 -0.0016098439922129317 2.0000000000688094 -3.0000000000000000 -6.1258094055234231 
5000.0000000000000 1000.0000000000000 -1333.3333333329999 -23258599.539290365 -307779.86735078995 -32685854.402928047 -3.5205980219175603e-05 0.0046768249888877031 -0.0015738023931626106 2.0000000000679097 -2.6999999999909190 -6.1258094052243788 
6000.0000000000000 1000.0000000000000 -1333.3333333329999 -23258599.539978623 -307779.86759315233 -32685854.403144930 -5.4815980182817408e-05 0.0047798706015707076 0.00081887161508536468 1.6000000000627403 -2.6999999999934934 -6.1258094057572041 
6000.0000000000000 0.0000000000000000 -1333.3333333329999 -23258599.540562853 -307779.86789653840 -32685854.405436799 -3.4604489626122906e-05 0.0027885372722740403 0.00075722670948102986 1.6000000000642378 -3.0000000000000000 -6.1258094060665309 
5000.0000000000000 0.0000000000000000 -1500.0000000000000 -24410524.616113491 -1459704.9430580498 -36769952.407176971 -1.9616172195527958e-05 0.0026701321751001119 -0.0017970168339025163 1.9999999999686102 -3.0000000000000000 -6.0037679202731615 
5000.0000000000000 1000.0000000000000 -1500.0000000000000 -24410524.615581941 -1459704.9429639394 -36769952.404688895 -3.2010183923775712e-05 0.0047161766399522482 -0.0017555901881755613 1.9999999999677838 -2.6999999999467721 -6.0037679199860117 
6000.0000000000000 1000.0000000000000 -1500.0000000000000 -24410524.616213731 -1459704.9432391024 -36769952.405114636 -5.3476501720129886e-05 0.0048338046052257503 0.00075156225301808988 1.5999999999837209 -2.6999999999493309 -6.0037679205201249 
6000.0000000000000 0.0000000000000000 -1500.0000000000000 -24410524.616770767 -1459704.9433397839 -36769952.407483399 -3.3086044210309365e-05 0.0028062717538343503 0.00067982489430407599 1.5999999999851466 -3.0000000000000000 -6.0037679208184525 
5000.0000000000000 0.0000000000000000 -1166.6666666670001 -22106571.365488455 844248.30580917804 -28601390.873340875 -2.3617403094711040e-05 0.0026131919543147621 -0.0013976612946922800 2.0000000001710756 -3.0000000000000000 -6.2329450114190523 
5000.0000000000000 1000.0000000000000 -1166.6666666670001 -22106571.364894755 844248.30634226417 -28601390.871033881 -3.7866927280081976e-05 0.0045670376604622850 -0.0013668135072735180 2.0000000001701115 -2.7000000000394202 -6.2329450111086633 
6000.0000000000000 1000.0000000000000 -1166.6666666670001 -22106571.365604948 844248.30613101192 -28601390.871089026 -5.5064119179004867e-05 0.0046559019142834923 0.00087737186227276681 1.6000000001417602 -2.7000000000419568 -6.2329450116396918 
6000.0000000000000 0.0000000000000000 -1166.6666666670001 -22106571.366218157 844248.30558857834 -28601390.873277150 -3.5603405300870113e-05 0.0027308143930454267 0.00082554097199682682 1.6000000001433126 -3.0000000000000000 -6.2329450119594174 
5000.0000000000000 0.0000000000000000 -1000.0000000000000 -20954440.083797008 1996379.5865226004 -24516561.778403386 -2.5200979789854029e-05 0.0025174788420262045 -0.0011661440009450256 2.0000000002753868 -3.0000000000000000 -6.3251734038721636 
5000.0000000000000 1000.0000000000000 -1000.0000000000000 -20954440.083168339 1996379.5873366455 -24516561.776237186 -3.9918996509772716e-05 0.0043739697749471023 -0.0011401883286849539 2.0000000002743725 -2.7000000000929281 -6.3251734035511964 
6000.0000000000000 1000.0000000000000 -1000.0000000000000 -20954440.083857056 1996379.5871573954 -24516561.776175197 -5.4064766101998012e-05 0.0044493625946026016 0.00091994765399342577 1.6000000002205914 -2.7000000000953723 -6.3251734040801733 
6000.0000000000000 0.0000000000000000 -1000.0000000000000 -20954440.084501185 1996379.5863324287 -24516561.778226327 -3.5967421181399154e-05 0.0026251563918952307 0.00087745284417683892 1.6000000002221739 -3.0000000000000000 -6.3251734044094992 
5000.0000000000000 0.0000000000000000 -833.33333333329995 -19802205.685556617 3148613.9837002652 -20431367.087763898 -2.6472029099032225e-05 0.0023644928610623886 -0.00092249605675863563 2.0000000003816867 -3.0000000000000000 -6.4024932486731245 
5000.0000000000000 1000.0000000000000 -833.33333333329995 -19802205.684890259 3148613.9848470525 -20431367.085782781 -4.1306269847943016e-05 0.0040822597094401858 -0.00090104471131105784 2.0000000003806346 -2.7000000001521993 -6.4024932483426165 
6000.0000000000000 1000.0000000000000 -833.33333333329995 -19802205.685503136 3148613.9847040116 -20431367.085644666 -5.1681149430940802e-05 0.0041452433575605496 0.00093800922912923551 1.6000000002989911 -2.7000000001544922 -6.4024932488695336 
6000.0000000000000 0.0000000000000000 -833.33333333329995 -19802205.686180398 3148613.9835443124 -20431367.087518111 -3.5620332074029178e-05 0.0024618685462827598 0.00090416887430782417 1.6000000003005754 -3.0000000000000000 -6.4024932492074083 
5000.0000000000000 0.0000000000000000 -666.66666666670005 -18649868.161550090 4300951.5065425672 -16345806.768660678 -2.7495994731760531e-05 0.0021424110422308220 -0.00067571581250487124 2.0000000004898717 -3.0000000000000000 -6.4649032114935965 
5000.0000000000000 1000.0000000000000 -666.66666666670005 -18649868.160843071 4300951.5080841109 -16345806.766918169 -4.2032329827386167e-05 0.0036736219388487840 -0.00065832964200110140 2.0000000004887917 -2.7000000002180999 -6.4649032111549394 
6000.0000000000000 1000.0000000000000 -666.66666666670005 -18649868.161311973 4300951.5079856934 -16345806.766740493 -4.7853508214247274e-05 0.0037255466137235066 0.00092102406623995373 1.6000000003766375 -2.7000000002201885 -6.4649032116800242 
6000.0000000000000 0.0000000000000000 -666.66666666670005 -18649868.162025191 4300951.5064282333 -16345806.768387262 -3.4609217736262905e-05 0.0022291295533098440 0.00089498167724618371 1.6000000003781940 -3.0000000000000000 -6.4649032120250762 
5000.0000000000000 0.0000000000000000 -500.00000000000000 -17497427.502562173 5453392.1642455570 -12259880.788324790 -2.8513239644054881e-05 0.0018368442675392696 -0.00043691986744135808 2.0000000005997740 -3.0000000000000000 -6.5124019578854959 
5000.0000000000000 1000.0000000000000 -500.00000000000000 -17497427.501811177 5453392.1662561595 -12259880.786884535 -4.2223363528564055e-05 0.0031261283353765179 -0.00042323763315807119 2.0000000005986629 -2.7000000002916309 -6.5124019575405132 
6000.0000000000000 1000.0000000000000 -500.00000000000000 -17497427.502050303 5453392.1662162226 -12259880.786698503 -4.2685263786198541e-05 0.0031684900915914561 0.00085584892171246718 1.6000000004530883 -2.7000000002934819 -6.5124019580642161 
6000.0000000000000 0.0000000000000000 -500.00000000000000 -17497427.502803396 5453392.1641843431 -12259880.788060417 -3.3253062444564685e-05 0.0019123572270154186 0.00083669853432321315 1.6000000004546018 -3.0000000000000000 -6.5124019584146815 
5000.0000000000000 0.0000000000000000 -333.33333333330000 -16344883.699384024 6605935.9659964861 -8173589.1139910631 -3.0105078381880099e-05 0.0014303977572966290 -0.00021957157420634122 2.0000000007111467 -3.0000000000000000 -6.5449881532809231 
5000.0000000000000 1000.0000000000000 -333.33333333330000 -16344883.698585225 6605935.9685651828 -8173589.1129274089 -4.2229928033905276e-05 0.0024135347912160980 -0.00020953348394893266 2.0000000007099747 -2.7000000003739490 -6.5449881529319800 
6000.0000000000000 1000.0000000000000 -333.33333333330000 -16344883.698485719 6605935.9686047602 -8173589.1127580376 -3.6597426236045078e-05 0.0024475757678739350 0.00072570547532605661 1.6000000005277291 -2.7000000003755811 -6.5449881534549599 
6000.0000000000000 0.0000000000000000 -333.33333333330000 -16344883.699284488 6605935.9660043325 -8173589.1137668714 -3.2427844067148688e-05 0.0014934109543696436 0.00071280985693504854 1.6000000005292236 -3.0000000000000000 -6.5449881538085988 
5000.0000000000000 0.0000000000000000 -166.66666666670000 -15192236.742814211 7758582.9209729321 -4086931.7128952569 -3.3499792033471048e-05 0.00090223216818839235 -3.9689714411001222e-05 2.0000000008236540 -3.0000000000000000 -6.5626604629922909 
5000.0000000000000 1000.0000000000000 -166.66666666670000 -15192236.741962891 7758582.9242064981 -4086931.7122923890 -4.2809829701142504e-05 0.0015043822805339223 -3.4026132752580463e-05 2.0000000008223382 -2.7000000004663920 -6.5626604626423974 
6000.0000000000000 1000.0000000000000 -166.66666666670000 -15192236.741385864 7758582.9243560946 -4086931.7121585086 -3.0601755590603086e-05 0.0015301933462183756 0.00050856682968837812 1.6000000005996911 -2.7000000004679272 -6.5626604631655505 
6000.0000000000000 0.0000000000000000 -166.66666666670000 -15192236.742239458 7758582.9210699294 -4086931.7127360590 -3.4109093381160309e-05 0.00094945422722624744 0.00050222816277099575 1.6000000006012882 -3.0000000000000000 -6.5626604635195269 
5000.0000000000000 0.0000000000000000 0.0000000000000000 -14615887.475031685 8334932.1879141210 -2043511.5765611806 -3.5854210367973508e-05 0.00060488816717620825 3.8714904460785681e-05 2.0000000009368675 -3.0000000000000000 -6.5654175522122955 
5000.0000000000000 1000.0000000000000 0.0000000000000000 -14615887.474152790 8334932.1915092282 -2043511.5762108886 -4.3370843227945259e-05 0.00099637746414894032 4.1866561313872690e-05 2.0000000009352275 -2.7000000005705087 -6.5654175518651980 
6000.0000000000000 1000.0000000000000 0.0000000000000000 -14615887.473298032 8334932.1917228140 -2043511.5760987131 -2.7800669705730696e-05 0.0010178782152231790 0.00037510926275244002 1.6000000006677353 -2.7000000005722735 -6.5654175523897065 
6000.0000000000000 0.0000000000000000 0.0000000000000000 -14615887.474181864 8334932.1880611796 -2043511.5764398838 -3.5913224958560901e-05 0.00064303608722220238 0.00037229547484480532 1.6000000006697619 -3.0000000000000000 -6.5654175527404792 
5000.0000000000000 7000.0000000000000 -1333.3333333329999 -23258599.534110967 -307779.86171064468 -32685854.385243781 -1.9879021446280933e-05 -0.0011108001595495293 -0.0019645878474135324 2.0000000000638107 -0.90000000003428915 -6.1258094010183646 
5000.0000000000000 6000.0000000000000 -1333.3333333329999 -23258599.534071892 -307779.86173535167 -32685854.384826433 -8.4853677788032743e-06 -0.00014619306832834317 -0.0019373588763469470 2.0000000000641003 -1.2000000000478934 -6.1258094012978095 
5000.0000000000000 7000.0000000000000 -1500.0000000000000 -24410524.610474810 -1459704.9392373944 -36769952.385283433 -7.8728570788200067e-06 -0.0011219756553685612 -0.0021416900227917038 1.9999999999655313 -0.89999999998832769 -6.0037679158524195 
5000.0000000000000 6000.0000000000000 -1500.0000000000000 -24410524.610470738 -1459704.9393016270 -36769952.384973511 6.5257067193561244e-06 -9.4270254148946981e-05 -0.0021114346307761515 1.9999999999653644 -1.1999999999832811 -6.0037679161340867 
5000.0000000000000 7000.0000000000000 -1166.6666666670001 -22106571.359615549 844248.31404547230 -28601390.855125174 -3.2337680187070675e-05 -0.0010848119181783463 -0.0017589848185124359 2.0000000001642211 -0.90000000007946845 -6.2329450068398407 
5000.0000000000000 6000.0000000000000 -1166.6666666670001 -22106571.359544028 844248.31408323941 -28601390.854635015 -2.4003129401683230e-05 -0.00019701214303432285 -0.0017343247872885848 2.0000000001649814 -1.2000000001126765 -6.2329450071168475 
5000.0000000000000 7000.0000000000000 -1000.0000000000000 -20954440.077761520 1996379.5972661220 -24516561.762180559 -4.5227961229077060e-05 -0.0010400161225318639 -0.0015289169786531515 2.0000000002667844 -0.90000000012367465 -6.3251733992296773 
5000.0000000000000 6000.0000000000000 -1000.0000000000000 -20954440.077659659 1996379.5973933646 -24516561.761652358 -3.9865289760891685e-05 -0.00024256045108261766 -0.0015064466525700271 2.0000000002680269 -1.2000000001775062 -6.3251733995042052 
5000.0000000000000 7000.0000000000000 -833.33333333329995 -19802205.679325864 3148613.9971824749 -20431367.073676437 -5.8499955585895701e-05 -0.00097186157432687574 -0.0012793892094626427 2.0000000003715157 -0.90000000016669879 -6.4024932439791309 
5000.0000000000000 6000.0000000000000 -833.33333333329995 -19802205.679195352 3148613.9974305453 -20431367.073145013 -5.5846777622267834e-05 -0.00027795011247927319 -0.0012588344831041989 2.0000000003732410 -1.2000000002422395 -6.4024932442513167 
5000.0000000000000 7000.0000000000000 -666.66666666670005 -18649868.155086432 4300951.5230248179 -16345806.756881556 -7.2063292826381515e-05 -0.00087521320574958210 -0.0010163286170464282 2.0000000004784106 -0.90000000020830917 -6.4649032067609458 
5000.0000000000000 6000.0000000000000 -666.66666666670005 -18649868.154928539 4300951.5234297113 -16345806.756381834 -7.1641270810474822e-05 -0.00029750064656428190 -0.00099762801803795218 2.0000000004806142 -1.2000000003067084 -6.4649032070311119 
5000.0000000000000 7000.0000000000000 -500.00000000000000 -17497427.495819315 5453392.1840250706 -12259880.779057743 -8.5783115932426055e-05 -0.00074435481495543790 -0.00074650295299571198 2.0000000005874488 -0.90000000024824633 -6.5124019531283261 
5000.0000000000000 6000.0000000000000 -500.00000000000000 -17497427.495634999 5453392.1846276810 -12259880.778624853 -8.6852293684437312e-05 -0.00029469943917878182 -0.00072987010026934369 2.0000000005901124 -1.2000000003707114 -6.5124019533969761 
5000.0000000000000 7000.0000000000000 -333.33333333330000 -16344883.692302167 6605935.9894134877 -8173589.1074712658 -9.9470248426731682e-05 -0.00057296142641207685 -0.00047740262686356570 2.0000000006985901 -0.90000000028621829 -6.5449881485148911 
5000.0000000000000 6000.0000000000000 -333.33333333330000 -16344883.692092178 6605935.9902597936 -8173589.1071407478 -0.00010097585990481572 -0.00026214195047045210 -0.00046344657876573933 2.0000000007016800 -1.2000000004340079 -6.5449881487827302 
5000.0000000000000 7000.0000000000000 -166.66666666670000 -15192236.735313406 7758582.9484196305 -4086931.7093888423 -0.00011287279520799240 -0.00035407460197176748 -0.00021691176577988858 2.0000000008117698 -0.90000000032189298 -6.5626604582348289 
5000.0000000000000 6000.0000000000000 -166.66666666670000 -15192236.735078368 7758582.9495609235 -4086931.7091966365 -0.00011338452287303843 -0.00019149787523298125 -0.00020673910837015470 2.0000000008152341 -1.2000000004963083 -6.5626604585027497 
5000.0000000000000 7000.0000000000000 0.0000000000000000 -14615887.467298428 8334932.2174808420 -2043511.5746317951 -0.00011946779026386788 -0.00023185042763967394 -8.9819262640557863e-05 2.0000000009269012 -0.90000000035489547 -6.5654175474828653 
5000.0000000000000 6000.0000000000000 0.0000000000000000 -14615887.467051003 8334932.2187831337 -2043511.5745177642 -0.00011907387134314356 -0.00014555925162543457 -8.1875315544482333e-05 2.0000000009306644 -1.2000000005572689 -6.5654175477519710 
2000.0000000000000 10000.000000000000 -1333.3333333329999 -23258599.529935032 -307779.85799527948 -32685854.371341757 -5.2950858761767998e-06 -0.00045691027545592623 -0.0086763607946281178 3.1999999999913054 0.0000000000000000 -6.1258093977872949 
2000.0000000000000 9000.0000000000000 -1333.3333333329999 -23258599.529860411 -307779.85788584495 -32685854.371140700 -1.0333347197010289e-05 -0.00083578827244931415 -0.0086825499671732038 3.1999999999914657 -0.30000000000719768 -6.1258093977984638 
1000.0000000000000 9000.0000000000000 -1333.3333333329999 -23258599.528643083 -307779.85613684717 -32685854.364383806 -1.3348041599683499e-06 -0.00084255621844152220 -0.0066050578767177896 3.5999999999883210 -0.30000000000709864 -6.1258093967853622 
1000.0000000000000 10000.000000000000 -1333.3333333329999 -23258599.528716076 -307779.85624844697 -32685854.364589676 -1.0952917083461759e-06 -0.00046122843553524269 -0.0066036183511668234 3.5999999999882939 0.0000000000000000 -6.1258093967748541 
2000.0000000000000 10000.000000000000 -1500.0000000000000 -24410524.607827988 -1459704.9353564885 -36769952.369939454 -3.4079476735301703e-06 -0.00047449885906251780 -0.0088355405582179782 3.1999999998982238 0.0000000000000000 -6.0037679126778727 
2000.0000000000000 9000.0000000000000 -1500.0000000000000 -24410524.607761338 -1459704.9352785242 -36769952.369744256 -6.6340722613222187e-06 -0.00086635307796331640 -0.0088417939525234079 3.1999999998983233 -0.29999999999382870 -6.0037679126897849 
1000.0000000000000 9000.0000000000000 -1500.0000000000000 -24410524.607178673 -1459704.9335981186 -36769952.362683430 1.7580038641019061e-06 -0.00087275610897035068 -0.0066955709565426503 3.5999999999349268 -0.29999999999386712 -6.0037679117064915 
1000.0000000000000 10000.000000000000 -1500.0000000000000 -24410524.607242759 -1459704.9336782657 -36769952.362885758 5.3137258081861538e-07 -0.00047872819176866062 -0.0066945876623771775 3.5999999999349610 0.0000000000000000 -6.0037679116952143 
2000.0000000000000 10000.000000000000 -1166.6666666670001 -22106571.353787135 844248.31756551273 -28601390.842699043 -7.2979282587013923e-06 -0.00043334235435969943 -0.0083876512808508125 3.2000000000925066 0.0000000000000000 -6.2329450035600109 
2000.0000000000000 9000.0000000000000 -1166.6666666670001 -22106571.353704788 844248.31771089241 -28601390.842498146 -1.4256530432279929e-05 -0.00079427979778533969 -0.0083936405119629867 3.2000000000927318 -0.30000000001990651 -6.2329450035704630 
1000.0000000000000 9000.0000000000000 -1166.6666666670001 -22106571.351746041 844248.31953513785 -28601390.836120792 -4.5126027409623370e-06 -0.00080105099652292308 -0.0064252946015350646 3.6000000000471464 -0.30000000001966615 -6.2329450025298110 
1000.0000000000000 10000.000000000000 -1166.6666666670001 -22106571.351827681 844248.31938762101 -28601390.836324252 -2.7533951527847726e-06 -0.00043753791683424030 -0.0064236708116036058 3.6000000000470567 0.0000000000000000 -6.2329450025200277 
2000.0000000000000 10000.000000000000 -1000.0000000000000 -20954440.070155323 1996379.6005525813 -24516561.751280230 -9.4522454737545403e-06 -0.00040295840773716838 -0.0079493882690992567 3.2000000002029054 0.0000000000000000 -6.3251733959091130 
2000.0000000000000 9000.0000000000000 -1000.0000000000000 -20954440.070065364 1996379.6007389226 -24516561.751085840 -1.8470655599145404e-05 -0.00074020966482704468 -0.0079550159560008160 3.2000000002031999 -0.30000000003184063 -6.3251733959189025 
1000.0000000000000 9000.0000000000000 -1000.0000000000000 -20954440.067237418 1996379.6026469567 -24516561.745176032 -7.7386414104533837e-06 -0.00074664306404810586 -0.0061393553159546470 3.6000000001122316 -0.30000000003145627 -6.3251733948534969 
1000.0000000000000 10000.000000000000 -1000.0000000000000 -20954440.067327537 1996379.6024585050 -24516561.745370910 -4.4223433961054288e-06 -0.00040683923498576727 -0.0061377915265045831 3.6000000001120802 0.0000000000000000 -6.3251733948443576 
2000.0000000000000 10000.000000000000 -833.33333333329995 -19802205.669816710 3148614.0001882990 -20431367.064366437 -1.1795779087740134e-05 -0.00036482583842762007 -0.0073380526815295527 3.2000000003237297 0.0000000000000000 -6.4024932406261632 
2000.0000000000000 9000.0000000000000 -833.33333333329995 -19802205.669719096 3148614.0004211748 -20431367.064185221 -2.3047698801582668e-05 -0.00067175464904125053 -0.0073431541387982899 3.2000000003240996 -0.30000000004287819 -6.4024932406353816 
1000.0000000000000 9000.0000000000000 -833.33333333329995 -19802205.665867675 3148614.0024244147 -20431367.058844339 -1.0971464588207915e-05 -0.00067753483658777891 -0.0057265060836637115 3.6000000001845658 -0.30000000004234900 -6.4024932395486340 
1000.0000000000000 10000.000000000000 -833.33333333329995 -19802205.665966205 3148614.0021894500 -20431367.059024252 -6.0769823369318954e-06 -0.00036822362083792164 -0.0057252169134037762 3.6000000001843562 0.0000000000000000 -6.4024932395400302 
2000.0000000000000 10000.000000000000 -666.66666666670005 -18649868.143552959 4300951.5256933030 -16345806.749240581 -1.4363836315200331e-05 -0.00031792385370043192 -0.0065261627702263986 3.2000000004563836 0.0000000000000000 -6.4649032033842495 
2000.0000000000000 9000.0000000000000 -666.66666666670005 -18649868.143447474 4300951.5259788483 -16345806.749079488 -2.8061619641314551e-05 -0.00058688330159050665 -0.0065305777975489939 3.2000000004568352 -0.30000000005288868 -6.4649032033930265 
1000.0000000000000 9000.0000000000000 -666.66666666670005 -18649868.138385441 4300951.5280919690 -16345806.744426884 -1.4168312731898860e-05 -0.00059174446533215698 -0.0051611152849905468 3.6000000002653545 -0.30000000005221511 -6.4649032022890793 
1000.0000000000000 10000.000000000000 -666.66666666670005 -18649868.138492424 4300951.5278043551 -16345806.744585264 -7.6896974861774066e-06 -0.00032070200373824481 -0.0051602540468841948 3.6000000002650907 0.0000000000000000 -6.4649032022808681 
2000.0000000000000 10000.000000000000 -500.00000000000000 -17497427.482149545 5453392.1862886650 -12259880.773177952 -1.7199346799340953e-05 -0.00026111213892180915 -0.0054816067385553627 3.2000000006024711 0.0000000000000000 -6.5124019497369243 
2000.0000000000000 9000.0000000000000 -500.00000000000000 -17497427.482035838 5453392.1866335385 -12259880.773044372 -3.3592017518842300e-05 -0.00048334645492689992 -0.0054851710254258355 3.2000000006030125 -0.30000000006173139 -6.5124019497454251 
1000.0000000000000 9000.0000000000000 -500.00000000000000 -17497427.475535169 5453392.1888746340 -12259880.769224668 -1.7288528260058013e-05 -0.00048709149307400365 -0.0044110618753672370 3.6000000003560801 -0.30000000006091593 -6.5124019486293250 
1000.0000000000000 10000.000000000000 -500.00000000000000 -17497427.475650728 5453392.1885277014 -12259880.769354660 -9.2339999712844854e-06 -0.00026317910065700698 -0.0044106940131239817 3.6000000003557679 0.0000000000000000 -6.5124019486213314 
2000.0000000000000 10000.000000000000 -333.33333333330000 -16344883.676401310 6605935.9911924386 -8173589.1034561340 -2.0342091581387655e-05 -0.00019315719194797339 -0.0041668139819100430 3.2000000007638270 0.0000000000000000 -6.5449881451181424 
2000.0000000000000 9000.0000000000000 -333.33333333330000 -16344883.676278893 6605935.9916038113 -8173589.1033578534 -3.9717064202291933e-05 -0.00035870062381294584 -0.0041693731600452050 3.2000000007644682 -0.30000000006925442 -6.5449881451265801 
1000.0000000000000 9000.0000000000000 -333.33333333330000 -16344883.668057594 6605935.9939970011 -8173589.1005421672 -2.0293296061449770e-05 -0.00036120347772856156 -0.0034353463497306062 3.6000000004585924 -0.30000000006830069 -6.5449881440044937 
1000.0000000000000 10000.000000000000 -333.33333333330000 -16344883.668181973 6605935.9935835032 -8173589.1006368361 -1.0683387901771263e-05 -0.00019446853780818324 -0.0034354477715116999 3.6000000004582411 0.0000000000000000 -6.5449881439965036 
2000.0000000000000 10000.000000000000 -166.66666666670000 -15192236.717115372 7758582.9496199936 -4086931.7073503733 -2.3827501980095160e-05 -0.00011272610229302467 -0.0025379072771607911 3.2000000009425404 0.0000000000000000 -6.5626604548423755 
2000.0000000000000 9000.0000000000000 -166.66666666670000 -15192236.716983691 7758582.9501054902 -4086931.7072956846 -4.6511748143344241e-05 -0.00021029590733051716 -0.0025393004936153782 3.2000000009432914 -0.30000000007529409 -6.5626604548510112 
1000.0000000000000 9000.0000000000000 -166.66666666670000 -15192236.706687480 7758582.9526850563 -4086931.7056810828 -2.3164277352049107e-05 -0.00021151552021682872 -0.0021807006944947280 3.6000000005752431 -0.30000000007420574 -6.5626604537304791 
1000.0000000000000 10000.000000000000 -166.66666666670000 -15192236.706821036 7758582.9521971941 -4086931.7057333579 -1.2028644587166592e-05 -0.00011329778010349123 -0.0021811427207211204 3.6000000005748629 0.0000000000000000 -6.5626604537222448 
2000.0000000000000 10000.000000000000 0.0000000000000000 -14615887.447939765 8334932.2183664739 -2043511.5736106276 -2.5661057538073322e-05 -6.9216102660474369e-05 -0.0016390129742160217 3.2000000011409697 0.0000000000000000 -6.5654175441045588 
2000.0000000000000 9000.0000000000000 0.0000000000000000 -14615887.447803294 8334932.2188909976 -2043511.5735798553 -5.0085978104470646e-05 -0.00012980831988369730 -0.0016397848017461886 3.2000000011418419 -0.30000000007967431 -6.5654175441137044 
1000.0000000000000 9000.0000000000000 0.0000000000000000 -14615887.436370751 8334932.2215738427 -2043511.5726184365 -2.4566509587140871e-05 -0.00013038702390189024 -0.0014760916855829211 3.6000000007091097 -0.30000000007845301 -6.5654175430039610 
1000.0000000000000 10000.000000000000 0.0000000000000000 -14615887.436508998 8334932.2210467802 -2043511.5726477322 -1.2676389601315407e-05 -6.9430263138269479e-05 -0.0014766499219525200 3.6000000007087101 0.0000000000000000 -6.5654175429951946 
8000.0000000000000 8000.0000000000000 -1333.3333333329999 -23258599.534868833 -307779.86180245463 -32685854.384721432 -1.4929712470695165e-05 -0.0012164858697857293 0.0013708987159351069 0.80000000002759541 -0.60000000002153808 -6.1258094019708036 
8000.0000000000000 9000.0000000000000 -1333.3333333329999 -23258599.535041135 -307779.86203911406 -32685854.385260932 -3.3947414231629894e-06 -0.00075303167813780430 0.0013870254387039187 0.80000000002749683 -0.30000000000985322 -6.1258094019093221 
9000.0000000000000 9000.0000000000000 -1333.3333333329999 -23258599.534758035 -307779.86182364530 -32685854.384601254 -3.2724371556171287e-06 -0.00074787030717383583 0.00087720056374497059 0.40000000001262409 -0.30000000000994759 -6.1258094019841201 
9000.0000000000000 8000.0000000000000 -1333.3333333329999 -23258599.534593925 -307779.86157886533 -32685854.384077817 -1.2856627103862308e-05 -0.0011908100308284373 0.00086217977440376662 0.40000000001278119 -0.60000000002207787 -6.1258094020474925 
8000.0000000000000 8000.0000000000000 -1500.0000000000000 -24410524.611241583 -1459704.9393498667 -36769952.385107495 -7.5546877244227311e-06 -0.0012507282111695430 0.0014147340977200306 0.79999999999240134 -0.59999999999200826 -6.0037679168088696 
8000.0000000000000 9000.0000000000000 -1500.0000000000000 -24410524.611397114 -1459704.9395094931 -36769952.385637209 9.1877863396848020e-07 -0.00077862254997043679 0.0014296464321295211 0.79999999999251914 -0.29999999999580496 -6.0037679167452769 
9000.0000000000000 9000.0000000000000 -1500.0000000000000 -24410524.611192264 -1459704.9393172916 -36769952.384987846 -8.4023411927398256e-07 -0.00077441831929397258 0.00090950430012811398 0.39999999999585073 -0.29999999999577742 -6.0037679168226230 
9000.0000000000000 8000.0000000000000 -1500.0000000000000 -24410524.611043878 -1459704.9391481418 -36769952.384477772 -8.8472886413664609e-06 -0.0012252660675162142 0.00089439591230579935 0.39999999999589392 -0.59999999999235321 -6.0037679168879876 
8000.0000000000000 8000.0000000000000 -1166.6666666670001 -22106571.360291794 844248.31394390529 -28601390.854351576 -2.2694119824971329e-05 -0.0011660003594315355 0.0013101374705101023 0.80000000006164185 -0.60000000005011855 -6.2329450077873201 
8000.0000000000000 9000.0000000000000 -1166.6666666670001 -22106571.360479720 844248.31361773715 -28601390.854883227 -7.9030178739182933e-06 -0.00071717686026669244 0.0013268867416664667 0.80000000006131633 -0.30000000002328675 -6.2329450077278228 
9000.0000000000000 9000.0000000000000 -1166.6666666670001 -22106571.360104214 844248.31385516340 -28601390.854234286 -5.8403346965380898e-06 -0.00071142204205122369 0.00083377146617322261 0.40000000002865516 -0.30000000002350863 -6.2329450078002164 
9000.0000000000000 8000.0000000000000 -1166.6666666670001 -22106571.359925754 844248.31418796745 -28601390.853715271 -1.7150285713745425e-05 -0.0011407273679553791 0.00081909740838039858 0.40000000002893327 -0.60000000005086462 -6.2329450078616935 
8000.0000000000000 8000.0000000000000 -1000.0000000000000 -20954440.078272276 1996379.5971242588 -24516561.761249576 -3.0954032774774995e-05 -0.0010963390576425630 0.0012291238790744841 0.80000000009435823 -0.60000000007757881 -6.3251734001717148 
8000.0000000000000 9000.0000000000000 -1000.0000000000000 -20954440.078475144 1996379.5966945169 -24516561.761756036 -1.2619184502218823e-05 -0.00066956937346626438 0.0012458805027545463 0.80000000009379568 -0.30000000003600985 -6.3251734001139912 
9000.0000000000000 9000.0000000000000 -1000.0000000000000 -20954440.077990986 1996379.5969531846 -24516561.761138536 -8.5700797521449643e-06 -0.00066359807584673498 0.00077745258918348811 0.40000000004383651 -0.30000000003636523 -6.3251734001842195 
9000.0000000000000 8000.0000000000000 -1000.0000000000000 -20954440.077799186 1996379.5973880871 -24516561.760641534 -2.1847999868147882e-05 -0.0010721411384345832 0.00076341933264394103 0.40000000004424491 -0.60000000007854704 -6.3251734002439912 
8000.0000000000000 8000.0000000000000 -833.33333333329995 -19802205.679575533 3148613.9969698200 -20431367.072679952 -3.9839837982977614e-05 -0.0010041873925812381 0.0011240583739994458 0.80000000012554806 -0.60000000010373478 -6.4024932449157088 
8000.0000000000000 9000.0000000000000 -833.33333333329995 -19802205.679793175 3148613.9964208114 -20431367.073144197 -1.7564985147180334e-05 -0.00060855381681318606 0.0011401861277878695 0.80000000012473638 -0.30000000004792010 -6.4024932448594578 
9000.0000000000000 9000.0000000000000 -833.33333333329995 -19802205.679181900 3148613.9967006501 -20431367.072578460 -1.1494612444394224e-05 -0.00060275309566057975 0.00070624344924114283 0.40000000005805353 -0.30000000004841559 -6.4024932449278671 
9000.0000000000000 8000.0000000000000 -833.33333333329995 -19802205.678977396 3148613.9972534482 -20431367.072120808 -2.7090821381466542e-05 -0.00098179461861303864 0.00069319044935137783 0.40000000005860314 -0.60000000010494647 -6.4024932449862044 
8000.0000000000000 8000.0000000000000 -666.66666666670005 -18649868.154967040 4300951.5227110432 -16345806.755908994 -4.9509739681157968e-05 -0.00088584237920342102 0.00099062655131078987 0.80000000015499473 -0.60000000012838572 -6.4649032076924939 
8000.0000000000000 9000.0000000000000 -666.66666666670005 -18649868.155199785 4300951.5220254483 -16345806.756314265 -2.2772826629789939e-05 -0.00053230795860797900 0.0010054572129983537 0.80000000015392103 -0.30000000005890687 -6.4649032076373345 
9000.0000000000000 9000.0000000000000 -666.66666666670005 -18649868.154440705 4300951.5223270152 -16345806.755820381 -1.4653485566903812e-05 -0.00052706809823852918 0.00061788872392362041 0.40000000007118025 -0.30000000005954996 -6.4649032077043689 
9000.0000000000000 8000.0000000000000 -666.66666666670005 -18649868.154223766 4300951.5230152411 -16345806.755419239 -3.3041894353656994e-05 -0.00086605455786399989 0.00060620709814703205 0.40000000007188508 -0.60000000012986809 -6.4649032077616377 
8000.0000000000000 8000.0000000000000 -500.00000000000000 -17497427.495209895 5453392.1835800875 -12259880.778195830 -6.0160326752763789e-05 -0.00073720230906228342 0.00082397777269266901 0.80000000018245920 -0.60000000015130972 -6.5124019540557176 
8000.0000000000000 9000.0000000000000 -500.00000000000000 -17497427.495458588 5453392.1827389346 -12259880.778525636 -2.8288495159796386e-05 -0.00043883747019067229 0.00083681620941684453 0.80000000018110662 -0.30000000006884969 -6.5124019540011782 
9000.0000000000000 9000.0000000000000 -500.00000000000000 -17497427.494528677 5453392.1830634680 -12259880.778123414 -1.8094241013492441e-05 -0.00043454761975760534 0.00050987571776446247 0.40000000008307796 -0.30000000006964878 -6.5124019540673945 
9000.0000000000000 8000.0000000000000 -500.00000000000000 -17497427.494299266 5453392.1839063838 -12259880.777795848 -3.9889829416236529e-05 -0.00072090043793150130 0.00050001408113291030 0.40000000008395503 -0.60000000015309718 -6.5124019541240425 
8000.0000000000000 8000.0000000000000 -333.33333333330000 -16344883.691067725 6605935.9888077741 -8173589.1068029767 -7.2038575259403281e-05 -0.00055374806004032629 0.00061873974556290903 0.80000000020767359 -0.60000000017226174 -6.5449881494394253 
8000.0000000000000 9000.0000000000000 -333.33333333330000 -16344883.691333786 6605935.9877903704 -8173589.1070412789 -3.4178392565949993e-05 -0.00032596590387474269 0.00062884063428759584 0.80000000020602080 -0.30000000007761640 -6.5449881493849560 
9000.0000000000000 9000.0000000000000 -333.33333333330000 -16344883.690207625 6605935.9881397961 -8173589.1067503858 -2.1871412605170992e-05 -0.00032301302204854000 0.00037941996616466334 0.40000000009359227 -0.30000000007858102 -6.5449881494510134 
9000.0000000000000 8000.0000000000000 -333.33333333330000 -16344883.689965352 6605935.9891584897 -8173589.1065130718 -4.7849505636426841e-05 -0.00054191130920520924 0.00037189020429400916 0.40000000009466197 -0.60000000017439670 -6.5449881495075752 
8000.0000000000000 8000.0000000000000 -166.66666666670000 -15192236.733303651 7758582.9476245213 -4086931.7089927820 -8.5464175916904640e-05 -0.00033054081908047227 0.00036904797829660432 0.80000000023033824 -0.60000000019096722 -6.5626604591582245 
8000.0000000000000 9000.0000000000000 -166.66666666670000 -15192236.733589051 7758582.9464084124 -4086931.7091240576 -4.0538300830566536e-05 -0.00019135661166034756 0.00037556439716083595 0.80000000022835516 -0.30000000008506134 -6.5626604591031832 
9000.0000000000000 9000.0000000000000 -166.66666666670000 -15192236.732238736 7758582.9467854081 -4086931.7089640214 -2.6040120403478892e-05 -0.00019011498980319342 0.00022343385698770952 0.40000000010255027 -0.30000000008620248 -6.5626604591698490 
9000.0000000000000 8000.0000000000000 -166.66666666670000 -15192236.731982915 7758582.9480027836 -4086931.7088333033 -5.7160880678864404e-05 -0.00032427094928992877 0.00021880687008440279 0.40000000010383541 -0.60000000019350297 -6.5626604592269562 
8000.0000000000000 8000.0000000000000 0.0000000000000000 -14615887.464861436 8334932.2165839961 -2043511.5743909227 -9.2609255518123079e-05 -0.00020835473345943317 0.00023232523820686105 0.80000000025011853 -0.60000000020712096 -6.5654175484072610 
8000.0000000000000 9000.0000000000000 0.0000000000000000 -14615887.465157073 8334932.2152626943 -2043511.5744648823 -4.3849793495089757e-05 -0.00011831731123470625 0.00023682157374950029 0.80000000024775975 -0.30000000009102512 -6.5654175483509283 
9000.0000000000000 9000.0000000000000 0.0000000000000000 -14615887.463687375 8334932.2156542484 -2043511.5743751153 -2.8229073976037085e-05 -0.00011802280759899613 0.00013865307263339173 0.40000000010975723 -0.30000000009235367 -6.5654175484190809 
9000.0000000000000 8000.0000000000000 0.0000000000000000 -14615887.463424586 8334932.2169769099 -2043511.5743017602 -6.2186015592600335e-05 -0.00020516126650463822 0.00013562819300667246 0.40000000011128145 -0.60000000021012212 -6.5654175484774528 
8000.0000000000000 7000.0000000000000 -1333.3333333329999 -23258599.534678616 -307779.86159083404 -32685854.384102587 -3.7477003994285060e-05 -0.0011000046552078432 0.0013211329683563962 0.80000000002834792 -0.90000000003517144 -6.1258094021161735 
7000.0000000000000 7000.0000000000000 -1333.3333333329999 -23258599.534911357 -307779.86184120260 -32685854.384912483 -1.5767953979675197e-05 -0.0011421551044740132 0.0011912003741592612 1.2000000000449154 -0.90000000003411773 -6.1258094019348723 
7000.0000000000000 8000.0000000000000 -1333.3333333329999 -23258599.535110474 -307779.86205158225 -32685854.385540966 -9.6775163160893759e-06 -0.0012320167812479707 0.0012002774777664376 1.2000000000445896 -0.60000000002126275 -6.1258094017933677 
8000.0000000000000 7000.0000000000000 -1500.0000000000000 -24410524.611077681 -1459704.9392247710 -36769952.384540275 -2.8798249741435049e-05 -0.0011135829335540872 0.0013627785929288955 0.79999999999288884 -0.89999999998805769 -6.0037679169567548 
7000.0000000000000 7000.0000000000000 -1500.0000000000000 -24410524.611225795 -1459704.9394435666 -36769952.385300778 -3.8119806536472184e-06 -0.0011581203424942987 0.0012056481734832197 1.1999999999890563 -0.89999999998733160 -6.0037679167724427 
7000.0000000000000 8000.0000000000000 -1500.0000000000000 -24410524.611396577 -1459704.9395662011 -36769952.385880470 -8.8413056033148405e-07 -0.0012650420334870823 0.0012137618743133967 1.1999999999890749 -0.59999999999202991 -6.0037679166282905 
8000.0000000000000 7000.0000000000000 -1166.6666666670001 -22106571.360077042 844248.31426165299 -28601390.853708789 -4.6733426906407883e-05 -0.0010728217918937392 0.0012630721056245962 0.80000000006267524 -0.90000000008155101 -6.2329450079301711 
7000.0000000000000 7000.0000000000000 -1166.6666666670001 -22106571.360415582 844248.31398230791 -28601390.854534082 -2.8271552331197232e-05 -0.0011121354028474804 0.0011620083972945212 1.2000000000998510 -0.90000000008015224 -6.2329450077519102 
7000.0000000000000 8000.0000000000000 -1166.6666666670001 -22106571.360641476 844248.31366445089 -28601390.855184026 -1.8838580328439232e-05 -0.0011820931036819549 0.0011715353309398337 1.2000000000991669 -0.60000000004953413 -6.2329450076130186 
8000.0000000000000 7000.0000000000000 -1000.0000000000000 -20954440.078034032 1996379.5975706000 -24516561.760610718 -5.6867240565472459e-05 -0.0010279935173937546 0.0011853476090806499 0.80000000009569505 -0.90000000012700010 -6.3251734003121891 
7000.0000000000000 7000.0000000000000 -1000.0000000000000 -20954440.078502748 1996379.5972638726 -24516561.761418018 -4.1357088353331762e-05 -0.0010639603137147830 0.0011137200209765750 1.2000000001536673 -0.90000000012523373 -6.3251734001368316 
7000.0000000000000 8000.0000000000000 -1000.0000000000000 -20954440.078754678 1996379.5968159626 -24516561.762061995 -2.8369738724148624e-05 -0.0011123162027243611 0.0011231666670071167 1.2000000001526112 -0.60000000007667242 -6.3251734000003790 
8000.0000000000000 7000.0000000000000 -833.33333333329995 -19802205.679314025 3148613.9975702073 -20431367.072073031 -6.8231573527906066e-05 -0.00096082766492500246 0.0010842471138319601 0.80000000012721884 -0.90000000017130433 -6.4024932450540826 
7000.0000000000000 7000.0000000000000 -833.33333333329995 -19802205.679940701 3148613.9972366006 -20431367.072829615 -5.5063770298631092e-05 -0.00099286956745549574 0.0010413225181093578 1.2000000002061506 -0.90000000016913972 -6.4024932448813212 
7000.0000000000000 8000.0000000000000 -833.33333333329995 -19802205.680218831 3148613.9966331450 -20431367.073439986 -3.8276261159012368e-05 -0.0010193571902922291 0.0010501846697489360 1.2000000002047087 -0.60000000010249244 -6.4024932447469940 
8000.0000000000000 7000.0000000000000 -666.66666666670005 -18649868.154681697 4300951.5234939652 -16345806.755362364 -8.1235105304972916e-05 -0.00086598310855203115 0.00095558088943411461 0.80000000015703943 -0.90000000021422455 -6.4649032078291970 
7000.0000000000000 7000.0000000000000 -666.66666666670005 -18649868.155497648 4300951.5231329259 -16345806.756035769 -6.9429943765190999e-05 -0.00089342256730600908 0.00093905706442813338 1.2000000002570597 -0.90000000021162230 -6.4649032076585522 
7000.0000000000000 8000.0000000000000 -666.66666666670005 -18649868.155803107 4300951.5223454162 -16345806.756584652 -4.8562611913236072e-05 -0.00089949982735866129 0.00094687447035620342 1.2000000002552194 -0.60000000012679100 -6.4649032075258983 
8000.0000000000000 7000.0000000000000 -500.00000000000000 -17497427.494899262 5453392.1845772089 -12259880.777738053 -9.6350260712249435e-05 -0.00073743731210489550 0.00079468037494046092 0.80000000018492934 -0.90000000025549132 -6.5124019541913336 
7000.0000000000000 7000.0000000000000 -500.00000000000000 -17497427.495939475 5453392.1841871124 -12259880.778295942 -8.4496058915551039e-05 -0.00075947138150571868 0.00080037517878874887 1.2000000003061209 -0.90000000025240212 -6.5124019540221392 
7000.0000000000000 8000.0000000000000 -500.00000000000000 -17497427.496274468 5453392.1831839187 -12259880.778755188 -5.9235519518008309e-05 -0.00074862831834691219 0.00080672076777046236 1.2000000003038684 -0.60000000014934340 -6.5124019538905511 
8000.0000000000000 7000.0000000000000 -333.33333333330000 -16344883.690729467 6605935.9900539899 -8173589.1064630346 -0.00011411848560045054 -0.00056844406778940233 0.00059640202179338795 0.80000000021063555 -0.90000000029480010 -6.5449881495746940 
7000.0000000000000 7000.0000000000000 -333.33333333330000 -16344883.692032589 6605935.9896321967 -8173589.1068729013 -0.00010030238539703242 -0.00058412054394649737 0.00061780759969024175 1.2000000003530189 -0.90000000029116223 -6.5449881494061000 
7000.0000000000000 8000.0000000000000 -333.33333333330000 -16344883.692400513 6605935.9883784764 -8173589.1072139191 -7.0307250329555007e-05 -0.00056220530910243785 0.00062233283849648282 1.2000000003503404 -0.60000000016989852 -6.5449881492748156 
8000.0000000000000 7000.0000000000000 -166.66666666670000 -15192236.732934542 7758582.9491580389 -4086931.7088001911 -0.00013515120584252664 -0.00035152376919400419 0.00035519689979820047 0.80000000023387607 -0.90000000033180438 -6.5626604592940510 
7000.0000000000000 7000.0000000000000 -166.66666666670000 -15192236.734542575 7758582.9487010892 -4086931.7090289034 -0.00011688716640005909 -0.00035969808148016093 0.00038294183195884462 1.2000000003973916 -0.90000000032754468 -6.5626604591249977 
7000.0000000000000 8000.0000000000000 -166.66666666670000 -15192236.734948190 7758582.9471586132 -4086931.7092226399 -8.1804183869868731e-05 -0.00033522578608330796 0.00038537632962132767 1.2000000003942721 -0.60000000018817146 -6.5626604589931077 
8000.0000000000000 7000.0000000000000 0.0000000000000000 -14615887.464475971 8334932.2182711465 -2043511.5742794198 -0.00014656446971131185 -0.00023009866630424995 0.00022314481046590553 0.80000000025434059 -0.90000000036611116 -6.5654175485447199 
7000.0000000000000 7000.0000000000000 0.0000000000000000 -14615887.466247356 8334932.2177956589 -2043511.5744091896 -0.00012537892077257019 -0.00023421165000932649 0.00025132170165807733 1.2000000004388280 -0.90000000036114536 -6.5654175483739490 
7000.0000000000000 8000.0000000000000 0.0000000000000000 -14615887.466673195 8334932.2160988115 -2043511.5745219635 -8.7663695704762846e-05 -0.00021094040567432205 0.00025265159892841072 1.2000000004352480 -0.60000000020383559 -6.5654175482403705 
8000.0000000000000 6000.0000000000000 -1333.3333333329999 -23258599.534611795 -307779.86164500553 -32685854.383817762 -5.9485271868959010e-05 -0.00015833389704863142 0.0012167561878536383 0.80000000003016691 -1.2000000000482165 -6.1258094024017362 
8000.0000000000000 5000.0000000000000 -1333.3333333329999 -23258599.534845319 -307779.86221076665 -32685854.384411681 -6.4326030448052303e-05 0.0016955494935443956 0.0010442132610431181 0.80000000003264671 -1.5000000000549241 -6.1258094028865226 
7000.0000000000000 5000.0000000000000 -1333.3333333329999 -23258599.535025332 -307779.86244325619 -32685854.385319158 -1.9926887486417064e-05 0.0015787663811497434 0.0011470885645605796 1.2000000000461055 -1.5000000000527984 -6.1258094026874437 
7000.0000000000000 6000.0000000000000 -1333.3333333329999 -23258599.534822956 -307779.86188989109 -32685854.384660460 -1.9930806749521365e-05 -0.00023688002596575382 0.0011730303371488447 1.2000000000454778 -1.2000000000463660 -6.1258094022135481 
8000.0000000000000 6000.0000000000000 -1500.0000000000000 -24410524.611041814 -1459704.9393158634 -36769952.384383492 -4.9361598305135962e-05 -0.00011276473254973392 0.0012496059688862540 0.79999999999445381 -1.1999999999821978 -6.0037679172437413 
8000.0000000000000 5000.0000000000000 -1500.0000000000000 -24410524.611301944 -1459704.9397960459 -36769952.385207467 -5.0774122945184665e-05 0.0018284786507791076 0.0010629132976772604 0.79999999999660509 -1.4999999999712847 -6.0037679177269574 
7000.0000000000000 5000.0000000000000 -1500.0000000000000 -24410524.611403305 -1459704.9399990165 -36769952.386074394 -4.8183139417142882e-06 0.0017031981594007441 0.0011606771392171577 1.1999999999893569 -1.4999999999696210 -6.0037679175236729 
7000.0000000000000 6000.0000000000000 -1500.0000000000000 -24410524.611170787 -1459704.9395302020 -36769952.385180689 -5.8202706036000036e-06 -0.00019773792529804556 0.0011873662586948355 1.1999999999892017 -1.1999999999807054 -6.0037679170520839 
8000.0000000000000 6000.0000000000000 -1166.6666666670001 -22106571.359981533 844248.31426752917 -28601390.853329469 -7.0404196548242443e-05 -0.00020445914562029446 0.0011676907733643210 0.80000000006477012 -1.2000000001144679 -6.2329450082139637 
8000.0000000000000 5000.0000000000000 -1166.6666666670001 -22106571.360191002 844248.31363497709 -28601390.853724387 -7.9032200856772198e-05 0.0015345179909597637 0.0010097304872743588 0.80000000006760608 -1.5000000001405576 -6.2329450086994163 
7000.0000000000000 5000.0000000000000 -1166.6666666670001 -22106571.360469889 844248.31337619759 -28601390.854635678 -3.5904011739536257e-05 0.0014269193262411199 0.0011198339881045728 1.2000000001019746 -1.5000000001379439 -6.2329450085044513 
7000.0000000000000 6000.0000000000000 -1166.6666666670001 -22106571.360295698 844248.31399494293 -28601390.854182735 -3.4766751978666184e-05 -0.00027622715026405574 0.0011444672475329762 1.2000000001008502 -1.2000000001122391 -6.2329450080292119 
8000.0000000000000 6000.0000000000000 -1000.0000000000000 -20954440.077911079 1996379.5976637336 -24516561.760171153 -8.2620256721466952e-05 -0.00024687752807062428 0.0010992810668983117 0.80000000009810257 -1.2000000001808189 -6.3251734005940285 
8000.0000000000000 5000.0000000000000 -1000.0000000000000 -20954440.078097783 1996379.5969879227 -24516561.760398850 -9.5477453142556106e-05 0.0013480320791046164 0.00095651024426379185 0.80000000010134531 -1.5000000002282263 -6.3251734010794172 
7000.0000000000000 5000.0000000000000 -1000.0000000000000 -20954440.078498431 1996379.5967053021 -24516561.761278160 -5.2836912001683273e-05 0.0012504342213079157 0.0010745733657710520 1.2000000001567726 -1.5000000002250857 -6.3251734008882901 
7000.0000000000000 6000.0000000000000 -1000.0000000000000 -20954440.078352068 1996379.5973653370 -24516561.761000868 -5.0398140988552397e-05 -0.00031141893226702540 0.0010973349045585998 1.2000000001551239 -1.2000000001781788 -6.3251734004125106 
8000.0000000000000 6000.0000000000000 -833.33333333329995 -19802205.679163758 3148613.9977821461 -20431367.071608253 -9.6739303118495659e-05 -0.00028048040817951194 0.0010080207963991303 0.80000000012999384 -1.2000000002471143 -6.4024932453339725 
8000.0000000000000 5000.0000000000000 -833.33333333329995 -19802205.679327566 3148613.9970918489 -20431367.071701504 -0.00011443989121085225 0.0011396298979143508 0.00088136433818386398 0.80000000013372141 -1.5000000003179577 -6.4024932458187402 
7000.0000000000000 5000.0000000000000 -833.33333333329995 -19802205.679875653 3148613.9967868887 -20431367.072514325 -7.0818098850773621e-05 0.0010530960261320441 0.0010062912905072509 1.2000000002102886 -1.5000000003142335 -6.4024932456310006 
7000.0000000000000 6000.0000000000000 -833.33333333329995 -19802205.679758564 3148613.9974587560 -20431367.072381228 -6.6901371638141907e-05 -0.00033719479748391666 0.0010266094169576903 1.2000000002080868 -1.2000000002440159 -6.4024932451553189 
8000.0000000000000 6000.0000000000000 -666.66666666670005 -18649868.154503085 4300951.5238608131 -16345806.754908400 -0.00011348146128097120 -0.00029925797609990011 0.00089001058667950142 0.80000000016025941 -1.2000000003131708 -6.4649032081073319 
8000.0000000000000 5000.0000000000000 -666.66666666670005 -18649868.154642299 4300951.5231905896 -16345806.754901344 -0.00013693453477674517 0.00091389075744597258 0.00078087736209036715 0.80000000016458295 -1.5000000004097560 -6.4649032085911164 
7000.0000000000000 5000.0000000000000 -666.66666666670005 -18649868.155366335 4300951.5228636898 -16345806.755614609 -8.9947537796092569e-05 0.00083983472241067308 0.00090922648026430756 1.2000000002622861 -1.5000000004053677 -6.4649032084061337 
7000.0000000000000 6000.0000000000000 -666.66666666670005 -18649868.155282002 4300951.5235121129 -16345806.755592264 -8.4357889269615064e-05 -0.00034732601970816507 0.00092651536695121718 1.2000000002594993 -1.2000000003095508 -6.4649032079309956 
8000.0000000000000 6000.0000000000000 -500.00000000000000 -17497427.494690023 5453392.1851398628 -12259880.777332122 -0.00013368937277631894 -0.00029623030543019072 0.00074097145987681186 0.80000000018869588 -1.2000000003787690 -6.5124019544681113 
8000.0000000000000 5000.0000000000000 -500.00000000000000 -17497427.494801179 5453392.1845306559 -12259880.777260613 -0.00016425715505569946 0.00067659228331848906 0.00065141409704638775 0.80000000019376594 -1.5000000005035923 -6.5124019549507484 
7000.0000000000000 5000.0000000000000 -500.00000000000000 -17497427.495732438 5453392.1841810029 -12259880.777842551 -0.00011033842055810997 0.00061690014968801196 0.00077678717190304315 1.2000000003124958 -1.5000000004984306 -6.5124019547677188 
7000.0000000000000 6000.0000000000000 -500.00000000000000 -17497427.495686706 5453392.1847643657 -12259880.777895153 -0.00010285624874759474 -0.00033456870374592182 0.00079047616856412221 1.2000000003090887 -1.2000000003745441 -6.5124019542933675 
8000.0000000000000 6000.0000000000000 -333.33333333330000 -16344883.690486081 6605935.9908582419 -8173589.1061440390 -0.00015833408450674274 -0.00026337389740619646 0.00055626229335758591 0.80000000021507689 -1.2000000004436451 -6.5449881498507310 
8000.0000000000000 5000.0000000000000 -333.33333333330000 -16344883.690563770 6605935.9903579801 -8173589.1060460433 -0.00019801946828822879 0.00043490098524025657 0.00048918532727659769 0.80000000022109208 -1.5000000005993941 -6.5449881503322853 
7000.0000000000000 5000.0000000000000 -333.33333333330000 -16344883.691736128 6605935.9899833780 -8173589.1064662524 -0.00013211518807969559 0.00039204514498713497 0.00060146384902882164 1.2000000003606053 -1.5000000005933143 -6.5449881501502309 
7000.0000000000000 6000.0000000000000 -333.33333333330000 -16344883.691737477 6605935.9904533103 -8173589.1065548165 -0.00012248343410716024 -0.00029058801068173955 0.00061097209934904363 1.2000000003565405 -1.2000000004387121 -6.5449881496766844 
8000.0000000000000 6000.0000000000000 -166.66666666670000 -15192236.732652159 7758582.9502547216 -4086931.7086089221 -0.00018851754294353917 -0.00019157787124624571 0.00033093456790031793 0.80000000023915141 -1.2000000005074829 -6.5626604595701945 
8000.0000000000000 5000.0000000000000 -166.66666666670000 -15192236.732688917 7758582.9499188047 -4086931.7085251897 -0.00024017580859911808 0.00019754695408290480 0.00029027687187437680 0.80000000024636519 -1.5000000006970322 -6.5626604600509637 
7000.0000000000000 5000.0000000000000 -166.66666666670000 -15192236.734138446 7758582.9495155625 -4086931.7087545679 -0.00015541708702306370 0.00017471593082211026 0.00037477025517253405 1.2000000004062554 -1.5000000006898497 -6.5626604598687441 
7000.0000000000000 6000.0000000000000 -166.66666666670000 -15192236.734198263 7758582.9498165529 -4086931.7088362598 -0.00014332132462130512 -0.00020589289468427561 0.00037952134628839955 1.2000000004014924 -1.2000000005017171 -6.5626604593957598 
8000.0000000000000 6000.0000000000000 0.0000000000000000 -14615887.464172699 8334932.2195273973 -2043511.5741624304 -0.00020513994140875712 -0.00014473674097629258 0.00020747936656580389 0.80000000026063633 -1.2000000005699054 -6.5654175488220652 
8000.0000000000000 5000.0000000000000 0.0000000000000000 -14615887.464186857 8334932.2192884646 -2043511.5740964082 -0.00026361910997298003 8.1148144702157513e-05 0.00018115565849015030 0.80000000026936824 -1.5000000007963110 -6.5654175493026203 
7000.0000000000000 5000.0000000000000 0.0000000000000000 -14615887.465784226 8334932.2188697895 -2043511.5742232527 -0.00016746800527886888 6.9227280718220905e-05 0.00024745881484501713 1.2000000004490337 -1.5000000007877894 -6.5654175491189246 
7000.0000000000000 6000.0000000000000 0.0000000000000000 -14615887.465876522 8334932.2190715056 -2043511.5742903077 -0.00015405283631811549 -0.00015210706625185867 0.00024968803893275819 1.2000000004435307 -1.2000000005631601 -6.5654175486459883 
5000.0000000000000 5000.0000000000000 -1333.3333333329999 -23258599.534339458 -307779.86227619584 -32685854.385230411 -2.6501369764893705e-06 0.0017451543534633795 -0.0018688141236689951 2.0000000000639826 -1.5000000000549853 -6.1258094017784099 
6000.0000000000000 6000.0000000000000 -1333.3333333329999 -23258599.534759559 -307779.86198057310 -32685854.385175005 1.4696441679889234e-05 -0.00020844224168293477 0.00018062395785763688 1.6000000000592569 -1.2000000000469992 -6.1258094018701490 
6000.0000000000000 5000.0000000000000 -1333.3333333329999 -23258599.534988157 -307779.86252555245 -32685854.385725763 2.1183563271340720e-05 0.0016329089076534565 0.00029195037291978898 1.6000000000581700 -1.5000000000537153 -6.1258094023459346 
5000.0000000000000 5000.0000000000000 -1500.0000000000000 -24410524.610767603 -1459704.9397613015 -36769952.385584772 1.2176983835639377e-05 0.0018868467469409518 -0.0020370377830087631 1.9999999999647444 -1.4999999999727640 -6.0037679166142928 
6000.0000000000000 6000.0000000000000 -1500.0000000000000 -24410524.611069340 -1459704.9395837139 -36769952.385571703 3.0754790838335706e-05 -0.00016433336198510358 0.00012156927900600580 1.5999999999811663 -1.1999999999818580 -6.0037679167064573 
6000.0000000000000 5000.0000000000000 -1500.0000000000000 -24410524.611328531 -1459704.9400457083 -36769952.386345305 3.6051378115125979e-05 0.0017640428826998576 0.00024535472946089336 1.5999999999795254 -1.4999999999710190 -6.0037679171808644 
5000.0000000000000 5000.0000000000000 -1166.6666666670001 -22106571.359785613 844248.31347978534 -28601390.854865465 -1.7910674827677923e-05 0.0015767951966236223 -0.0016712786531311293 2.0000000001653819 -1.5000000001391300 -6.2329450075971087 
6000.0000000000000 6000.0000000000000 -1166.6666666670001 -22106571.360296104 844248.31387068564 -28601390.854777977 -1.9781239476847384e-06 -0.00025208768327232968 0.00023811584703579784 1.6000000001374912 -1.2000000001123290 -6.2329450076883308 
6000.0000000000000 5000.0000000000000 -1166.6666666670001 -22106571.360496555 844248.31326168426 -28601390.855136905 5.7519160861905325e-06 0.0014748603079644035 0.00033778182603082897 1.6000000001369783 -1.5000000001383511 -6.2329450081646360 
5000.0000000000000 5000.0000000000000 -1000.0000000000000 -20954440.077878103 1996379.5967504277 -24516561.761743244 -3.3364832607690693e-05 0.0013842746887933709 -0.0014486488734116194 2.0000000002689506 -1.5000000002252527 -6.3251733999835684 
6000.0000000000000 6000.0000000000000 -1000.0000000000000 -20954440.078446314 1996379.5972100492 -24516561.761634722 -1.8971198263551866e-05 -0.00029097869421432118 0.00028917513195414728 1.6000000002157277 -1.2000000001777089 -6.3251734000742452 
6000.0000000000000 5000.0000000000000 -1000.0000000000000 -20954440.078619882 1996379.5965607979 -24516561.761833377 -9.8963372108176575e-06 0.0012925824141338574 0.00037784713706790027 1.6000000002157950 -1.5000000002249629 -6.3251734005503772 
5000.0000000000000 5000.0000000000000 -833.33333333329995 -19802205.679393016 3148613.9967764723 -20431367.073130306 -4.8648743708198364e-05 0.0011708174288596778 -0.0012062686459457625 2.0000000003746803 -1.5000000003133973 -6.4024932447294010 
6000.0000000000000 6000.0000000000000 -833.33333333329995 -19802205.679981358 3148613.9972738316 -20431367.073012568 -3.5900618400577475e-05 -0.00031999030860443999 0.00032819042762391584 1.6000000002938104 -1.2000000002429798 -6.4024932448195591 
6000.0000000000000 5000.0000000000000 -833.33333333329995 -19802205.680127990 3148613.9966134648 -20431367.073083218 -2.5241873429684580e-05 0.0010896708532513405 0.00040625460867983650 1.6000000002944428 -1.5000000003135714 -6.4024932452950036 
5000.0000000000000 5000.0000000000000 -666.66666666670005 -18649868.155107405 4300951.5227987077 -16345806.756295705 -6.3238233592710719e-05 0.00094045830686704038 -0.00095062532664764977 2.0000000004825433 -1.5000000004035934 -6.4649032075077226 
6000.0000000000000 6000.0000000000000 -666.66666666670005 -18649868.155673161 4300951.5232977578 -16345806.756180873 -5.2283268355810922e-05 -0.00033308921490278899 0.00034875238847687634 1.6000000003715533 -1.2000000003079527 -6.4649032075974313 
6000.0000000000000 5000.0000000000000 -666.66666666670005 -18649868.155791372 4300951.5226612743 -16345806.756157072 -3.9548362316481621e-05 0.00087074041355714085 0.00041615782629762728 1.6000000003727108 -1.5000000004041745 -6.4649032080718536 
5000.0000000000000 5000.0000000000000 -500.00000000000000 -17497427.495796755 5453392.1840605522 -12259880.778501859 -7.6413362441973164e-05 0.00069821073031503804 -0.00068926357683633495 2.0000000005924821 -1.5000000004958431 -6.5124019538721054 
6000.0000000000000 6000.0000000000000 -500.00000000000000 -17497427.496291831 5453392.1845195070 -12259880.778401624 -6.7529557654819129e-05 -0.00032329991627351082 0.00034364894554073902 1.6000000004487356 -1.2000000003724034 -6.5124019539614793 
6000.0000000000000 5000.0000000000000 -500.00000000000000 -17497427.496378534 5453392.1839483688 -12259880.778318591 -5.1824207741417646e-05 0.00064159617286922829 0.00039968911744780821 1.6000000004503454 -1.5000000004967353 -6.5124019544347505 
5000.0000000000000 5000.0000000000000 -333.33333333330000 -16344883.692238271 6605935.9898048025 -8173589.1070157820 -8.7216934425337277e-05 0.00045026869011650537 -0.00043079668015144282 2.0000000007044085 -1.5000000005901133 -6.5449881492565547 
6000.0000000000000 6000.0000000000000 -333.33333333330000 -16344883.692608904 6605935.9901754493 -8173589.1069404930 -8.0930342676978481e-05 -0.00028262445685580301 0.00030463485793435433 1.6000000005250850 -1.2000000004360627 -6.5449881493457251 
6000.0000000000000 5000.0000000000000 -333.33333333330000 -16344883.692659210 6605935.9897181885 -8173589.1068355571 -6.0784077128669065e-05 0.00040944756186054882 0.00034773833729536666 1.6000000005270389 -1.5000000005911731 -6.5449881498179341 
5000.0000000000000 5000.0000000000000 -166.66666666670000 -15192236.735210273 7758582.9492743472 -4086931.7091055824 -9.4416225003041615e-05 0.00020422126821997621 -0.00018452805768360620 2.0000000008182002 -1.5000000006863226 -6.5626604589756621 
6000.0000000000000 6000.0000000000000 -166.66666666670000 -15192236.735396260 7758582.9495016672 -4086931.7090627123 -9.1653531580792824e-05 -0.00020200001457341100 0.00022227424805423937 1.6000000006002624 -1.2000000004986104 -6.5626604590647455 
6000.0000000000000 5000.0000000000000 -166.66666666670000 -15192236.735403359 7758582.9492143365 -4086931.7089760615 -6.4829877929531657e-05 0.00018310711131433607 0.00024982407797840162 1.6000000006024062 -1.5000000006873491 -6.5626604595362243 
5000.0000000000000 5000.0000000000000 0.0000000000000000 -14615887.467176195 8334932.2185958680 -2043511.5744527909 -9.6942497296781047e-05 8.2708907050868709e-05 -6.5627862809114804e-05 2.0000000009336927 -1.5000000007843317 -6.5654175482245698 
6000.0000000000000 6000.0000000000000 0.0000000000000000 -14615887.467253948 8334932.2187369056 -2043511.5744275202 -9.6234159051746641e-05 -0.00015050400779892883 0.00016899912494587274 1.6000000006738406 -1.2000000005596676 -6.5654175483136710 
6000.0000000000000 5000.0000000000000 0.0000000000000000 -14615887.467237482 8334932.2185495254 -2043511.5743604477 -6.5404763356568954e-05 7.2594111711482583e-05 0.00018798002243095995 1.6000000006759696 -1.5000000007850562 -6.5654175487850051 
0.0000000000000000 4000.0000000000000 -1333.3333333329999 -23258599.528649058 -307779.85647861159 -32685854.362349123 1.5685439431971259e-05 0.0040667103507112164 -0.0039033677395586795 4.0000000000000000 -1.8000000000448706 -6.1258093979426889 
0.0000000000000000 5000.0000000000000 -1333.3333333329999 -23258599.527955055 -307779.85538337962 -32685854.360431645 2.3169371265864590e-05 0.0015436598925874052 -0.0040220840449689006 4.0000000000000000 -1.5000000000501661 -6.1258093972485126 
1000.0000000000000 5000.0000000000000 -1333.3333333329999 -23258599.528350409 -307779.85611230927 -32685854.363347918 1.6310136644910822e-05 0.0015017572004583069 -0.0065005582000658554 3.5999999999867596 -1.5000000000490745 -6.1258093976665569 
1000.0000000000000 4000.0000000000000 -1333.3333333329999 -23258599.529019997 -307779.85721157555 -32685854.365359057 1.1228122948049790e-05 0.0039985743955737087 -0.0063877525044473606 3.5999999999857910 -1.8000000000440559 -6.1258093983545354 
0.0000000000000000 4000.0000000000000 -1500.0000000000000 -24410524.607620396 -1459704.9338510912 -36769952.361236826 1.7623180042461697e-05 0.0042677995271506080 -0.0039080532481071701 4.0000000000000000 -1.7999999999528300 -6.0037679128776826 
0.0000000000000000 5000.0000000000000 -1500.0000000000000 -24410524.606904745 -1459704.9330214409 -36769952.358997479 2.8012011368963648e-05 0.0016738411916265080 -0.0040380971889509565 4.0000000000000000 -1.4999999999699751 -6.0037679121893621 
1000.0000000000000 5000.0000000000000 -1500.0000000000000 -24410524.607032370 -1459704.9337205179 -36769952.362052232 2.4906625426343644e-05 0.0016257251240272906 -0.0065649169575758351 3.5999999999322929 -1.4999999999687128 -6.0037679125929122 
1000.0000000000000 4000.0000000000000 -1500.0000000000000 -24410524.607723538 -1459704.9345527682 -36769952.364384927 1.7141485596854893e-05 0.0041949908661593214 -0.0064411812737780452 3.5999999999310650 -1.7999999999519749 -6.0037679132740829 
0.0000000000000000 4000.0000000000000 -1166.6666666670001 -22106571.351274680 844248.31918340619 -28601390.833656274 1.3265868989460320e-05 0.0038025297724519408 -0.0038413647889618046 4.0000000000000000 -1.8000000001409573 -6.2329450036720306 
0.0000000000000000 5000.0000000000000 -1166.6666666670001 -22106571.350600127 844248.32054401725 -28601390.832044624 1.7766314724761656e-05 0.0013893472080840404 -0.0039490247316541572 4.0000000000000000 -1.5000000001321681 -6.2329450029735041 
1000.0000000000000 5000.0000000000000 -1166.6666666670001 -22106571.351312470 844248.31978210108 -28601390.834787779 6.8551278997381878e-06 0.0013531640989883839 -0.0063426438481560491 3.6000000000467165 -1.5000000001312677 -6.2329450034048168 
1000.0000000000000 4000.0000000000000 -1166.6666666670001 -22106571.351962574 844248.31841628090 -28601390.836491153 4.4348909394982603e-06 0.0037392313474482776 -0.0062403729929040620 3.6000000000460455 -1.8000000001402028 -6.2329450040980623 
0.0000000000000000 4000.0000000000000 -1000.0000000000000 -20954440.066233270 1996379.6023824890 -24516561.742446229 1.0348423689182117e-05 0.0034731870051035365 -0.0037108447322869438 4.0000000000000000 -1.8000000002414109 -6.3251733959802889 
0.0000000000000000 5000.0000000000000 -1000.0000000000000 -20954440.065576583 1996379.6040049049 -24516561.741124041 1.1891953777441803e-05 0.0012135824560722251 -0.0038077545216147540 4.0000000000000000 -1.5000000002160088 -6.3251733952788118 
1000.0000000000000 5000.0000000000000 -1000.0000000000000 -20954440.066665627 1996379.6032053514 -24516561.743656121 -3.4228549326848688e-06 0.0011826268177534416 -0.0060742266332671846 3.6000000001129786 -1.5000000002153155 -6.3251733957219081 
1000.0000000000000 4000.0000000000000 -1000.0000000000000 -20954440.067297377 1996379.6015770820 -24516561.745065279 -3.3089619800209651e-06 0.0034149206362100787 -0.0059820464954016238 3.6000000001126411 -1.8000000002407357 -6.3251733964189549 
0.0000000000000000 4000.0000000000000 -833.33333333329995 -19802205.664257847 3148614.0023654872 -20431367.056020360 7.0909154892603448e-06 0.0030769681538690575 -0.0034982645680272399 4.0000000000000000 -1.8000000003465688 -6.4024932406606734 
0.0000000000000000 5000.0000000000000 -833.33333333329995 -19802205.663617998 3148614.0042418614 -20431367.054971024 5.7268730711024482e-06 0.0010198211699463202 -0.0035846084683709991 4.0000000000000000 -1.5000000003017038 -6.4024932399575345 
1000.0000000000000 5000.0000000000000 -833.33333333329995 -19802205.665157512 3148614.0033975681 -20431367.057251085 -1.4393618722629557e-05 0.00099368316343001256 -0.0056748221327754395 3.6000000001865162 -1.5000000003012270 -6.4024932404106361 
1000.0000000000000 4000.0000000000000 -833.33333333329995 -19802205.665770885 3148614.0015154937 -20431367.058379546 -1.1892825110514593e-05 0.0030240541861692991 -0.0055923773889178267 3.6000000001865393 -1.8000000003459851 -6.4024932411101201 
0.0000000000000000 4000.0000000000000 -666.66666666670005 -18649868.136075724 4300951.5283799786 -16345806.741690954 3.9269280581870600e-06 0.0026125931992215553 -0.0031868645690294540 4.0000000000000000 -1.8000000004567827 -6.4649032033880829 
0.0000000000000000 5000.0000000000000 -666.66666666670005 -18649868.135451891 4300951.5304972725 -16345806.740897000 -4.2225980999228996e-07 0.00081241790443080191 -0.0032625376316184197 4.0000000000000000 -1.5000000003892489 -6.4649032026844555 
1000.0000000000000 5000.0000000000000 -666.66666666670005 -18649868.137534045 4300951.5295982258 -16345806.742878439 -2.5798551119802416e-05 0.00079085205679169893 -0.0051193432858794748 3.6000000002685075 -1.5000000003889866 -6.4649032031454805 
1000.0000000000000 4000.0000000000000 -666.66666666670005 -18649868.138127804 4300951.5274765370 -16345806.743740251 -2.0919717715440764e-05 0.0025656613669973161 -0.0050465377769616142 3.6000000002688961 -1.8000000004562868 -6.4649032038461263 
0.0000000000000000 4000.0000000000000 -500.00000000000000 -17497427.472404752 5453392.1896762950 -12259880.766777102 1.7072296196560943e-06 0.0020793917354119578 -0.0027553634351816154 4.0000000000000000 -1.8000000005724122 -6.5124019497181909 
0.0000000000000000 5000.0000000000000 -500.00000000000000 -17497427.471795753 5453392.1920151161 -12259880.766219497 -6.0887852550493740e-06 0.00059673518345737932 -0.0028196327960011949 4.0000000000000000 -1.5000000004786105 -6.5124019490151195 
1000.0000000000000 5000.0000000000000 -500.00000000000000 -17497427.474537097 5453392.1910480224 -12259880.767845150 -3.7204868624130833e-05 0.00057978391577177368 -0.0043766053526769497 3.6000000003604002 -1.5000000004785483 -6.5124019494815917 
1000.0000000000000 4000.0000000000000 -500.00000000000000 -17497427.475108791 5453392.1887075845 -12259880.768455923 -2.9557377852424556e-05 0.0020396644877213430 -0.0043139601011619073 3.6000000003611352 -1.8000000005719718 -6.5124019501822508 
0.0000000000000000 4000.0000000000000 -333.33333333330000 -16344883.663948718 6605935.9955095714 -8173589.0986012695 1.8841900767021402e-06 0.0014773870072460633 -0.0021760812406303367 4.0000000000000000 -1.8000000006938195 -6.5449881450874692 
0.0000000000000000 5000.0000000000000 -333.33333333330000 -16344883.663352340 6605935.9980426626 -8173589.0982589126 -1.0589279590601779e-05 0.00037925005968691570 -0.0022270899535159995 4.0000000000000000 -1.5000000005697183 -6.5449881443858473 
1000.0000000000000 5000.0000000000000 -333.33333333330000 -16344883.666904816 6605935.9969881205 -8173589.0994621720 -4.7933896500966809e-05 0.00036737471330955450 -0.0034070582403353021 3.6000000004640045 -1.5000000005698229 -6.5449881448548002 
1000.0000000000000 4000.0000000000000 -333.33333333330000 -16344883.667450666 6605935.9944578940 -8173589.0998398224 -3.6333033927320560e-05 0.0014471220201523701 -0.0033562576614963018 3.6000000004650121 -1.8000000006933550 -6.5449881455544556 
0.0000000000000000 4000.0000000000000 -166.66666666670000 -15192236.701389160 7758582.9551437991 -4086931.7044805530 6.7605032109010655e-06 0.00080745570771006579 -0.0014117651430965094 4.0000000000000000 -1.8000000008213572 -6.5626604548133045 
0.0000000000000000 5000.0000000000000 -166.66666666670000 -15192236.700801110 7758582.9578342205 -4086931.7043296183 -1.2960409468579989e-05 0.00016767539296453247 -0.0014458697999690359 4.0000000000000000 -1.5000000006624579 -6.5626604541138596 
1000.0000000000000 5000.0000000000000 -166.66666666670000 -15192236.705369275 7758582.9566620402 -4086931.7050376050 -5.6985014595329107e-05 0.00016190873711648113 -0.0021593911506939921 3.6000000005816188 -1.5000000006626721 -6.5626604545817475 
1000.0000000000000 4000.0000000000000 -166.66666666670000 -15192236.705884142 7758582.9539806107 -4086931.7052033837 -3.8850006215872742e-05 0.00079057550747731317 -0.0021239961571555047 3.6000000005827526 -1.8000000008207202 -6.5626604552795431 
0.0000000000000000 4000.0000000000000 0.0000000000000000 -14615887.430417106 8334932.2245697388 -2043511.5718483711 1.0723492655383525e-05 0.00045568245259863013 -0.00097796891099204857 4.0000000000000000 -1.8000000009553541 -6.5654175440940250 
0.0000000000000000 5000.0000000000000 0.0000000000000000 -14615887.429831825 8334932.2273282381 -2043511.5717868600 -1.3473975264550485e-05 6.4411884527294173e-05 -0.0010024426088532895 4.0000000000000000 -1.5000000007566634 -6.5654175433972970 
1000.0000000000000 5000.0000000000000 0.0000000000000000 -14615887.434966801 8334932.2260880452 -2043511.5722282424 -6.0943558852561737e-05 6.2043885894063608e-05 -0.0014587522824064684 3.6000000007162547 -1.5000000007568979 -6.5654175438599003 
1000.0000000000000 4000.0000000000000 0.0000000000000000 -14615887.435464723 8334932.2233419660 -2043511.5722938774 -3.8676204775146364e-05 0.00044672911994514782 -0.0014322351800460137 3.6000000007172677 -1.8000000009543111 -6.5654175445551699 
7000.0000000000000 2000.0000000000000 -1333.3333333329999 -23258599.538582861 -307779.86657452094 -32685854.397297818 -6.6108769236364927e-06 0.0070647975754764090 0.0010945368492465263 1.2000000000474091 -2.4000000000061159 -6.1258094052722631 
6000.0000000000000 2000.0000000000000 -1333.3333333329999 -23258599.538543392 -307779.86665998265 -32685854.397684865 -6.5934127705584344e-05 0.0070936514889946931 0.00084771544752299715 1.6000000000595165 -2.4000000000038528 -6.1258094049615375 
7000.0000000000000 2000.0000000000000 -1500.0000000000000 -24410524.614928067 -1459704.9427667190 -36769952.399136096 2.0274948598808429e-06 0.0072170332518783900 0.0011042928914182851 1.1999999999894337 -2.3999999999283772 -6.0037679200613372 
6000.0000000000000 2000.0000000000000 -1500.0000000000000 -24410524.614836827 -1459704.9428191276 -36769952.399415866 -6.5165632764062342e-05 0.0072346903062958491 0.00080156367710003471 1.5999999999804901 -2.3999999999261146 -6.0037679197495004 
7000.0000000000000 2000.0000000000000 -1166.6666666670001 -22106571.364064556 844248.30777487520 -28601390.865475249 -1.5760769821132809e-05 0.0068071031311820558 0.0010721043341587358 1.2000000001045785 -2.4000000000903245 -6.2329450111303668 
6000.0000000000000 2000.0000000000000 -1166.6666666670001 -22106571.364107613 844248.30765886407 -28601390.865928084 -6.4993973205829664e-05 0.0068455822549962127 0.00088693421161532490 1.6000000001386174 -2.4000000000881214 -6.2329450108207434 
7000.0000000000000 2000.0000000000000 -1000.0000000000000 -20954440.082130849 1996379.5895217964 -24516561.770906389 -2.5396512485702576e-05 0.0064288578747431595 0.0010325840541087574 1.2000000001607527 -2.4000000001818766 -6.3251734035488756 
6000.0000000000000 2000.0000000000000 -1000.0000000000000 -20954440.082293615 1996379.5893756591 -24516561.771386839 -6.2177283168916657e-05 0.0064749220536279043 0.00091274141705126452 1.6000000002176127 -2.4000000001797992 -6.3251734032401519 
7000.0000000000000 2000.0000000000000 -833.33333333329995 -19802205.683541536 3148613.9879040215 -20431367.080842908 -3.5470862001857342e-05 0.0059125657990885287 0.00097084941855515774 1.2000000002157238 -2.4000000002817585 -6.4024932483193897 
6000.0000000000000 2000.0000000000000 -833.33333333329995 -19802205.683869101 3148613.9877254707 -20431367.081316944 -5.7223643563815721e-05 0.0059636398307116329 0.00091722777565664802 1.6000000002962713 -2.4000000002798774 -6.4024932480111891 
7000.0000000000000 2000.0000000000000 -666.66666666670005 -18649868.159054492 4300951.5121604744 -16345806.762539543 -4.5909425270991942e-05 0.0052379631267342099 0.00088099878792397945 1.2000000002692561 -2.4000000003910809 -6.4649032111149367 
6000.0000000000000 2000.0000000000000 -666.66666666670005 -18649868.159601856 4300951.5119438143 -16345806.762977419 -4.9700414955484201e-05 0.0052908205376275066 0.00089059973975167479 1.6000000003742765 -2.4000000003894759 -6.4649032108067450 
7000.0000000000000 2000.0000000000000 -500.00000000000000 -17497427.499421734 5453392.1715348316 -12259880.783245036 -5.6599109508861890e-05 0.0043815419440082640 0.00075630654009880519 1.2000000003210809 -2.4000000005110995 -6.5124019574889607 
6000.0000000000000 2000.0000000000000 -500.00000000000000 -17497427.500256822 5453392.1712698434 -12259880.783621291 -3.8854244852055512e-05 0.0044321223637099078 0.00082048379649970983 1.6000000004511923 -2.4000000005098716 -6.5124019571801606 
7000.0000000000000 2000.0000000000000 -333.33333333330000 -16344883.695390306 6605935.9752740590 -8173589.1102130245 -6.7374055944344611e-05 0.0033160499517235894 0.00058919328540974327 1.2000000003708837 -2.4000000006432285 -6.5449881528752849 
6000.0000000000000 2000.0000000000000 -333.33333333330000 -16344883.696598677 6605935.9749442339 -8173589.1105062440 -2.3349251209421455e-05 0.0033591875623466402 0.00069088322880355932 1.6000000005264039 -2.4000000006425188 -6.5449881525652023 
7000.0000000000000 2000.0000000000000 -166.66666666670000 -15192236.737698173 7758582.9326316891 -4086931.7106991773 -7.7991235550508209e-05 0.0020100305124017824 0.00037119451252859301 1.2000000004182958 -2.4000000007890492 -6.5626604625883136 
6000.0000000000000 2000.0000000000000 -166.66666666670000 -15192236.739390245 7758582.9322116440 -4086931.7108904980 -8.1289474232274800e-07 0.0020387665078251791 0.00048055240913553998 1.6000000005990402 -2.4000000007890900 -6.5626604622762139 
7000.0000000000000 2000.0000000000000 0.0000000000000000 -14615887.469278416 8334932.2008723700 -2043511.5752286389 -8.3223819768083195e-05 0.0012926813642450401 0.00024836064110390855 1.2000000004628659 -2.4000000009502980 -6.5654175518230593 
6000.0000000000000 2000.0000000000000 0.0000000000000000 -14615887.471243618 8334932.2003995497 -2043511.5753645282 1.2592345881425949e-05 0.0013121921155530999 0.00035215733595276444 1.6000000006678585 -2.4000000009515254 -6.5654175515081459 
8000.0000000000000 2000.0000000000000 -1333.3333333329999 -23258599.538444467 -307779.86638625781 -32685854.396489762 5.8552471628625461e-05 0.0071017530953052452 0.00033979165122799865 0.80000000003373528 -2.4000000000042756 -6.1258094055238850 
9000.0000000000000 2000.0000000000000 -1333.3333333329999 -23258599.538315874 -307779.86623831355 -32685854.395813845 5.2950060329071823e-05 0.0071673134454227289 9.1561210196711870e-05 0.40000000001691249 -2.4000000000012638 -6.1258094056950920 
9000.0000000000000 1000.0000000000000 -1333.3333333329999 -23258599.539739136 -307779.86715880461 -32685854.401579775 4.7015577399729445e-05 0.0046788042132839304 9.2583009646820958e-05 0.40000000001441810 -2.6999999999909692 -6.1258094064902870 
8000.0000000000000 2000.0000000000000 -1500.0000000000000 -24410524.614849240 -1459704.9426022782 -36769952.398410685 7.5227150078210848e-05 0.0072452032626635883 0.00035161677966021645 0.79999999999567428 -2.3999999999260027 -6.0037679203169327 
9000.0000000000000 2000.0000000000000 -1500.0000000000000 -24410524.614758015 -1459704.9424631472 -36769952.397775322 6.5715947292736268e-05 0.0072955794779960151 0.00010573707375869022 0.39999999999821667 -2.3999999999223545 -6.0037679204912271 
9000.0000000000000 1000.0000000000000 -1500.0000000000000 -24410524.616116025 -1459704.9428693934 -36769952.403797075 5.3218450008447008e-05 0.0047201260907553605 0.00011802218273862522 0.39999999999538088 -2.6999999999462614 -6.0037679212591897 
8000.0000000000000 2000.0000000000000 -1166.6666666670001 -22106571.363850266 844248.30798218166 -28601390.864619974 3.8910773886945221e-05 0.0068511634245146001 0.00032098550983142662 0.80000000007096816 -2.4000000000891082 -6.2329450113776446 
9000.0000000000000 2000.0000000000000 -1166.6666666670001 -22106571.363681499 844248.30813340342 -28601390.863928311 3.7655911932820502e-05 0.0069290559078263765 7.3152493881834430e-05 0.40000000003515407 -2.4000000000868660 -6.2329450115456320 
9000.0000000000000 1000.0000000000000 -1166.6666666670001 -22106571.365175229 844248.30661688722 -28601390.869372144 3.9303533344536829e-05 0.0045668662265480747 6.4530295567584521e-05 0.40000000003308539 -2.7000000000400668 -6.2329450123661934 
8000.0000000000000 2000.0000000000000 -1000.0000000000000 -20954440.081822872 1996379.5897432342 -24516561.770041127 1.6131929938569436e-05 0.0064779417399706508 0.00029390851522139008 0.80000000010727468 -2.4000000001813775 -6.3251734037916085 
9000.0000000000000 2000.0000000000000 -1000.0000000000000 -20954440.081613556 1996379.5898910726 -24516561.769360632 1.9658572443141744e-05 0.0065645896557135442 5.0979702007219073e-05 0.40000000005293362 -2.4000000001800426 -6.3251734039563594 
9000.0000000000000 1000.0000000000000 -1000.0000000000000 -20954440.083183214 1996379.5876827778 -24516561.774402626 3.0012824691005993e-05 0.0043715218219579658 3.4713267402361475e-05 0.40000000005137842 -2.7000000000942057 -6.3251734047999264 
8000.0000000000000 2000.0000000000000 -833.33333333329995 -19802205.683121413 3148613.9881341187 -20431367.080007348 -1.0019610011938454e-05 0.0059641846256403624 0.00025750310857733036 0.80000000014257566 -2.4000000002820703 -6.4024932485575770 
9000.0000000000000 2000.0000000000000 -833.33333333329995 -19802205.682875201 3148613.9882701095 -20431367.079367407 -1.2917321874558175e-06 0.0060552524148451735 2.6197875082735234e-05 0.40000000007027248 -2.4000000002817887 -6.4024932487191899 
9000.0000000000000 1000.0000000000000 -833.33333333329995 -19802205.684526861 3148613.9852576070 -20431367.083913215 1.9121272367415601e-05 0.0040776262448177008 4.6650339570030600e-06 0.40000000006932079 -2.7000000001541342 -6.4024932495828164 
8000.0000000000000 2000.0000000000000 -666.66666666670005 -18649868.158504512 4300951.5123924948 -16345806.761776531 -3.9910139114014852e-05 0.0052891773492529772 0.00021128112120590858 0.80000000017683248 -2.4000000003923030 -6.4649032113488252 
9000.0000000000000 2000.0000000000000 -666.66666666670005 -18649868.158231214 4300951.5125054978 -16345806.761208892 -2.5566783465333217e-05 0.0053794446506652749 9.4585461491613011e-07 0.40000000008723002 -2.4000000003932347 -6.4649032115075311 
9000.0000000000000 1000.0000000000000 -666.66666666670005 -18649868.159972049 4300951.5085563948 -16345806.765148537 6.7007978024591517e-06 0.0036671250850570550 -2.3137611001789069e-05 0.40000000008697001 -2.7000000002207147 -6.4649032123875667 
8000.0000000000000 2000.0000000000000 -500.00000000000000 -17497427.498727322 5453392.1717596753 -12259880.782601198 -7.4170344561543918e-05 0.0044288500949194462 0.00015584155120158675 0.80000000021006890 -2.4000000005133404 -6.5124019577190833 
9000.0000000000000 2000.0000000000000 -500.00000000000000 -17497427.498445585 5453392.1718347380 -12259880.782138964 -5.3738453601961283e-05 0.0045120098456708311 -2.1328046610607931e-05 0.40000000010391240 -2.4000000005156701 -6.5124019578752463 
9000.0000000000000 1000.0000000000000 -500.00000000000000 -17497427.500284813 5453392.1667923722 -12259880.785346581 -7.0128877861643004e-06 0.0031184143091253710 -4.4979278951511579e-05 0.40000000010442704 -2.7000000002949367 -6.5124019587672262 
8000.0000000000000 2000.0000000000000 -333.33333333330000 -16344883.694544032 6605935.9754785420 -8173589.1097390028 -0.00011393539109742991 0.0033551133060987755 9.3740591255532117e-05 0.80000000024241569 -2.4000000006466249 -6.5449881531025174 
9000.0000000000000 2000.0000000000000 -333.33333333330000 -16344883.694285283 6605935.9754949752 -8173589.1094156811 -8.6685900310552903e-05 0.0034234810288907513 -3.5556578958962277e-05 0.40000000012047743 -2.4000000006505808 -6.5449881532566314 
9000.0000000000000 1000.0000000000000 -333.33333333330000 -16344883.696235539 6605935.9691728940 -8173589.1117497860 -2.1505979072675410e-05 0.0024056841288305091 -5.5640709086276183e-05 0.40000000012183679 -2.7000000003779450 -6.5449881541551420 
8000.0000000000000 2000.0000000000000 -166.66666666670000 -15192236.736706605 7758582.9327957509 -4086931.7104492835 -0.00016128223127991238 0.0020352234662073167 3.0897217345548608e-05 0.80000000027418838 -2.4000000007938120 -6.5626604628139003 
9000.0000000000000 2000.0000000000000 -166.66666666670000 -15192236.736520153 7758582.9327245317 -4086931.7102962052 -0.00012574134325915335 0.0020790729733080699 -3.4839430182697810e-05 0.40000000013712811 -2.4000000007997095 -6.5626604629665559 
9000.0000000000000 1000.0000000000000 -166.66666666670000 -15192236.738599686 7758582.9248991022 -4086931.7116012382 -3.5824116398220450e-05 0.0014980618039962270 -4.8287140482990394e-05 0.40000000013937864 -2.7000000004710603 -6.5626604638651163 
8000.0000000000000 2000.0000000000000 0.0000000000000000 -14615887.468218137 8334932.2010101285 -2043511.5751048122 -0.00018718709892038123 0.0013093358093686702 2.9441337810097493e-07 0.80000000030601792 -2.4000000009568061 -6.5654175520486113 
9000.0000000000000 2000.0000000000000 0.0000000000000000 -14615887.468082763 8334932.2008865904 -2043511.5750442119 -0.00014699613193416329 0.0013381820301614981 -2.9764258706898404e-05 0.40000000015407555 -2.4000000009651377 -6.5654175522004321 
9000.0000000000000 1000.0000000000000 0.0000000000000000 -14615887.470232379 8334932.1922483873 -2043511.5757942367 -4.2786591838237096e-05 0.00099132237151972665 -3.9150591825859847e-05 0.40000000015722470 -2.7000000005758027 -6.5654175530913861 
4000.0000000000000 1000.0000000000000 -1333.3333333329999 -23258599.537875779 -307779.86652349698 -32685854.400615230 2.4548451990282753e-05 0.0046650678660925217 -0.0050543987564862182 2.4000000000522985 -2.6999999999907391 -6.1258094043670832 
5000.0000000000000 2000.0000000000000 -1333.3333333329999 -23258599.537902068 -307779.86643051484 -32685854.397212058 -4.5268801061486784e-05 0.0071336496067132106 -0.0015507522244268396 2.0000000000659242 -2.4000000000008375 -6.1258094044345430 
4000.0000000000000 1000.0000000000000 -1500.0000000000000 -24410524.614475172 -1459704.9421190540 -36769952.401958838 3.2547914458868490e-05 0.0047038889968163654 -0.0052988073918023857 2.3999999999367749 -2.6999999999467734 -6.0037679191351296 
5000.0000000000000 2000.0000000000000 -1500.0000000000000 -24410524.614259619 -1459704.9425558671 -36769952.398723066 -4.0342467854595290e-05 0.0072584656602065444 -0.0017211699768157171 1.9999999999659044 -2.3999999999230082 -6.0037679192232867 
4000.0000000000000 1000.0000000000000 -1166.6666666670001 -22106571.363180891 844248.30715517187 -28601390.869116616 1.5377827614257744e-05 0.0045559482218021146 -0.0047295740073353236 2.4000000001729798 -2.7000000000390481 -6.2329450102469917 
5000.0000000000000 2000.0000000000000 -1166.6666666670001 -22106571.363434602 844248.30785654474 -28601390.865633450 -4.9334517550949375e-05 0.0068994368874983605 -0.0013541598625897045 2.0000000001680598 -2.4000000000852815 -6.2329450102935846 
4000.0000000000000 1000.0000000000000 -1000.0000000000000 -20954440.081169996 1996379.5881373591 -24516561.774692092 4.9461794665613838e-06 0.0043636729091814158 -0.0043221642956595809 2.4000000002991833 -2.7000000000923561 -6.3251734026870059 
5000.0000000000000 2000.0000000000000 -1000.0000000000000 -20954440.081630096 1996379.5895409482 -24516561.771231715 -5.2430950633032624e-05 0.0065395942688715120 -0.0011366100588279572 2.0000000002722955 -2.4000000001772217 -6.3251734027132249 
4000.0000000000000 1000.0000000000000 -833.33333333329995 -19802205.682629287 3148613.9856367987 -20431367.084583811 -6.8137968576479842e-06 0.0040728817494501950 -0.0038306566539857605 2.4000000004312878 -2.7000000001514177 -6.4024932474775573 
5000.0000000000000 2000.0000000000000 -833.33333333329995 -19802205.683266949 3148613.9878543885 -20431367.081266478 -5.4395226980608357e-05 0.0060353287002608627 -0.00090485953941870105 2.0000000003785807 -2.4000000002776543 -6.4024932474846921 
4000.0000000000000 1000.0000000000000 -666.66666666670005 -18649868.158349149 4300951.5088631017 -16345806.766036097 -1.9916993863877410e-05 0.0036653152950218513 -0.0032542116171199887 2.4000000005696873 -2.7000000002170994 -6.4649032102904096 
5000.0000000000000 2000.0000000000000 -666.66666666670005 -18649868.159126334 4300951.5120279668 -16345806.763000857 -5.4972466048376142e-05 0.0053648475513700233 -0.00066749881531248710 2.0000000004868088 -2.4000000003877164 -6.4649032102807018 
4000.0000000000000 1000.0000000000000 -500.00000000000000 -17497427.499122255 5453392.1670236411 -12259880.786286302 -3.4279034573372961e-05 0.0031190942960667989 -0.0025926839813978494 2.4000000007147921 -2.7000000002904008 -6.5124019566776301 
5000.0000000000000 2000.0000000000000 -500.00000000000000 -17497427.499990337 5453392.1712948401 -12259880.783692213 -5.3744171074355263e-05 0.0045026995650019035 -0.00043539306972525336 2.0000000005967986 -2.4000000005087050 -6.5124019566544211 
4000.0000000000000 1000.0000000000000 -333.33333333330000 -16344883.695747549 6605935.9693194507 -8173589.1125761867 -4.9628545598488270e-05 0.0024080417131242238 -0.0018464084081482241 2.4000000008670352 -2.7000000003724725 -6.5449881520715465 
5000.0000000000000 2000.0000000000000 -333.33333333330000 -16344883.696645802 6605935.9748874996 -8173589.1106019141 -5.0007145025785412e-05 0.0034189925874174645 -0.00022203310749420625 2.0000000007082650 -2.4000000006421236 -6.5449881520394309 
4000.0000000000000 1000.0000000000000 -166.66666666670000 -15192236.739030071 7758582.9249450695 -4086931.7121478813 -6.5371548556407771e-05 0.0015008672326606771 -0.0010158113159740181 2.4000000010268860 -2.7000000004646441 -6.5626604617849011 
5000.0000000000000 2000.0000000000000 -166.66666666670000 -15192236.739884304 7758582.9320393847 -4086931.7109897742 -4.2579822070051402e-05 0.0020781732576886534 -4.4107796606521547e-05 2.0000000008208016 -2.4000000007897362 -6.5626604617498563 
4000.0000000000000 1000.0000000000000 0.0000000000000000 -14615887.471186602 8334932.1922392687 -2043511.5761592106 -7.3242494603926691e-05 0.00099398688722763997 -0.00057948259421512739 2.4000000011948597 -2.7000000005684450 -6.5654175510108512 
5000.0000000000000 2000.0000000000000 0.0000000000000000 -14615887.471998550 8334932.2001594398 -2043511.5754603921 -3.7758902807735004e-05 0.0013386419829376432 3.3683278809946765e-05 2.0000000009338477 -2.4000000009536495 -6.5654175509803130 
2000.0000000000000 7000.0000000000000 -1333.3333333329999 -23258599.529439952 -307779.85736981733 -32685854.370015360 -2.7008608849608543e-05 -0.0012752645408686300 -0.0087289854797477102 3.1999999999926567 -0.90000000002904379 -6.1258093979699701 
2000.0000000000000 6000.0000000000000 -1333.3333333329999 -23258599.529324386 -307779.85738632857 -32685854.369736135 -3.0867699635915399e-05 -0.00034984120767321363 -0.0087664157962579464 3.1999999999935684 -1.2000000000415232 -6.1258093982289026 
1000.0000000000000 6000.0000000000000 -1333.3333333329999 -23258599.528147325 -307779.85560686630 -32685854.362846855 1.1762675373867114e-05 -0.00034692489406449613 -0.0065642188496836517 3.5999999999876211 -1.2000000000419402 -6.1258093972118752 
1000.0000000000000 7000.0000000000000 -1333.3333333329999 -23258599.528241593 -307779.85560418328 -32685854.363197688 4.8630713015050672e-06 -0.0012807461562441441 -0.0065947391824964768 3.5999999999881349 -0.90000000002915848 -6.1258093969538399 
2000.0000000000000 7000.0000000000000 -1500.0000000000000 -24410524.607397739 -1459704.9349386499 -36769952.368705027 -1.6950970876929526e-05 -0.0012988782503442595 -0.0088887922004621863 3.1999999998990543 -0.89999999998398983 -6.0037679128654649 
2000.0000000000000 6000.0000000000000 -1500.0000000000000 -24410524.607321046 -1459704.9350018087 -36769952.368554607 -1.8385605159769458e-05 -0.00031559331891788480 -0.0089268664008701950 3.1999999998995987 -1.1999999999780757 -6.0037679131255199 
1000.0000000000000 6000.0000000000000 -1500.0000000000000 -24410524.606790192 -1459704.9332907237 -36769952.361337170 2.0818365363276678e-05 -0.00030831024497877897 -0.0066400427813377320 3.5999999999334920 -1.1999999999788999 -6.0037679121393950 
1000.0000000000000 7000.0000000000000 -1500.0000000000000 -24410524.606840748 -1459704.9332413184 -36769952.361569151 1.2690661585759667e-05 -0.0013016599829148658 -0.0066787518954257458 3.5999999999343197 -0.89999999998444991 -6.0037679118796214 
2000.0000000000000 7000.0000000000000 -1166.6666666670001 -22106571.353229620 844248.31843627023 -28601390.841331240 -3.7658621396817761e-05 -0.0012357565080819218 -0.0084384580944077379 3.2000000000944100 -0.90000000007326786 -6.2329450037377834 
2000.0000000000000 6000.0000000000000 -1166.6666666670001 -22106571.353077088 844248.31848998112 -28601390.840955332 -4.4121048853554929e-05 -0.00038204394926318302 -0.0084744565919782494 3.2000000000957098 -1.2000000001050954 -6.2329450039952343 
1000.0000000000000 6000.0000000000000 -1166.6666666670001 -22106571.351146638 844248.32034428662 -28601390.834470686 2.0585886062273928e-06 -0.00038251516341179087 -0.0063960989865943872 3.6000000000472134 -1.2000000001050763 -6.2329450029497755 
1000.0000000000000 7000.0000000000000 -1166.6666666670001 -22106571.351283021 844248.32027677179 -28601390.834907640 -3.3856722691683086e-06 -0.0012431187379442379 -0.0064197239852140514 3.6000000000473915 -0.90000000007301839 -6.2329450026937527 
2000.0000000000000 7000.0000000000000 -1000.0000000000000 -20954440.069536418 1996379.6017114809 -24516561.749923661 -4.9071902622835489e-05 -0.0011762020936771965 -0.0079970959418458245 3.2000000002053999 -0.90000000011643855 -6.3251733960822571 
2000.0000000000000 6000.0000000000000 -1000.0000000000000 -20954440.069347747 1996379.6018630667 -24516561.749484301 -5.8348510260662442e-05 -0.00040787852358336934 -0.0080308198226940949 3.2000000002071163 -1.2000000001686340 -6.3251733963380294 
1000.0000000000000 6000.0000000000000 -1000.0000000000000 -20954440.066536218 1996379.6038006458 -24516561.743492313 -8.2315373460706472e-06 -0.00041071768082206355 -0.0061187998397637580 3.6000000001130852 -1.2000000001681517 -6.3251733952671438 
1000.0000000000000 7000.0000000000000 -1000.0000000000000 -20954440.066713959 1996379.6036353756 -24516561.743981782 -1.1996876512336424e-05 -0.0011846039662246580 -0.0061368358789390762 3.6000000001129164 -0.90000000011580750 -6.3251733950132385 
2000.0000000000000 7000.0000000000000 -833.33333333329995 -19802205.669136111 3148614.0016833991 -20431367.063076299 -6.1441961370197775e-05 -0.0010918060983392947 -0.0073813539361408578 3.2000000003268640 -0.90000000015831128 -6.4024932407952315 
2000.0000000000000 6000.0000000000000 -833.33333333329995 -19802205.668911003 3148614.0019647744 -20431367.062608115 -7.3777749997661302e-05 -0.00042217927937626307 -0.0074118898349198100 3.2000000003290330 -1.2000000002319577 -6.4024932410493083 
1000.0000000000000 6000.0000000000000 -833.33333333329995 -19802205.665064808 3148614.0039970838 -20431367.057209030 -1.9012683785011543e-05 -0.00042636991933965964 -0.0057118037995393537 3.6000000001862165 -1.2000000002309881 -6.4024932399566188 
1000.0000000000000 7000.0000000000000 -833.33333333329995 -19802205.665283989 3148614.0037021902 -20431367.057716370 -2.0899630190238769e-05 -0.0011004068153425705 -0.0057255275939801994 3.6000000001856884 -0.90000000015728410 -6.4024932397047536 
2000.0000000000000 7000.0000000000000 -666.66666666670005 -18649868.142808937 4300951.5275779562 -16345806.748074755 -7.4977202458394231e-05 -0.00097708360187562866 -0.0065636757071634577 3.2000000004602152 -0.90000000019861748 -6.4649032035500991 
2000.0000000000000 6000.0000000000000 -666.66666666670005 -18649868.142545916 4300951.5280254688 -16345806.747614186 -9.0660496536425301e-05 -0.00041885252276145678 -0.0065900624219931807 3.2000000004628779 -1.2000000002948552 -6.4649032038026499 
1000.0000000000000 6000.0000000000000 -666.66666666670005 -18649868.137479447 4300951.5301672975 -16345806.742925288 -3.0146730532772031e-05 -0.00042343964357309841 -0.0051498590919260567 3.6000000002677943 -1.2000000002933782 -6.4649032026924900 
1000.0000000000000 7000.0000000000000 -666.66666666670005 -18649868.137740970 4300951.5297064157 -16345806.743414501 -3.0010997842282654e-05 -0.00098509708204520211 -0.0051604061656700491 3.6000000002669053 -0.90000000019718029 -6.4649032024424011 
2000.0000000000000 7000.0000000000000 -500.00000000000000 -17497427.481338937 5453392.1886215257 -12259880.772197330 -8.9887948681108566e-05 -0.00082585906758298583 -0.0055119002748251133 3.2000000006070688 -0.90000000023705673 -6.5124019499007328 
2000.0000000000000 6000.0000000000000 -500.00000000000000 -17497427.481035173 5453392.1892762100 -12259880.771782715 -0.00010925827477086570 -0.00039082947219260672 -0.0055331498181444535 3.2000000006102707 -1.2000000003570781 -6.5124019501521389 
1000.0000000000000 6000.0000000000000 -500.00000000000000 -17497427.474522971 5453392.1915458273 -12259880.767945668 -4.1435371207745930e-05 -0.00039499947093508373 -0.0044014521477227769 3.6000000003592838 -1.2000000003550777 -6.5124019490297211 
1000.0000000000000 7000.0000000000000 -500.00000000000000 -17497427.474828489 5453392.1908779508 -12259880.768378934 -3.9220136181558957e-05 -0.00083259524289677886 -0.0044097295341985641 3.6000000003580377 -0.90000000023519988 -6.5124019487809415 
2000.0000000000000 7000.0000000000000 -333.33333333330000 -16344883.675519560 6605935.9940374130 -8173589.1027249563 -0.00010638810449695614 -0.00063123398836609972 -0.0041884980114739682 3.2000000007692657 -0.90000000027329274 -6.5449881452814349 
2000.0000000000000 6000.0000000000000 -333.33333333330000 -16344883.675170790 6605935.9949451424 -8173589.1023970023 -0.00012982922146310475 -0.00033001004185272934 -0.0042036066770120024 3.2000000007730653 -1.2000000004183304 -6.5449881455323009 
1000.0000000000000 6000.0000000000000 -333.33333333330000 -16344883.666934501 6605935.9973671129 -8173589.0995783359 -5.2593974968083775e-05 -0.00033316749602148001 -0.0034264688334687955 3.6000000004625141 -1.2000000004158016 -6.5449881444039155 
1000.0000000000000 7000.0000000000000 -333.33333333330000 -16344883.667286415 6605935.9964463636 -8173589.0999158816 -4.8391849723924949e-05 -0.00063614462716334150 -0.0034330246324221821 3.6000000004609274 -0.90000000027101035 -6.5449881441557665 
2000.0000000000000 7000.0000000000000 -166.66666666670000 -15192236.716156729 7758582.9530460341 -4086931.7069367999 -0.00012468340518306413 -0.00038555394271031667 -0.0025496126615172604 3.2000000009489074 -0.90000000030694938 -6.5626604550070553 
2000.0000000000000 6000.0000000000000 -166.66666666670000 -15192236.715757122 7758582.9542576801 -4086931.7067390066 -0.00015261892236042538 -0.00022714314617870333 -0.0025576483242300018 3.2000000009533602 -1.2000000004782636 -6.5626604552582322 
1000.0000000000000 6000.0000000000000 -166.66666666670000 -15192236.705447195 7758582.9568672692 -4086931.7051287959 -6.3216993547269019e-05 -0.00022903330714339431 -0.0021727437641887231 3.6000000005798118 -1.2000000004752123 -6.5626604541314872 
1000.0000000000000 7000.0000000000000 -166.66666666670000 -15192236.705848707 7758582.9556426089 -4086931.7053289739 -5.7366523962659175e-05 -0.00038827812564076075 -0.0021775894869363187 3.6000000005779174 -0.90000000030424032 -6.5626604538830566 
2000.0000000000000 7000.0000000000000 0.0000000000000000 -14615887.446941067 8334932.2221009256 -2043511.5733733289 -0.00013430469014080160 -0.00024894710727648702 -0.0016453890216693713 3.2000000011483563 -0.90000000033760508 -6.5654175442729397 
2000.0000000000000 6000.0000000000000 0.0000000000000000 -14615887.446514364 8334932.2234778935 -2043511.5732518139 -0.00016459774040804206 -0.00016396295864300507 -0.0016496683154336163 3.2000000011535237 -1.2000000005364653 -6.5654175445255438 
1000.0000000000000 6000.0000000000000 0.0000000000000000 -14615887.435070083 8334932.2261916939 -2043511.5722964553 -6.8335004408665099e-05 -0.00016521006885708380 -0.0014687932886789414 3.6000000007142345 -1.2000000005329166 -6.5654175434096453 
1000.0000000000000 7000.0000000000000 0.0000000000000000 -14615887.435497295 8334932.2248016577 -2043511.5724172979 -6.1782796666688740e-05 -0.00025051282685080754 -0.0014727155788845977 3.6000000007120785 -0.90000000033447147 -6.5654175431597936 
6000.0000000000000 7000.0000000000000 -1333.3333333329999 -23258599.534827173 -307779.86194394086 -32685854.385500580 -1.0234726873245756e-06 -0.0011313310509562689 0.00012269762409225065 1.6000000000597689 -0.90000000003425584 -6.1258094015917868 
6000.0000000000000 7000.0000000000000 -1500.0000000000000 -24410524.611102253 -1459704.9395085508 -36769952.385776676 1.2047903304515485e-05 -0.0011450495965699993 5.6100811134620986e-05 1.5999999999821939 -0.89999999998789160 -6.0037679164265176 
6000.0000000000000 7000.0000000000000 -1166.6666666670001 -22106571.360396311 844248.31384555995 -28601390.855190814 -1.4577716473690174e-05 -0.0011031299429532771 0.00018694948882144394 1.6000000001374701 -0.90000000007985215 -6.2329450074118649 
6000.0000000000000 7000.0000000000000 -1000.0000000000000 -20954440.078577898 1996379.5970958287 -24516561.762100920 -2.8457123711299277e-05 -0.0010563835970587004 0.00024408201385739268 1.6000000002151680 -0.90000000012448300 -6.3251733997998230 
6000.0000000000000 7000.0000000000000 -833.33333333329995 -19802205.680144101 3148613.9970388105 -20431367.073497631 -4.2462963634210480e-05 -0.00098641501671087859 0.00028866080243994575 1.6000000002927182 -0.90000000016793180 -6.4024932445471467 
6000.0000000000000 7000.0000000000000 -666.66666666670005 -18649868.155867852 4300951.5229056869 -16345806.756649340 -5.6341900490818137e-05 -0.00088790421708357726 0.00031456874925346460 1.6000000003699522 -0.90000000020995763 -6.4649032073268122 
6000.0000000000000 7000.0000000000000 -500.00000000000000 -17497427.496520340 5453392.1839293577 -12259880.778816953 -6.9780604991014764e-05 -0.00075488053236053053 0.00031500112485857295 1.6000000004466659 -0.90000000025028914 -6.5124019536922271 
6000.0000000000000 7000.0000000000000 -333.33333333330000 -16344883.692874206 6605935.9893413186 -8173589.1072646510 -8.2394079831594268e-05 -0.00058068378413483630 0.00028226101029250081 1.6000000005226094 -0.90000000028862026 -6.5449881490772004 
6000.0000000000000 7000.0000000000000 -166.66666666670000 -15192236.735702446 7758582.9483727487 -4086931.7092557764 -9.3713242332102995e-05 -0.00035793771095740407 0.00020757240827503465 1.6000000005974679 -0.90000000032460292 -6.5626604587960893 
6000.0000000000000 7000.0000000000000 0.0000000000000000 -14615887.467581747 8334932.2174472697 -2043511.5745448361 -9.8985285614240309e-05 -0.00023346351163011062 0.00015856867791866713 1.6000000006708341 -0.90000000035784411 -6.5654175480437686 
7000.0000000000000 4000.0000000000000 -1333.3333333329999 -23258599.535703517 -307779.86359322740 -32685854.387500063 -1.6494022637734625e-05 0.0040494036346750565 0.0011198556915881228 1.2000000000466728 -1.8000000000471130 -6.1258094033911723 
6000.0000000000000 4000.0000000000000 -1333.3333333329999 -23258599.535687171 -307779.86367533065 -32685854.387802046 5.5566090343648186e-06 0.0041399439167547313 0.00047042837974845024 1.6000000000570860 -1.8000000000476104 -6.1258094030556958 
7000.0000000000000 4000.0000000000000 -1500.0000000000000 -24410524.612097912 -1459704.9408728890 -36769952.388591796 -2.0299526440064889e-06 0.0042495719057855643 0.0011324522656913922 1.1999999999894442 -1.7999999999523655 -6.0037679182193475 
6000.0000000000000 4000.0000000000000 -1500.0000000000000 -24410524.612041935 -1459704.9409214719 -36769952.388755083 1.4921797572663443e-05 0.0043451087380205911 0.00043596165100543734 1.5999999999780319 -1.7999999999531435 -6.0037679178836143 
7000.0000000000000 4000.0000000000000 -1166.6666666670001 -22106571.361133229 844248.31195102097 -28601390.856492050 -3.1868410048505771e-05 0.0037843824387016681 0.0010941285793659497 1.2000000001030495 -1.8000000001460792 -6.2329450092145926 
6000.0000000000000 4000.0000000000000 -1166.6666666670001 -22106571.361183729 844248.31183861988 -28601390.856894031 -3.7919964039787513e-06 0.0038695024736371481 0.00050378662007922765 1.6000000001363190 -1.8000000001462833 -6.2329450088797973 
7000.0000000000000 4000.0000000000000 -1000.0000000000000 -20954440.079146802 1996379.5950098759 -24516561.762821421 -4.8227351759832360e-05 0.0034526377775163570 0.0010509371613220690 1.2000000001583857 -1.8000000002495899 -6.3251734016032666 
6000.0000000000000 4000.0000000000000 -1000.0000000000000 -20954440.079296667 1996379.5948689769 -24516561.763285533 -1.2858616242709750e-05 0.0035317646238906459 0.00053082954938470908 1.6000000002155625 -1.8000000002494903 -6.3251734012694163 
7000.0000000000000 4000.0000000000000 -833.33333333329995 -19802205.680506833 3148613.9948311062 -20431367.073755935 -6.5642751843175370e-05 0.0030529426336374163 0.00098526768281225049 1.2000000002124727 -1.8000000003579761 -6.4024932463493069 
6000.0000000000000 4000.0000000000000 -833.33333333329995 -19802205.680794496 3148613.9946620362 -20431367.074244939 -2.1109768997257691e-05 0.0031252238013893532 0.00054525131285987902 1.6000000002946142 -1.8000000003575711 -6.4024932460164905 
7000.0000000000000 4000.0000000000000 -666.66666666670005 -18649868.155975364 4300951.5206634812 -16345806.756566718 -8.4182626349910036e-05 0.0025849612626446536 0.00089136587410957333 1.2000000002650761 -1.8000000004715577 -6.4649032091263461 
6000.0000000000000 4000.0000000000000 -666.66666666670005 -18649868.156446043 4300951.5204651179 -16345806.757043617 -2.7618158405722918e-05 0.0026490566206796087 0.00053951812175613730 1.6000000003732280 -1.8000000004708669 -6.4649032087944800 
7000.0000000000000 4000.0000000000000 -500.00000000000000 -17497427.496310920 5453392.1817595083 -12259880.778519226 -0.00010391643198171117 0.0020496213183589596 0.00076265196939397963 1.2000000003159295 -1.8000000005906323 -6.5124019554885200 
6000.0000000000000 4000.0000000000000 -500.00000000000000 -17497427.497017737 5453392.1815294288 -12259880.778946551 -3.0897949820761192e-05 0.0021033963297640663 0.00050468287813792479 1.6000000004510970 -1.8000000005897101 -6.5124019551573236 
7000.0000000000000 4000.0000000000000 -333.33333333330000 -16344883.692271193 6605935.9873723956 -8173589.1068843333 -0.00012492054403313841 0.0014495838728133138 0.00059166835733897834 1.2000000003647247 -1.8000000007154582 -6.5449881508704388 
6000.0000000000000 4000.0000000000000 -333.33333333330000 -16344883.693276627 6605935.9871071773 -8173589.1072233403 -2.8712479844770918e-05 0.0014897206817626051 0.00043011043072052065 1.6000000005278441 -1.8000000007144146 -6.5449881505394112 
7000.0000000000000 4000.0000000000000 -166.66666666670000 -15192236.734611655 7758582.9467568668 -4086931.7089352435 -0.00014728704956563357 0.00078984458747276298 0.00037000408409305018 1.2000000004111058 -1.8000000008462362 -6.5626604605873444 
6000.0000000000000 4000.0000000000000 -166.66666666670000 -15192236.735989425 7758582.9464526204 -4086931.7091447804 -1.7876265849918969e-05 0.00081134556071957797 0.00030323040787887665 1.6000000006029984 -1.8000000008452570 -6.5626604602557332 
7000.0000000000000 4000.0000000000000 0.0000000000000000 -14615887.466221139 8334932.2160489978 -2043511.5742912046 -0.00015882383617968793 0.00044584234587830273 0.00024538866632192757 1.2000000004546603 -1.8000000009830956 -6.5654175498351126 
6000.0000000000000 4000.0000000000000 0.0000000000000000 -14615887.467805041 8334932.2157242484 -2043511.5744253267 -9.8317821916080705e-06 0.00045652479215020950 0.00022501374700666408 1.6000000006759789 -1.8000000009824568 -6.5654175495018805 
0.0000000000000000 7000.0000000000000 -1333.3333333329999 -23258599.527795579 -307779.85489270382 -32685854.360435389 1.1357993233253605e-05 -0.0012701282927630188 -0.0041302273796442008 4.0000000000000000 -0.90000000002966463 -6.1258093965317153 
0.0000000000000000 8000.0000000000000 -1333.3333333329999 -23258599.527994990 -307779.85515939549 -32685854.361115038 4.7639979539716062e-06 -0.0013659475341141318 -0.0041466193278688977 4.0000000000000000 -0.60000000001685327 -6.1258093964091476 
1000.0000000000000 8000.0000000000000 -1333.3333333329999 -23258599.528454755 -307779.85586385493 -32685854.363842286 1.6151772726792509e-08 -0.0013686696272337798 -0.0066050882310460298 3.5999999999883232 -0.60000000001664044 -6.1258093968313734 
0.0000000000000000 7000.0000000000000 -1500.0000000000000 -24410524.606657442 -1459704.9325597184 -36769952.358685039 1.6502701253997473e-05 -0.0012880664232611061 -0.0041660462923441104 4.0000000000000000 -0.89999999998513425 -6.0037679114705931 
0.0000000000000000 8000.0000000000000 -1500.0000000000000 -24410524.606816262 -1459704.9327328468 -36769952.359318428 8.6023624689195201e-06 -0.0014065914658546799 -0.0041870286870262004 4.0000000000000000 -0.59999999998909437 -6.0037679113451405 
1000.0000000000000 8000.0000000000000 -1500.0000000000000 -24410524.607015818 -1459704.9334067805 -36769952.362160087 5.7607569925774993e-06 -0.0014107220497935377 -0.0066936805872911684 3.5999999999347598 -0.59999999998874765 -6.0037679117545713 
0.0000000000000000 7000.0000000000000 -1166.6666666670001 -22106571.350525312 844248.32102160598 -28601390.832299653 5.9618691708214350e-06 -0.0012349991981410392 -0.0040395900220344559 4.0000000000000000 -0.90000000007333802 -6.2329450022595827 
0.0000000000000000 8000.0000000000000 -1166.6666666670001 -22106571.350764062 844248.32064135233 -28601390.832998015 8.1925443232016534e-07 -0.0013066635176205849 -0.0040522630235039821 4.0000000000000000 -0.60000000004357290 -6.2329450021398225 
1000.0000000000000 8000.0000000000000 -1166.6666666670001 -22106571.351533033 844248.31990279187 -28601390.835578639 -5.9531974974515937e-06 -0.0013083390251620770 -0.0064265314779248465 3.6000000000473200 -0.60000000004349652 -6.2329450025738575 
0.0000000000000000 7000.0000000000000 -1000.0000000000000 -20954440.065584596 1996379.6044186433 -24516561.741564319 4.1241131625720556e-07 -0.0011785049054879536 -0.0038829577725195000 4.0000000000000000 -0.90000000011593650 -6.3251733945683286 
0.0000000000000000 8000.0000000000000 -1000.0000000000000 -20954440.065861877 1996379.6039018286 -24516561.742253486 -3.1514034374921504e-06 -0.0012256923056039014 -0.0038927624704854754 4.0000000000000000 -0.60000000006905962 -6.3251733944511601 
1000.0000000000000 8000.0000000000000 -1000.0000000000000 -20954440.067000177 1996379.6031240150 -24516561.744651258 -1.2094094371712884e-05 -0.0012266596102867727 -0.0061411197550127073 3.6000000001125763 -0.60000000006911913 -6.3251733948957627 
0.0000000000000000 7000.0000000000000 -833.33333333329995 -19802205.663708325 3148614.0045314319 -20431367.055529222 -5.1769195728650686e-06 -0.0010958850618686207 -0.0036465405181444538 4.0000000000000000 -0.90000000015722237 -6.4024932392506937 
0.0000000000000000 8000.0000000000000 -833.33333333329995 -19802205.664023746 3148614.0038519604 -20431367.056180861 -7.0559545515070744e-06 -0.0011195874598595636 -0.0036542434635383563 4.0000000000000000 -0.60000000009310595 -6.4024932391357563 
1000.0000000000000 8000.0000000000000 -833.33333333329995 -19802205.665606327 3148614.0030273651 -20431367.058355484 -1.8344683314436049e-05 -0.0011201456476289111 -0.0057282196174302203 3.6000000001850796 -0.60000000009329657 -6.4024932395893979 
0.0000000000000000 7000.0000000000000 -666.66666666670005 -18649868.135625124 4300951.5305919927 -16345806.741503958 -1.0677679975855183e-05 -0.00098177794872692111 -0.0033129199844682666 4.0000000000000000 -0.90000000019693371 -6.4649032019810919 
0.0000000000000000 8000.0000000000000 -666.66666666670005 -18649868.135978565 4300951.5297207097 -16345806.742088886 -1.0796342696017151e-05 -0.00098453958162226249 -0.0033191288470579283 4.0000000000000000 -0.60000000011548649 -6.4649032018678829 
1000.0000000000000 8000.0000000000000 -666.66666666670005 -18649868.138099838 4300951.5288390107 -16345806.743993213 -2.4640880121343746e-05 -0.00098491533099197889 -0.0051623158778214559 3.6000000002660286 -0.60000000011580001 -6.4649032023287143 
0.0000000000000000 7000.0000000000000 -500.00000000000000 -17497427.472052928 5453392.1918334961 -12259880.766802266 -1.5939341029357237e-05 -0.00083020765141947317 -0.0028596491596425432 4.0000000000000000 -0.90000000023477855 -6.5124019483146771 
0.0000000000000000 8000.0000000000000 -500.00000000000000 -17497427.472444564 5453392.1907380652 -12259880.767290518 -1.4274846651902677e-05 -0.00081635559397315468 -0.0028647587400961010 4.0000000000000000 -0.60000000013595600 -6.5124019482025428 
1000.0000000000000 8000.0000000000000 -500.00000000000000 -17497427.475224856 5453392.1897857012 -12259880.768866127 -3.0913102250825320e-05 -0.00081667986179119998 -0.0044114625636086464 3.6000000003569039 -0.60000000013638033 -6.5124019486683116 
0.0000000000000000 7000.0000000000000 -333.33333333330000 -16344883.663694641 6605935.9974914733 -8173589.0987405591 -2.0794419325284217e-05 -0.00063455781508005586 -0.0022570566183828266 4.0000000000000000 -0.90000000027043048 -6.5449881436873563 
0.0000000000000000 8000.0000000000000 -333.33333333330000 -16344883.664125001 6605935.9961362127 -8173589.0991016189 -1.7394654719028294e-05 -0.00061042320811343677 -0.0022612003868755109 4.0000000000000000 -0.60000000015424515 -6.5449881435754875 
1000.0000000000000 8000.0000000000000 -333.33333333330000 -16344883.667721787 6605935.9950938057 -8173589.1002792278 -3.7091941167526171e-05 -0.00061073023672813750 -0.0034348970612381245 3.6000000004595489 -0.60000000015476507 -6.5449881440434101 
0.0000000000000000 7000.0000000000000 -166.66666666670000 -15192236.701229805 7758582.9568072334 -4086931.7046303339 -2.5061656755816719e-05 -0.00038753379196691448 -0.0014649166827092933 4.0000000000000000 -0.90000000030352278 -6.5626604534159121 
0.0000000000000000 8000.0000000000000 -166.66666666670000 -15192236.701699793 7758582.9551529903 -4086931.7048332309 -2.0079643282706019e-05 -0.00036172215696523419 -0.0014679385352346598 4.0000000000000000 -0.60000000017005695 -6.5626604533033390 
1000.0000000000000 8000.0000000000000 -166.66666666670000 -15192236.706325088 7758582.9539910406 -4086931.7055348330 -4.3125760840405596e-05 -0.00036193469280606491 -0.0021795823471744179 3.6000000005763151 -0.60000000017065502 -6.5626604537700199 
0.0000000000000000 7000.0000000000000 0.0000000000000000 -14615887.430304023 8334932.2260351088 -2043511.5719768074 -2.7024607010827484e-05 -0.00025022347484171108 -0.0010156543232772699 4.0000000000000000 -0.90000000033364247 -6.5654175426980332 
0.0000000000000000 8000.0000000000000 0.0000000000000000 -14615887.430794101 8334932.2242211439 -2043511.5720928288 -2.1306464627685466e-05 -0.00022602563200555450 -0.0010180425118433741 4.0000000000000000 -0.60000000018306243 -6.5654175425836270 
1000.0000000000000 8000.0000000000000 0.0000000000000000 -14615887.435994744 8334932.2229905007 -2043511.5725358499 -4.6101883133098563e-05 -0.00022615733174306650 -0.0014747229636548741 3.6000000007102773 -0.60000000018372124 -6.5654175430449255 
4000.0000000000000 4000.0000000000000 -1333.3333333329999 -23258599.533678096 -307779.86261432804 -32685854.384870857 -4.2052891205036116e-05 0.0043046414890213682 -0.0048120397326156146 2.4000000000533661 -1.8000000000473642 -6.1258094016484765 
5000.0000000000000 4000.0000000000000 -1333.3333333329999 -23258599.535071112 -307779.86343334592 -32685854.387168456 -9.8628551092755785e-06 0.0043067583632144168 -0.0017583742605011118 2.0000000000638321 -1.8000000000482055 -6.1258094024982706 
5000.0000000000000 3000.0000000000000 -1333.3333333329999 -23258599.536322638 -307779.86498418532 -32685854.391263589 -2.9694048701331939e-05 0.0066345982062964272 -0.0016284018592269025 2.0000000000643259 -2.1000000000261578 -6.1258094034320596 
4000.0000000000000 4000.0000000000000 -1500.0000000000000 -24410524.610425450 -1459704.9398064634 -36769952.385147192 -2.3488122955413103e-05 0.0045163400169550552 -0.0050682491476382128 2.3999999999395558 -1.7999999999535827 -6.0037679164848177 
5000.0000000000000 4000.0000000000000 -1500.0000000000000 -24410524.611509014 -1459704.9406464044 -36769952.387853965 1.7927382899707164e-06 0.0045198580780438664 -0.0019211202410857025 1.9999999999641689 -1.7999999999539749 -6.0037679173281822 
5000.0000000000000 3000.0000000000000 -1500.0000000000000 -24410524.612737533 -1459704.9417130374 -36769952.392374203 -2.2179668810142019e-05 0.0068425930618395657 -0.0017909190992583764 1.9999999999644127 -2.0999999999316645 -6.0037679182465817 
4000.0000000000000 4000.0000000000000 -1166.6666666670001 -22106571.358816825 844248.31285188615 -28601390.854581028 -6.1574039495378854e-05 0.0040266518575950809 -0.0044802029808974145 2.4000000001721609 -1.8000000001453456 -6.2329450074671584 
5000.0000000000000 4000.0000000000000 -1166.6666666670001 -22106571.360511743 844248.31205085828 -28601390.856490366 -2.1584732308091027e-05 0.0040273224299735861 -0.0015665790489320722 2.0000000001656670 -1.8000000001466478 -6.2329450083213978 
5000.0000000000000 3000.0000000000000 -1166.6666666670001 -22106571.361791559 844248.30998054589 -28601390.860142712 -3.6652039032463948e-05 0.0063237057050061210 -0.0014380556433148946 2.0000000001663989 -2.1000000001268782 -6.2329450092680965 
4000.0000000000000 4000.0000000000000 -1000.0000000000000 -20954440.076619681 1996379.5958382450 -24516561.761530172 -8.2217662655926268e-05 0.0036799894048863734 -0.0040713911380924599 2.4000000002962918 -1.8000000002478700 -6.3251733998539894 
5000.0000000000000 4000.0000000000000 -1000.0000000000000 -20954440.078602783 1996379.5950533005 -24516561.763073545 -3.3153175042825767e-05 0.0036792452933851038 -0.0013501395526205292 2.0000000002696705 -1.8000000002496448 -6.3251734007108524 
5000.0000000000000 3000.0000000000000 -1000.0000000000000 -20954440.079916570 1996379.5924266137 -24516561.766264152 -4.2901517546236276e-05 0.0058996847607728437 -0.0012246373330109897 2.0000000002706209 -2.1000000002345103 -6.3251734016678975 
4000.0000000000000 4000.0000000000000 -833.33333333329995 -19802205.677869730 3148613.9955885289 -20431367.072983291 -0.00010429559378334215 0.0032625303138091874 -0.0035852063070023294 2.4000000004261168 -1.8000000003553038 -6.4024932446005129 
5000.0000000000000 4000.0000000000000 -833.33333333329995 -19802205.680120308 3148613.9948187927 -20431367.074185248 -4.4170209743237473e-05 0.0032605009200680677 -0.0011147558034132069 2.0000000003758172 -1.8000000003575596 -6.4024932454583681 
5000.0000000000000 3000.0000000000000 -833.33333333329995 -19802205.681474701 3148613.9915972175 -20431367.076894894 -4.8136493590453322e-05 0.0053513211294916726 -0.00099433836424339304 2.0000000003769500 -2.1000000003498100 -6.4024932464231181 
4000.0000000000000 4000.0000000000000 -666.66666666670005 -18649868.153351936 4300951.5213475795 -16345806.756207213 -0.00012833521503068741 0.0027724531858112052 -0.0030224310627555702 2.4000000005619815 -1.8000000004680330 -6.4649032073797290 
5000.0000000000000 4000.0000000000000 -666.66666666670005 -18649868.155841567 4300951.5205932353 -16345806.757095279 -5.3976938505417945e-05 0.0027693840244128656 -0.00086746971386049963 2.0000000004840515 -1.8000000004707741 -6.4649032082371756 
5000.0000000000000 3000.0000000000000 -666.66666666670005 -18649868.157244768 4300951.5167369563 -16345806.759304916 -5.1785077596411704e-05 0.0046662482412189853 -0.00075499655504562542 2.0000000004853002 -2.1000000004736155 -6.4649032092069216 
4000.0000000000000 4000.0000000000000 -500.00000000000000 -17497427.493850376 5453392.1823643623 -12259880.778461397 -0.00015515983895124675 0.0022083610136182552 -0.0023852336014103634 2.4000000007042197 -1.8000000005864600 -6.5124019537450843 
5000.0000000000000 4000.0000000000000 -500.00000000000000 -17497427.496542364 5453392.1816266598 -12259880.779066574 -6.1540762209180575e-05 0.0022046631732578360 -0.00061670878967086265 2.0000000005942771 -1.8000000005896841 -6.5124019546009828 
5000.0000000000000 3000.0000000000000 -500.00000000000000 -17497427.498004958 5453392.1770951310 -12259880.780757580 -5.2838553995880208e-05 0.0038307783767860155 -0.00051633832920786439 2.0000000005955259 -2.1000000006068587 -6.5124019555729564 
4000.0000000000000 4000.0000000000000 -333.33333333330000 -16344883.690150796 6605935.9878894230 -8173589.1070088698 -0.00018598147943493193 0.0015694798590606975 -0.0016775813280911463 2.4000000008531379 -1.8000000007109977 -6.5449881491304236 
5000.0000000000000 4000.0000000000000 -333.33333333330000 -16344883.693000274 6605935.9871706329 -8173589.1073659780 -6.5335855143441922e-05 0.0015657885311339214 -0.00037233972884485281 2.0000000007063545 -1.8000000007146910 -6.5449881499839222 
5000.0000000000000 3000.0000000000000 -333.33333333330000 -16344883.694536071 6605935.9819238354 -8173589.1085194508 -4.9618523532427938e-05 0.0028296253131088840 -0.00029014641491471367 2.0000000007074075 -2.1000000007505872 -6.5449881509553069 
4000.0000000000000 4000.0000000000000 -166.66666666670000 -15192236.733038835 7758582.9471764769 -4086931.7091130037 -0.00022248131983827103 0.00085591485142449270 -0.00090540043244155999 2.4000000010090123 -1.8000000008420523 -6.5626604588501474 
5000.0000000000000 4000.0000000000000 -166.66666666670000 -15192236.735994034 7758582.9464795105 -4086931.7092611799 -6.3210399534632510e-05 0.00085322679930927427 -0.00014539017829484817 2.0000000008200893 -1.8000000008461792 -6.5626604597007168 
5000.0000000000000 3000.0000000000000 -166.66666666670000 -15192236.737620851 7758582.9404804660 -4086931.7098559774 -3.9443300723726799e-05 0.0016454944980999833 -9.0394092524451061e-05 2.0000000008206396 -2.1000000009059758 -6.5626604606686252 
4000.0000000000000 4000.0000000000000 0.0000000000000000 -14615887.464977859 8334932.2164175017 -2043511.5744619616 -0.00024239226644233648 0.00048053950924032676 -0.00050403867486707276 2.4000000011721005 -1.8000000009800037 -6.5654175480992523 
5000.0000000000000 4000.0000000000000 0.0000000000000000 -14615887.467972243 8334932.2157322206 -2043511.5745160154 -6.0355006340633687e-05 0.00047865345846829794 -3.7708795948879776e-05 2.0000000009352266 -1.8000000009844968 -6.5654175489466704 
5000.0000000000000 3000.0000000000000 0.0000000000000000 -14615887.469649587 8334932.2093483787 -2043511.5748258054 -3.2206692096092204e-05 0.0010053793415103502 9.8016986361947501e-07 2.0000000009348180 -2.1000000010743496 -6.5654175499081164 
9000.0000000000000 7000.0000000000000 -1333.3333333329999 -23258599.534424137 -307779.86136067496 -32685854.383446109 -3.0387954407521234e-05 -0.0010337240146550087 0.00081885399055145816 0.40000000001343683 -0.90000000003664238 -6.1258094021974507 
9000.0000000000000 6000.0000000000000 -1333.3333333329999 -23258599.534392830 -307779.86141759012 -32685854.383090239 -4.7082041714516865e-05 -3.6862165689420138e-05 0.00073202714256990337 0.40000000001482888 -1.2000000000506408 -6.1258094024917389 
9000.0000000000000 7000.0000000000000 -1500.0000000000000 -24410524.610898562 -1459704.9390145985 -36769952.383895531 -2.5838316539518801e-05 -0.0010428666244577372 0.00084896434206057953 0.39999999999641561 -0.89999999998932623 -6.0037679170405553 
9000.0000000000000 6000.0000000000000 -1500.0000000000000 -24410524.610895045 -1459704.9391068828 -36769952.383655928 -4.1638818801626202e-05 1.8528415261821168e-05 0.00075669305442413405 0.39999999999767738 -1.1999999999843931 -6.0037679173368010 
9000.0000000000000 7000.0000000000000 -1166.6666666670001 -22106571.359733749 844248.31451021624 -28601390.853062268 -3.5389336816407368e-05 -0.0010113937753241527 0.00077817853807664338 0.40000000002973618 -0.90000000008324144 -6.2329450080090547 
9000.0000000000000 6000.0000000000000 -1166.6666666670001 -22106571.359677758 844248.31451142696 -28601390.852624979 -5.3196519145150781e-05 -9.3147144004031851e-05 0.00069710544951937339 0.40000000003127789 -1.2000000001171458 -6.2329450083011144 
9000.0000000000000 7000.0000000000000 -1000.0000000000000 -20954440.077586718 1996379.5978367412 -24516561.759995420 -4.1137637391062791e-05 -0.00097195584492816914 0.00072530772392839077 0.40000000004521530 -0.90000000012894055 -6.3251734003889064 
9000.0000000000000 6000.0000000000000 -1000.0000000000000 -20954440.077508580 1996379.5979228944 -24516561.759511646 -6.0469893862721322e-05 -0.00014628889413767097 0.00065047618162962896 0.40000000004694142 -1.2000000001837960 -6.3251734006786373 
9000.0000000000000 7000.0000000000000 -833.33333333329995 -19802205.678745706 3148613.9978539241 -20431367.071509704 -4.7975666681039910e-05 -0.00091089109440666656 0.00065840950609939882 0.40000000005976954 -0.90000000017353898 -6.4024932451289711 
9000.0000000000000 6000.0000000000000 -833.33333333329995 -19802205.678647391 3148613.9980561775 -20431367.071014505 -6.9483095082631220e-05 -0.00019150565127315272 0.00059056712077849198 0.40000000006173225 -1.2000000002504627 -6.4024932454164594 
9000.0000000000000 7000.0000000000000 -666.66666666670005 -18649868.153973632 4300951.5237960937 -16345806.754871327 -5.6295717234375375e-05 -0.00082307881384859072 0.00057544775277088153 0.40000000007328584 -0.90000000021681548 -6.4649032079026920 
9000.0000000000000 6000.0000000000000 -666.66666666670005 -18649868.153856542 4300951.5241502635 -16345806.754399875 -8.0918994518353195e-05 -0.00022321674578038502 0.00051568390252705468 0.40000000007555764 -1.2000000003169919 -6.4649032081882059 
9000.0000000000000 7000.0000000000000 -500.00000000000000 -17497427.494030990 5453392.1848994521 -12259880.777339261 -6.6545942380543332e-05 -0.00070277672390324942 0.00047416715887750518 0.40000000008563952 -0.90000000025851967 -6.5124019542639715 
9000.0000000000000 6000.0000000000000 -500.00000000000000 -17497427.493895963 5453392.1854463210 -12259880.776926830 -9.5573035950628624e-05 -0.00023498718504436089 0.00042400767289328819 0.40000000008831588 -1.2000000003831983 -6.5124019545479808 
9000.0000000000000 7000.0000000000000 -333.33333333330000 -16344883.689678809 6605935.9903989881 -8173589.1061759377 -7.9235728293922060e-05 -0.00054360013321549504 0.00035209310377807982 0.40000000009669145 -0.90000000029836724 -6.5449881496471241 
9000.0000000000000 6000.0000000000000 -333.33333333330000 -16344883.689526258 6605935.9911844600 -8173589.1058583632 -0.00011436531933275205 -0.00021946608388994301 0.00031360151399952333 0.40000000009989500 -1.2000000004488571 -6.5449881499302762 
9000.0000000000000 7000.0000000000000 -166.66666666670000 -15192236.731677622 7758582.9495293638 -4086931.7086438593 -9.4937474845851227e-05 -0.00033850066540154136 0.00020649144149069190 0.40000000010628411 -0.90000000033603633 -6.5626604593670175 
9000.0000000000000 6000.0000000000000 -166.66666666670000 -15192236.731507538 7758582.9506047536 -4086931.7084574462 -0.00013834886456897652 -0.00016836439178108680 0.00018238171090972886 0.40000000011016901 -1.2000000005136970 -6.5626604596501759 
9000.0000000000000 7000.0000000000000 0.0000000000000000 -14615887.463109739 8334932.2186566470 -2043511.5741931819 -0.00010361692946303366 -0.00022354495021876706 0.00012744849303553983 0.40000000011423692 -0.90000000037115691 -6.5654175486190782 
9000.0000000000000 6000.0000000000000 0.0000000000000000 -14615887.462930815 8334932.2198905330 -2043511.5740814293 -0.00015177865005523982 -0.00013282390297667584 0.00011129673419453305 0.40000000011899439 -1.2000000005773912 -6.5654175489033042 
8000.0000000000000 4000.0000000000000 -1333.3333333329999 -23258599.535554070 -307779.86337991332 -32685854.386535905 -3.9202285135767890e-05 0.0041988679164741234 0.00079981817478265937 0.80000000003494154 -1.8000000000486021 -6.1258094036057500 
8000.0000000000000 3000.0000000000000 -1333.3333333329999 -23258599.536815513 -307779.86493281747 -32685854.390689898 1.3304506189062535e-05 0.0064928393971043193 0.00051985329376639329 0.80000000003563188 -2.1000000000281585 -6.1258094045310365 
7000.0000000000000 3000.0000000000000 -1333.3333333329999 -23258599.536948405 -307779.86512712331 -32685854.391634040 -1.1493213017521841e-05 0.0063499009903897636 0.0011007987138814291 1.2000000000471100 -2.1000000000283663 -6.1258094042963398 
8000.0000000000000 4000.0000000000000 -1500.0000000000000 -24410524.612021804 -1459704.9406878259 -36769952.387672044 -2.0762344895299978e-05 0.0044060908334008064 0.00080439287128725927 0.79999999999839644 -1.7999999999532343 -6.0037679184389665 
8000.0000000000000 3000.0000000000000 -1500.0000000000000 -24410524.613267213 -1459704.9417532112 -36769952.392235599 3.4289625956660145e-05 0.0067071514937970082 0.00051999320347488999 0.79999999999834792 -2.0999999999329542 -6.0037679193484825 
7000.0000000000000 3000.0000000000000 -1500.0000000000000 -24410524.613333747 -1459704.9419214455 -36769952.393117942 6.4211693150235731e-07 0.0065647286107742521 0.0011120732917266106 1.1999999999894575 -2.0999999999338699 -6.0037679191085624 
8000.0000000000000 4000.0000000000000 -1166.6666666670001 -22106571.360891253 844248.31218888611 -28601390.855522461 -5.9530551681448823e-05 0.0039253504384941197 0.00078106486880189570 0.80000000007044592 -1.8000000001482326 -6.2329450094242143 
8000.0000000000000 3000.0000000000000 -1166.6666666670001 -22106571.362171296 844248.31011351664 -28601390.859248176 -1.0532578719110065e-05 0.0061778284272234569 0.00050891257187450417 0.80000000007195671 -2.1000000001295827 -6.2329450103629034 
7000.0000000000000 3000.0000000000000 -1166.6666666670001 -22106571.362388343 844248.30989737343 -28601390.860215243 -2.4409941274727646e-05 0.0060366214530535919 0.0010767298005684735 1.2000000001039377 -2.1000000001290005 -6.2329450101335260 
8000.0000000000000 4000.0000000000000 -1000.0000000000000 -20954440.078790851 1996379.5952690539 -24516561.761884868 -8.2225138415975099e-05 0.0035834768045818954 0.00074547650875017905 0.80000000010479355 -1.8000000002524603 -6.3251734018082209 
8000.0000000000000 3000.0000000000000 -1000.0000000000000 -20954440.080091186 1996379.5926352646 -24516561.765160169 -3.7504806809344742e-05 0.0057524639915353323 0.00048508888501411814 0.80000000010721728 -2.1000000002379067 -6.3251734027578346 
7000.0000000000000 3000.0000000000000 -1000.0000000000000 -20954440.080411967 1996379.5924014703 -24516561.766110413 -3.8135912312532784e-05 0.0056155982833927219 0.0010355210367099666 1.2000000001597524 -2.1000000002364527 -6.3251734025336637 
8000.0000000000000 4000.0000000000000 -833.33333333329995 -19802205.680013280 3148613.9951089011 -20431367.072890006 -0.00010804280679168132 0.0031716946394034955 0.00069032720721683095 0.80000000013787165 -1.8000000003616297 -6.4024932465500859 
8000.0000000000000 3000.0000000000000 -833.33333333329995 -19802205.681334533 3148613.9918802073 -20431367.075689923 -6.8132280611381141e-05 0.0052063103386424782 0.00044639589579511938 0.80000000014132433 -2.1000000003538717 -6.4024932475080414 
7000.0000000000000 3000.0000000000000 -833.33333333329995 -19802205.681779943 3148613.9916330734 -20431367.076582756 -5.2684550214572653e-05 0.0050768391587004682 0.00097211985688975113 1.2000000002143472 -2.1000000003514572 -6.4024932472887244 
8000.0000000000000 4000.0000000000000 -666.66666666670005 -18649868.155318677 4300951.5209578304 -16345806.755807839 -0.00013814059166445414 0.0026891593955673640 0.00061292295508443050 0.80000000016957262 -1.8000000004760854 -6.4649032093236460 
8000.0000000000000 3000.0000000000000 -666.66666666670005 -18649868.156660080 4300951.5170979835 -16345806.758105196 -0.00010334341940006340 0.0045281900912018591 0.00039120353791076814 0.80000000017421347 -2.1000000004782788 -6.4649032102872486 
7000.0000000000000 3000.0000000000000 -666.66666666670005 -18649868.157251529 4300951.5168422209 -16345806.758899314 -6.8046950720561554e-05 0.0044097792591983043 0.00088073341666734047 1.2000000002674891 -2.1000000004747985 -6.4649032100721886 
8000.0000000000000 4000.0000000000000 -500.00000000000000 -17497427.495464060 5453392.1820691703 -12259880.777902273 -0.00017424035827241525 0.0021359985168175957 0.00051068884162225455 0.80000000019979278 -1.8000000005961672 -6.5124019556832389 
8000.0000000000000 3000.0000000000000 -500.00000000000000 -17497427.496823099 5453392.1775432853 -12259880.779668679 -0.00014475259680820480 0.0037062787525845194 0.00031854123657558517 0.80000000020585538 -2.1000000006119914 -6.5124019566496969 
7000.0000000000000 3000.0000000000000 -500.00000000000000 -17497427.497581135 5453392.1772843665 -12259880.780322248 -8.4188250093248358e-05 0.0036035528184672812 0.00075476001068076513 1.2000000003189120 -2.1000000006073001 -6.5124019564380351 
8000.0000000000000 4000.0000000000000 -333.33333333330000 -16344883.691206291 6605935.9876973080 -8173589.1064420594 -0.00021882289428147057 0.0015136600129204167 0.00038132225289199681 0.80000000022843221 -1.8000000007221932 -6.5449881510636612 
8000.0000000000000 3000.0000000000000 -333.33333333330000 -16344883.692577938 6605935.9824738223 -8173589.1076482441 -0.00019508651256496559 0.0027281911458935668 0.00022856585951424463 0.80000000023627293 -2.1000000007559305 -6.5449881520300988 
7000.0000000000000 3000.0000000000000 -333.33333333330000 -16344883.693520127 6605935.9822182842 -8173589.1081197402 -0.00010104526453479299 0.0026474203613123040 0.00058674804014888031 1.2000000003683076 -2.1000000007498052 -6.5449881518207187 
8000.0000000000000 4000.0000000000000 -166.66666666670000 -15192236.733301071 7758582.9470987031 -4086931.7086976822 -0.00027534103403632326 0.00082539213025647237 0.00022292123542518843 0.80000000025539564 -1.8000000008544497 -6.5626604607803216 
8000.0000000000000 3000.0000000000000 -166.66666666670000 -15192236.734676868 7758582.9411522541 -4086931.7093138583 -0.00025883083272215147 0.0015813987651488056 0.00012324599113943519 0.80000000026556439 -2.1000000009110766 -6.5626604617438105 
7000.0000000000000 3000.0000000000000 -166.66666666670000 -15192236.735814406 7758582.9409078937 -4086931.7095635426 -0.00011852139757474343 0.0015316112516005074 0.00036834932885876576 1.2000000004153180 -2.1000000009031417 -6.5626604615353585 
8000.0000000000000 4000.0000000000000 0.0000000000000000 -14615887.464780916 8334932.2163999742 -2043511.5741631268 -0.00030708363712775950 0.00046531246737646637 0.00013625134542591725 0.80000000028059370 -1.8000000009931647 -6.5654175500292657 
8000.0000000000000 3000.0000000000000 0.0000000000000000 -14615887.466156183 8334932.2100866865 -2043511.5744768190 -0.00029475080617271830 0.00096427194388979396 6.7131818407215903e-05 0.80000000029393425 -2.1000000010784499 -6.5654175509868544 
7000.0000000000000 3000.0000000000000 0.0000000000000000 -14615887.467393139 8334932.2098500300 -2043511.5746059972 -0.00012739976781239365 0.00093266181293271701 0.00024544923612054929 1.2000000004595224 -2.1000000010680653 -6.5654175507777781 
2000.0000000000000 5000.0000000000000 -1333.3333333329999 -23258599.529500589 -307779.85790699837 -32685854.370337382 -2.8896685210673194e-05 0.0014832731641686075 -0.0088113563928810517 3.1999999999945321 -1.5000000000483984 -6.1258093986828692 
2000.0000000000000 4000.0000000000000 -1333.3333333329999 -23258599.530148789 -307779.85901917511 -32685854.372455020 -1.8436588558867208e-05 0.0039570413014111206 -0.0088625334986937847 3.1999999999953328 -1.8000000000435139 -6.1258093993668856 
2000.0000000000000 5000.0000000000000 -1500.0000000000000 -24410524.607531890 -1459704.9354458104 -36769952.369379021 -1.4510377354383458e-05 0.0016018804245012089 -0.0089729700153872386 3.1999999999001263 -1.4999999999676368 -6.0037679135774136 
2000.0000000000000 4000.0000000000000 -1500.0000000000000 -24410524.608199421 -1459704.9362886630 -36769952.371819660 -3.0146527453151493e-06 0.0041499883528163511 -0.0090260065112628407 3.1999999999004389 -1.7999999999511507 -6.0037679142535998 
2000.0000000000000 5000.0000000000000 -1166.6666666670001 -22106571.353220891 844248.31791179546 -28601390.841362026 -4.4327922765135771e-05 0.0013391069901399000 -0.0085173479520720113 3.2000000000971385 -1.5000000001310307 -6.2329450044503778 
2000.0000000000000 4000.0000000000000 -1166.6666666670001 -22106571.353852004 844248.31653109333 -28601390.843168072 -3.5364295537042534e-05 0.0037008415231240196 -0.0085656824986284751 3.2000000000984659 -1.8000000001399852 -6.2329450051406479 
2000.0000000000000 5000.0000000000000 -1000.0000000000000 -20954440.069460072 1996379.6012513123 -24516561.749725878 -6.1016084312947127e-05 0.0011720415997552509 -0.0080707076595000378 3.2000000002090454 -1.5000000002155558 -6.3251733967936028 
2000.0000000000000 4000.0000000000000 -1000.0000000000000 -20954440.070075005 1996379.5996067931 -24516561.751231059 -5.4012937405676246e-05 0.0033793446414508137 -0.0081151446742073197 3.2000000002109461 -1.8000000002408905 -6.3251733974886069 
2000.0000000000000 5000.0000000000000 -833.33333333329995 -19802205.668991249 3148614.0013486710 -20431367.062715147 -7.9193119759517975e-05 0.00098567632760904970 -0.0074477403933260605 3.2000000003315034 -1.5000000003019789 -6.4024932415047306 
2000.0000000000000 4000.0000000000000 -833.33333333329995 -19802205.669589099 3148613.9994498678 -20431367.063929871 -7.4597716076515037e-05 0.0029910892190701962 -0.0074871921331362426 3.2000000003340299 -1.8000000003465559 -6.4024932422030201 
2000.0000000000000 5000.0000000000000 -666.66666666670005 -18649868.142591722 4300951.5274399836 -16345806.747618916 -9.9114506738947638e-05 0.00078468169948667167 -0.0066207727817876958 3.2000000004659412 -1.5000000003902765 -6.4649032042575234 
2000.0000000000000 4000.0000000000000 -666.66666666670005 -18649868.143169209 4300951.5253023496 -16345806.748553844 -9.7332229653020161e-05 0.0025354159310903394 -0.0066540845325068756 3.2000000004691525 -1.8000000004573045 -6.4649032049577153 
2000.0000000000000 5000.0000000000000 -500.00000000000000 -17497427.481042180 5453392.1887625372 -12259880.771719676 -0.00012104937955588667 0.00057500017917297387 -0.0055576107133109842 3.2000000006139864 -1.5000000004803904 -6.5124019506062600 
2000.0000000000000 4000.0000000000000 -500.00000000000000 -17497427.481592968 5453392.1864085458 -12259880.772387082 -0.00012243130860216229 0.0020128661148792557 -0.0055836172492052484 3.2000000006179472 -1.8000000005734369 -6.5124019513070754 
2000.0000000000000 5000.0000000000000 -333.33333333330000 -16344883.675132280 6605935.9945511566 -8173589.1023037229 -0.00014525523622630035 0.00036397504243235423 -0.0042207204083940485 3.2000000007774938 -1.5000000005722116 -6.5449881459856822 
2000.0000000000000 4000.0000000000000 -333.33333333330000 -16344883.675645910 6605935.9920116821 -8173589.1027184343 -0.00015009393276616958 0.0014256218245095723 -0.0042383906126508683 3.2000000007822740 -1.8000000006952166 -6.5449881466859647 
2000.0000000000000 5000.0000000000000 -166.66666666670000 -15192236.715663457 7758582.9540384868 -4086931.7066563284 -0.00017195358107306545 0.00016054262571620623 -0.0025664284039313059 3.2000000009585716 -1.5000000006655745 -6.5626604557111312 
2000.0000000000000 4000.0000000000000 -166.66666666670000 -15192236.716124013 7758582.9513541264 -4086931.7068370734 -0.00018046213985024631 0.00077804566846165896 -0.0025749715226941684 3.2000000009642346 -1.8000000008228536 -6.5626604564098736 
2000.0000000000000 5000.0000000000000 0.0000000000000000 -14615887.446390314 8334932.2233608142 -2043511.5731850716 -0.00018595034403122733 6.1955822239121217e-05 -0.0016540639443131412 3.2000000011595828 -1.5000000007602390 -6.5654175449784917 
2000.0000000000000 4000.0000000000000 0.0000000000000000 -14615887.446819592 8334932.2206154354 -2043511.5732541704 -0.00019633522485160645 0.00043987945610220880 -0.0016578808691744733 3.2000000011661882 -1.8000000009564845 -6.5654175456748849 
6000.0000000000000 3000.0000000000000 -1333.3333333329999 -23258599.536933273 -307779.86521387758 -32685854.391912676 -3.3111861357968094e-05 0.0064576601470232326 0.00069649884895706506 1.6000000000572201 -2.1000000000274572 -6.1258094039731708 
6000.0000000000000 3000.0000000000000 -1500.0000000000000 -24410524.613273691 -1459704.9419755412 -36769952.393270865 -3.0085669524469859e-05 0.0066695543812250926 0.00066425846994408683 1.5999999999780710 -2.0999999999330030 -6.0037679187854867 
6000.0000000000000 3000.0000000000000 -1166.6666666670001 -22106571.362446979 844248.30978091725 -28601390.860581316 -3.5013568353735174e-05 0.0061455985875220687 0.00072520544817145636 1.6000000001365282 -2.1000000001280834 -6.2329450098105275 
6000.0000000000000 3000.0000000000000 -1000.0000000000000 -20954440.080579132 1996379.5922564880 -24516561.766527787 -3.5625792659381761e-05 0.0057237131244351081 0.00074468656721214806 1.6000000002158177 -2.1000000002355592 -6.3251734022109440 
6000.0000000000000 3000.0000000000000 -833.33333333329995 -19802205.682097428 3148613.9914585855 -20431367.077017762 -3.4537511537252720e-05 0.0051815400681634108 0.00074794981024169647 1.6000000002948680 -2.1000000003506245 -6.4024932469662570 
6000.0000000000000 3000.0000000000000 -666.66666666670005 -18649868.157769576 4300951.5166347995 -16345806.759320352 -3.0905451616658800e-05 0.0045078264888022022 0.00072639891759413756 1.6000000003733921 -2.1000000004740809 -6.4649032097498083 
6000.0000000000000 3000.0000000000000 -500.00000000000000 -17497427.498360340 5453392.1770378854 -12259880.780698806 -2.3164643155724588e-05 0.0036906070600807076 0.00066939207280746090 1.6000000004510115 -2.1000000006067925 -6.5124019561154558 
6000.0000000000000 3000.0000000000000 -333.33333333330000 -16344883.694634296 6605935.9819236137 -8173589.1084212670 -8.5897125178547880e-06 0.0027173798672989616 0.00056364053700263031 1.6000000005272264 -2.1000000007496875 -6.5449881514975052 
6000.0000000000000 3000.0000000000000 -166.66666666670000 -15192236.737354470 7758582.9405528987 -4086931.7097572144 1.7348220650575533e-05 0.0015753872473500674 0.00039237309948136857 1.6000000006013848 -2.1000000009037514 -6.5626604612108901 
6000.0000000000000 3000.0000000000000 0.0000000000000000 -14615887.469171323 8334932.2094614673 -2043511.5747371034 3.3860544754285251e-05 0.00096059609861443051 0.00028800969793344150 1.6000000006726409 -2.1000000010700197 -6.5654175504511816 
3000.0000000000000 5000.0000000000000 -1333.3333333329999 -23258599.531175859 -307779.85992559441 -32685854.377789129 -7.6800984158737168e-05 0.0015995878256860701 -0.0073877479934586748 2.8000000000219285 -1.5000000000508829 -6.1258093998574221 
3000.0000000000000 4000.0000000000000 -1333.3333333329999 -23258599.531856235 -307779.86105883087 -32685854.379841469 -5.0362090016596516e-05 0.0041115592594892269 -0.0076140691149907472 2.8000000000246072 -1.8000000000452263 -6.1258094005573591 
3000.0000000000000 5000.0000000000000 -1500.0000000000000 -24410524.608480353 -1459704.9374041012 -36769952.377263770 -6.0269992351446054e-05 0.0017272603381074797 -0.0076230288073342268 2.7999999999083616 -1.4999999999696194 -6.0037679147199228 
3000.0000000000000 4000.0000000000000 -1500.0000000000000 -24410524.609174252 -1459704.9382669919 -36769952.379643507 -2.8716190821084910e-05 0.0043125698146081696 -0.0078639746192183738 2.7999999999104506 -1.7999999999521725 -6.0037679154128929 
3000.0000000000000 5000.0000000000000 -1166.6666666670001 -22106571.355715018 844248.31582876388 -28601390.848309916 -9.4147071605435304e-05 0.0014456643042217178 -0.0070348299386045606 2.8000000001430712 -1.5000000001340390 -6.2329450056542441 
3000.0000000000000 4000.0000000000000 -1166.6666666670001 -22106571.356385149 844248.31442582642 -28601390.850048691 -7.3617268497175160e-05 0.0038457573629684053 -0.0072453239579156796 2.8000000001463659 -1.8000000001424363 -6.2329450063595635 
3000.0000000000000 5000.0000000000000 -1000.0000000000000 -20954440.072876841 1996379.5991002889 -24516561.756084453 -0.00011276645959437018 0.0012680536591310450 -0.0065525455831502485 2.8000000002726031 -1.5000000002191241 -6.3251733980235763 
3000.0000000000000 4000.0000000000000 -1000.0000000000000 -20954440.073539153 1996379.5974319126 -24516561.757523470 -9.8824097674390360e-05 0.0035129640055654634 -0.0067458514571520356 2.8000000002765555 -1.8000000002441363 -6.3251733987327725 
3000.0000000000000 5000.0000000000000 -833.33333333329995 -19802205.673446856 3148613.9991268427 -20431367.068383154 -0.00013328485379369116 0.0010701624347553324 -0.0059283669348896241 2.8000000004113939 -1.5000000003061602 -6.4024932427570178 
3000.0000000000000 4000.0000000000000 -833.33333333329995 -19802205.674102668 3148613.9972017789 -20431367.069536373 -0.00012657494170843276 0.0031114586550777378 -0.0061028407253751089 2.8000000004160737 -1.8000000003506680 -6.4024932434686832 
3000.0000000000000 5000.0000000000000 -666.66666666670005 -18649868.148214698 4300951.5251458222 -16345806.752477396 -0.00015654417023850396 0.00085637183264242948 -0.0051493555100102350 2.8000000005603565 -1.5000000003951486 -6.4649032055276328 
3000.0000000000000 4000.0000000000000 -666.66666666670005 -18649868.148863919 4300951.5229783608 -16345806.753359362 -0.00015784308311305565 0.0026401351975624018 -0.0053027703673610826 2.8000000005658703 -1.8000000004623791 -6.4649032062404581 
3000.0000000000000 5000.0000000000000 -500.00000000000000 -17497427.487972073 5453392.1863967124 -12259880.775629787 -0.00018365528396051630 0.00063219485698715050 -0.0042027123907349201 2.8000000007204253 -1.5000000004860576 -6.5124019518888980 
3000.0000000000000 4000.0000000000000 -500.00000000000000 -17497427.488612927 5453392.1840078831 -12259880.776256418 -0.00019416472722439283 0.0020987861932620952 -0.0043318405778764368 2.8000000007269339 -1.8000000005796104 -6.5124019526017047 
3000.0000000000000 5000.0000000000000 -333.33333333330000 -16344883.683516823 6605935.9921175102 -8173589.1051059524 -0.00021604074513728371 0.00040443187709206138 -0.0030767233752330863 2.8000000008925205 -1.5000000005788168 -6.5449881472746592 
3000.0000000000000 4000.0000000000000 -333.33333333330000 -16344883.684145283 6605935.9895367334 -8173589.1054947665 -0.00023784642112964090 0.0014884672674016729 -0.0031768758566271338 2.8000000009002650 -1.8000000007026880 -6.5449881479863947 
3000.0000000000000 5000.0000000000000 -166.66666666670000 -15192236.725652184 7758582.9515457032 -4086931.7081700764 -0.00025548328561422588 0.00018138221897486182 -0.0017623074093914360 2.8000000010775028 -1.5000000006732999 -6.5626604569992546 
3000.0000000000000 4000.0000000000000 -166.66666666670000 -15192236.726261407 7758582.9488126012 -4086931.7083408302 -0.00029220494103490393 0.00081189499350083961 -0.0018266425055220362 2.8000000010868251 -1.8000000008319028 -6.5626604577090344 
3000.0000000000000 5000.0000000000000 0.0000000000000000 -14615887.457218168 8334932.2208413947 -2043511.5740067090 -0.00027721566201362700 7.2177149328857138e-05 -0.0010570770115552091 2.8000000012760848 -1.5000000007693184 -6.5654175462574882 
3000.0000000000000 4000.0000000000000 0.0000000000000000 -14615887.457815694 8334932.2180434112 -2043511.5740737729 -0.00032253930151555552 0.00045750648945029116 -0.0011014707859248241 2.8000000012874664 -1.8000000009674983 -6.5654175469646177 
9000.0000000000000 3000.0000000000000 -1333.3333333329999 -23258599.536699153 -307779.86477830145 -32685854.389786147 1.6633536601329720e-05 0.0067229246080819146 0.00021644833461434529 0.40000000001856284 -2.1000000000273329 -6.1258094046810632 
9000.0000000000000 3000.0000000000000 -1500.0000000000000 -24410524.613199085 -1459704.9416112932 -36769952.391340509 3.1877074778982607e-05 0.0069349815281527904 0.00022356105078765790 0.40000000000042851 -2.0999999999313421 -6.0037679195032601 
9000.0000000000000 3000.0000000000000 -1166.6666666670001 -22106571.362001061 844248.31027619517 -28601390.858365647 -1.0370078572481167e-06 0.0064066538086069791 0.00020263475468108993 0.40000000003613989 -2.1000000001296608 -6.2329450105083417 
9000.0000000000000 3000.0000000000000 -1000.0000000000000 -20954440.079863001 1996379.5928009709 -24516561.764329195 -2.1487677606700309e-05 0.0059758080283161671 0.00018199722043771250 0.40000000005314229 -2.1000000002390173 -6.3251734028990025 
9000.0000000000000 3000.0000000000000 -833.33333333329995 -19802205.681047052 3148613.9920427469 -20431367.074941095 -4.5309934231126198e-05 0.0054190693518261276 0.00015493323333773068 0.40000000006957415 -2.1000000003561663 -6.4024932476453973 
9000.0000000000000 3000.0000000000000 -666.66666666670005 -18649868.156315967 4300951.5172498720 -16345806.757468278 -7.3463219587063049e-05 0.0047240109448819052 0.00012255893980437030 0.40000000008546582 -2.1000000004819501 -6.4649032104214053 
9000.0000000000000 3000.0000000000000 -500.00000000000000 -17497427.496430602 5453392.1776756886 -12259880.779170627 -0.00010744147067799810 0.0038769414502387986 8.6883186086886556e-05 0.40000000010087705 -2.1000000006173045 -6.5124019567813747 
9000.0000000000000 3000.0000000000000 -333.33333333330000 -16344883.692153038 6605935.9825764718 -8173589.1073114285 -0.00014947356097557541 0.0028626645136200532 5.0949184520992388e-05 0.40000000011589781 -2.1000000007632753 -6.5449881521601005 
9000.0000000000000 3000.0000000000000 -166.66666666670000 -15192236.734245634 7758582.9412140222 -4086931.7091526682 -0.00020275000670506052 0.0016642679419419234 1.8856650943221746e-05 0.40000000013064035 -2.1000000009210393 -6.5626604618729596 
9000.0000000000000 3000.0000000000000 0.0000000000000000 -14615887.465729721 8334932.2101251855 -2043511.5744057843 -0.00023266559270801104 0.0010168117868567996 4.3454803633118701e-06 0.40000000014522125 -2.1000000010919297 -6.5654175511158952 
3.7084029529999999e-30 3000.0000000000000 -1333.3333333329999 -23258599.529855900 -307779.85796832480 -32685854.366310339 -5.3448959263558107e-06 0.0063688686686065579 -0.0037499516602586625 4.0000000000000000 -2.1000000000255334 -6.1258093988480455 
1000.0000000000000 3000.0000000000000 -1333.3333333329999 -23258599.530221876 -307779.85870186810 -32685854.369359232 -5.7853218159095011e-06 0.0062957760016337933 -0.0062400914169351389 3.5999999999854353 -2.1000000000257200 -6.1258093992492384 
1.0619517550000000e-29 3000.0000000000000 -1500.0000000000000 -24410524.608815417 -1459704.9348667795 -36769952.365603551 -6.5397122702811142e-06 0.0065718262608697323 -0.0037515638277872223 4.0000000000000000 -2.0999999999331687 -6.0037679137681881 
1000.0000000000000 3000.0000000000000 -1500.0000000000000 -24410524.608916584 -1459704.9355676549 -36769952.368776485 -3.1634632426510093e-06 0.0065005407734044012 -0.0062912357245212928 3.5999999999306427 -2.0999999999334693 -6.0037679141535278 
3.8769667240000000e-30 3000.0000000000000 -1166.6666666670001 -22106571.352496579 844248.31718502124 -28601390.837195989 -4.2320265486308554e-06 0.0060672604537937470 -0.0036925495426871247 4.0000000000000000 -2.1000000001238908 -6.2329450045898458 
1000.0000000000000 3000.0000000000000 -1166.6666666670001 -22106571.353175964 844248.31641615648 -28601390.840082925 -8.9875611160229293e-06 0.0059934858558695122 -0.0060963541192934605 3.6000000000457848 -2.1000000001239627 -6.2329450050057611 
-1.2136591500000000e-29 3000.0000000000000 -1000.0000000000000 -20954440.067473277 1996379.5998391963 -24516561.745546766 -3.3530701793152827e-06 0.0056573593821617673 -0.0035682439862310504 4.0000000000000000 -2.1000000002288983 -6.3251733969080970 
1000.0000000000000 3000.0000000000000 -1000.0000000000000 -20954440.068524353 1996379.5990315180 -24516561.748228304 -1.2975676890309598e-05 0.0055841759021484274 -0.0058431431731325711 3.6000000001125096 -2.1000000002288619 -6.3251733973372888 
-1.6274744300000000e-29 3000.0000000000000 -833.33333333329995 -19802205.665519275 3148613.9992396142 -20431367.058662958 -2.6874480835266172e-06 0.0051286085349443369 -0.0033636877511949003 4.0000000000000000 -2.1000000003412849 -6.4024932415959421 
1000.0000000000000 3000.0000000000000 -833.33333333329995 -19802205.667012926 3148613.9983881279 -20431367.061090507 -1.7777673297726474e-05 0.0050574981888980818 -0.0054602943759400639 3.6000000001865682 -2.1000000003411476 -6.4024932420366190 
0.0000000000000000 3000.0000000000000 -666.66666666670005 -18649868.137362592 4300951.5246330639 -16345806.743855316 -1.8840720475209638e-06 0.0044694434407415214 -0.0030625680661058655 4.0000000000000000 -2.1000000004618582 -6.4649032043282233 
1000.0000000000000 3000.0000000000000 -666.66666666670005 -18649868.139385566 4300951.5237311628 -16345806.745972676 -2.3078329109820774e-05 0.0044022875999244898 -0.0049234758176157556 3.6000000002690942 -2.1000000004616148 -6.4649032047782162 
0.0000000000000000 3000.0000000000000 -500.00000000000000 -17497427.473722272 5453392.1852702964 -12259880.768439781 -2.1217481039419003e-08 0.0036672132597982861 -0.0026446145716174166 4.0000000000000000 -2.1000000005915163 -6.5124019506605526 
1000.0000000000000 3000.0000000000000 -500.00000000000000 -17497427.476381641 5453392.1843096614 -12259880.770179391 -2.7976894216117648e-05 0.0036066345048446097 -0.0042031309360971523 3.6000000003614514 -2.1000000005911246 -6.5124019511172415 
-1.4159356700000001e-29 3000.0000000000000 -333.33333333330000 -16344883.665305302 6605935.9904074809 -8173589.0997374142 4.7401630022673119e-06 0.0027078972917970912 -0.0020842327647638782 4.0000000000000000 -2.1000000007312591 -6.5449881460293255 
1000.0000000000000 3000.0000000000000 -333.33333333330000 -16344883.668736698 6605935.9893760467 -8173589.1010213504 -3.0620546530535416e-05 0.0026579541602448605 -0.0032629334320631500 3.6000000004652972 -2.1000000007306010 -6.5449881464895530 
0.0000000000000000 3000.0000000000000 -166.66666666670000 -15192236.702799790 7758582.9493103418 -4086931.7050672164 1.5759561757749021e-05 0.0015757432789036349 -0.0013479611505096234 4.0000000000000000 -2.1000000008822077 -6.5626604557518613 
1000.0000000000000 3000.0000000000000 -166.66666666670000 -15192236.707180366 7758582.9481886653 -4086931.7058100034 -2.7553603386513339e-05 0.0015432114233562989 -0.0020572304652682928 3.6000000005826820 -2.1000000008810287 -6.5626604562118604 
0.0000000000000000 3000.0000000000000 0.0000000000000000 -14615887.431859540 8334932.2183620939 -2043511.5721548768 2.3373610349548031e-05 0.00096436894999093353 -0.00093107189043336290 4.0000000000000000 -2.1000000010456383 -6.5654175450264196 
1000.0000000000000 3000.0000000000000 0.0000000000000000 -14615887.436765140 8334932.2171892561 -2043511.5726048832 -2.4033421243887091e-05 0.00094267671392747111 -0.0013816119921234260 3.6000000007162418 -2.1000000010434450 -6.5654175454817567 
3000.0000000000000 8000.0000000000000 -1333.3333333329999 -23258599.531262312 -307779.85962242528 -32685854.378214579 -4.0714273661081877e-05 -0.0013211929653663445 -0.0070468320760940766 2.8000000000148777 -0.60000000001783682 -6.1258093989961413 
2000.0000000000000 8000.0000000000000 -1333.3333333329999 -23258599.529666040 -307779.85761918599 -32685854.370618060 -1.9681653223092794e-05 -0.0013599241161967744 -0.0087005373505543056 3.1999999999919306 -0.60000000001671328 -6.1258093978459698 
3000.0000000000000 8000.0000000000000 -1500.0000000000000 -24410524.608467728 -1459704.9370419828 -36769952.377293393 -3.4284423560141380e-05 -0.0013624160419987918 -0.0072513911993737183 2.7999999999022567 -0.59999999998949738 -6.0037679138558753 
2000.0000000000000 8000.0000000000000 -1500.0000000000000 -24410524.607589774 -1459704.9350936222 -36769952.369245753 -1.2564158169735027e-05 -0.0014032282764088022 -0.0088599776948046285 3.1999999998986088 -0.59999999998856746 -6.0037679127392201 
3000.0000000000000 8000.0000000000000 -1166.6666666670001 -22106571.355893642 844248.31601085747 -28601390.849039778 -4.7648514958810588e-05 -0.0012626781138034952 -0.0067249380053975381 2.8000000001350216 -0.60000000004516607 -6.2329450047968811 
2000.0000000000000 8000.0000000000000 -1166.6666666670001 -22106571.353488397 844248.31807235221 -28601390.841968905 -2.7220827920945678e-05 -0.0012989592843200288 -0.0084110166847008224 3.2000000000933855 -0.60000000004383247 -6.2329450036160825 
3000.0000000000000 8000.0000000000000 -1000.0000000000000 -20954440.073143162 1996379.5990875089 -24516561.757025275 -5.5412324356426237e-05 -0.0011838646071336536 -0.0062742169024866965 2.8000000002634553 -0.60000000007129539 -6.3251733971707997 
2000.0000000000000 8000.0000000000000 -1000.0000000000000 -20954440.069827285 1996379.6012099315 -24516561.750568286 -3.5305732234500818e-05 -0.0012172538474817221 -0.0079713352815646253 3.2000000002040561 -0.60000000006972665 -6.3251733959627749 
3000.0000000000000 8000.0000000000000 -833.33333333329995 -19802205.673798960 3148613.9988329294 -20431367.069438897 -6.4362784821856285e-05 -0.0010813422768253887 -0.0056826974007738581 2.8000000004009893 -0.60000000009602183 -6.4024932419090002 
2000.0000000000000 8000.0000000000000 -833.33333333329995 -19802205.669459224 3148614.0010181866 -20431367.063698526 -4.4074337937243386e-05 -0.0011113023945441070 -0.0073579703696827316 3.2000000003251752 -0.60000000009418208 -6.4024932406777406 
3000.0000000000000 8000.0000000000000 -666.66666666670005 -18649868.148653343 4300951.5244711973 -16345806.753548786 -7.4882644594902322e-05 -0.00095128241939937538 -0.0049382902155764435 2.8000000005484669 -0.60000000011912558 -6.4649032046840258 
2000.0000000000000 8000.0000000000000 -666.66666666670005 -18649868.143165231 4300951.5267200228 -16345806.748643791 -5.3673993179668958e-05 -0.00097715792207385714 -0.0065434143319204842 3.2000000004581497 -0.60000000011696819 -6.4649032034342024 
3000.0000000000000 8000.0000000000000 -500.00000000000000 -17497427.488501050 5453392.1852274695 -12259880.776614057 -8.7377274030447517e-05 -0.00078943979251013799 -0.0040294554949931345 2.8000000007067389 -0.60000000014036603 -6.5124019510487932 
2000.0000000000000 8000.0000000000000 -500.00000000000000 -17497427.481730197 5453392.1875387225 -12259880.772680873 -6.4252984270691136e-05 -0.00081044248126849823 -0.0054955405693955543 3.2000000006045890 -0.60000000013783372 -6.5124019497858692 
3000.0000000000000 8000.0000000000000 -333.33333333330000 -16344883.684143104 6605935.9903246071 -8173589.1058958163 -0.00010226617444030500 -0.00059114117305836820 -0.0029462447676294979 2.8000000008766324 -0.60000000015947996 -6.5449881464365518 
2000.0000000000000 8000.0000000000000 -333.33333333330000 -16344883.675948394 6605935.9926945018 -8173589.1030888865 -7.5961354071155072e-05 -0.00060634529643240173 -0.0041768053881548507 3.2000000007663330 -0.60000000015650423 -6.5449881451668670 
3000.0000000000000 8000.0000000000000 -166.66666666670000 -15192236.726386294 7758582.9489840958 -4086931.7086531948 -0.00011996939258732004 -0.00035129099829149502 -0.0016818477080743919 2.8000000010588901 -0.60000000017617683 -6.5626604561610069 
2000.0000000000000 8000.0000000000000 -166.66666666670000 -15192236.716626542 7758582.9514047280 -4086931.7071449175 -8.8945619320118392e-05 -0.00035961450640554956 -0.0025433184985440742 3.2000000009454732 -0.60000000017267974 -6.5626604548918399 
3000.0000000000000 8000.0000000000000 0.0000000000000000 -14615887.458009321 8334932.2178570926 -2043511.5743078114 -0.00012957653400413394 -0.00022031520664799335 -0.0010037592590837593 2.8000000012540895 -0.60000000019013644 -6.5654175454162909 
2000.0000000000000 8000.0000000000000 0.0000000000000000 -14615887.447432324 8334932.2203004686 -2043511.5734942392 -9.5774699221005269e-05 -0.00022490817337554971 -0.0016419794502267383 3.2000000011443746 -0.60000000018603261 -6.5654175441559213 
3000.0000000000000 9000.0000000000000 -1333.3333333329999 -23258599.531447668 -307779.85988796421 -32685854.378741592 -2.0101265187263289e-05 -0.00081731555307522135 -0.0070079619007740075 2.8000000000138994 -0.30000000000772498 -6.1258093989458411 
3000.0000000000000 10000.000000000000 -1333.3333333329999 -23258599.531519674 -307779.85999700864 -32685854.378942229 -9.8995205272628736e-06 -0.00044810147994913210 -0.0069958100467396190 2.8000000000135903 0.0000000000000000 -6.1258093989338569 
4000.0000000000000 10000.000000000000 -1333.3333333329999 -23258599.533159871 -307779.86152612721 -32685854.384373385 -1.1207138053926218e-05 -0.00043539060499823463 -0.0044358036799849636 2.4000000000443578 0.0000000000000000 -6.1258093999737664 
3000.0000000000000 9000.0000000000000 -1500.0000000000000 -24410524.608631507 -1459704.9372272377 -36769952.377800539 -1.6899542698748311e-05 -0.00084712751292854689 -0.0072098540505616112 2.7999999999014147 -0.29999999999426130 -6.0037679138035873 
3000.0000000000000 10000.000000000000 -1500.0000000000000 -24410524.608695969 -1459704.9373053091 -36769952.377996981 -8.3289496064513971e-06 -0.00046541058434048770 -0.0071970027833711528 2.7999999999011469 0.0000000000000000 -6.0037679137908588 
4000.0000000000000 10000.000000000000 -1500.0000000000000 -24410524.609775867 -1459704.9388290949 -36769952.383946449 -9.5722698688081501e-06 -0.00045212010973819897 -0.0046622721297067144 2.3999999999322852 0.0000000000000000 -6.0037679148086012 
3000.0000000000000 9000.0000000000000 -1166.6666666670001 -22106571.356099576 844248.31565216649 -28601390.849569101 -2.3619466869658349e-05 -0.00077673909584039360 -0.0066888008165962524 2.8000000001338936 -0.30000000002053856 -6.2329450047484816 
3000.0000000000000 10000.000000000000 -1166.6666666670001 -22106571.356178790 844248.31550775969 -28601390.849767901 -1.1652352803933747e-05 -0.00042488866700170214 -0.0066773603452654831 2.8000000001335352 0.0000000000000000 -6.2329450047371981 
4000.0000000000000 10000.000000000000 -1166.6666666670001 -22106571.358415630 844248.31397276116 -28601390.854648769 -1.3007909271109828e-05 -0.00041281091446441229 -0.0041348562064141559 2.4000000001613331 0.0000000000000000 -6.2329450057962310 
3000.0000000000000 9000.0000000000000 -1000.0000000000000 -20954440.073369049 1996379.5986210979 -24516561.757538851 -2.7641586330324491e-05 -0.00072382814829909515 -0.0062409792463217215 2.8000000002621515 -0.30000000003259325 -6.3251733971241357 
3000.0000000000000 10000.000000000000 -1000.0000000000000 -20954440.073455255 1996379.5984363807 -24516561.757729638 -1.3688307578947621e-05 -0.00039495985478756707 -0.0062303136851656164 2.8000000002617340 0.0000000000000000 -6.3251733971134785 
4000.0000000000000 10000.000000000000 -1000.0000000000000 -20954440.076322787 1996379.5968966219 -24516561.762024082 -1.5069238584353026e-05 -0.00038361642427240256 -0.0037584164354167973 2.4000000002835100 0.0000000000000000 -6.3251733981884035 
3000.0000000000000 9000.0000000000000 -833.33333333329995 -19802205.674044505 3148613.9982425212 -20431367.069918081 -3.2368792158511366e-05 -0.00065682510319998750 -0.0056526332299175943 2.8000000003994732 -0.30000000004377297 -6.4024932418638096 
3000.0000000000000 10000.000000000000 -833.33333333329995 -19802205.674137611 3148613.9980119984 -20431367.070094474 -1.6116309297157919e-05 -0.00035743115748337396 -0.0056428423483087103 2.8000000003989824 0.0000000000000000 -6.4024932418536755 
4000.0000000000000 10000.000000000000 -833.33333333329995 -19802205.677665591 3148613.9964705277 -20431367.073763072 -1.7493414768514663e-05 -0.00034698004146367677 -0.0033066970416915798 2.4000000004111808 0.0000000000000000 -6.4024932429410839 
3000.0000000000000 9000.0000000000000 -666.66666666670005 -18649868.148918651 4300951.5237387652 -16345806.753974419 -3.8012569214620264e-05 -0.00057377209595718974 -0.0049118693139415387 2.8000000005466896 -0.30000000005395350 -6.4649032046399455 
3000.0000000000000 10000.000000000000 -666.66666666670005 -18649868.149018709 4300951.5234563760 -16345806.754129879 -1.9050456594433980e-05 -0.00031132237745393134 -0.0049031320857758943 2.8000000005461083 0.0000000000000000 -6.4649032046301969 
4000.0000000000000 10000.000000000000 -666.66666666670005 -18649868.153229773 4300951.5219184980 -16345806.757131316 -2.0388626321789068e-05 -0.00030199118479125753 -0.0027815067321823972 2.4000000005446172 0.0000000000000000 -6.4649032057265154 
3000.0000000000000 9000.0000000000000 -500.00000000000000 -17497427.488786608 5453392.1843332192 -12259880.776966445 -4.4795138675231258e-05 -0.00047250704372981669 -0.0040073656811043315 2.8000000007046419 -0.30000000006300048 -6.5124019510053648 
3000.0000000000000 10000.000000000000 -500.00000000000000 -17497427.488893803 5453392.1839923318 -12259880.777094308 -2.2614032686236107e-05 -0.00025555186751138138 -0.0039999567116862696 2.8000000007039447 0.0000000000000000 -6.5124019509958311 
4000.0000000000000 10000.000000000000 -500.00000000000000 -17497427.493799634 5453392.1824660059 -12259880.779387459 -2.3868535345647545e-05 -0.00024766313030052364 -0.0021865502623711077 2.4000000006840612 0.0000000000000000 -6.5124019520973686 
3000.0000000000000 9000.0000000000000 -333.33333333330000 -16344883.684449784 6605935.9892470157 -8173589.1061545918 -5.2935090149949213e-05 -0.00035068014867866446 -0.0029294413835650110 2.8000000008741424 -0.30000000007076816 -6.5449881463932096 
3000.0000000000000 10000.000000000000 -333.33333333330000 -16344883.684564412 6605935.9888404813 -8173589.1062479150 -2.6920802081707519e-05 -0.00018895145813517246 -0.0029237281463357807 2.8000000008733013 0.0000000000000000 -6.5449881463836856 
4000.0000000000000 10000.000000000000 -333.33333333330000 -16344883.690160455 6605935.9873369550 -8173589.1077942159 -2.8045211415477186e-05 -0.00018293494145346710 -0.0015278554519692375 2.4000000008297131 0.0000000000000000 -6.5449881474867011 
3000.0000000000000 9000.0000000000000 -166.66666666670000 -15192236.726715382 7758582.9476999110 -4086931.7087973501 -6.2636204057588102e-05 -0.00020573695036437168 -0.0016716087460364097 2.8000000010559236 -0.30000000007709809 -6.5626604561170785 
3000.0000000000000 10000.000000000000 -166.66666666670000 -15192236.726837847 7758582.9472200666 -4086931.7088489337 -3.2067494034129080e-05 -0.00011024258086299603 -0.0016680803678085850 2.8000000010549080 0.0000000000000000 -6.5626604561073192 
4000.0000000000000 10000.000000000000 -166.66666666670000 -15192236.733096495 7758582.9457547311 -4086931.7096152832 -3.3031265652319867e-05 -0.00010664580819612688 -0.00081403043298979775 2.4000000009817257 0.0000000000000000 -6.5626604572081231 
3000.0000000000000 9000.0000000000000 0.0000000000000000 -14615887.458349999 8334932.2164635696 -2043511.5743893746 -6.7901362593444079e-05 -0.00012715273273619486 -0.00099716062248049984 2.8000000012505555 -0.30000000008181638 -6.5654175453709840 
3000.0000000000000 10000.000000000000 0.0000000000000000 -14615887.458476514 8334932.2159450855 -2043511.5744182793 -3.4862647216924185e-05 -6.7692873591376730e-05 -0.00099486146957435931 2.8000000012493307 0.0000000000000000 -6.5654175453607122 
4000.0000000000000 10000.000000000000 0.0000000000000000 -14615887.465056185 8334932.2145032864 -2043511.5747872032 -3.5741367527877403e-05 -6.5458553420166094e-05 -0.00044457299063501907 2.4000000011402118 0.0000000000000000 -6.5654175464558220 
10000.000000000000 8000.0000000000000 -1333.3333333329999 -23258599.534480914 -307779.86149142665 -32685854.383835908 -7.9590548312659005e-06 -0.0011785141673072293 0.00047706092544117179 0.0000000000000000 -0.60000000002232468 -6.1258094020676799 
10000.000000000000 7000.0000000000000 -1333.3333333329999 -23258599.534320503 -307779.86127063556 -32685854.383196939 -1.7493007741411936e-05 -0.0010032453044857802 0.00045229077993417767 0.0000000000000000 -0.90000000003719949 -6.1258094022194429 
10000.000000000000 8000.0000000000000 -1500.0000000000000 -24410524.610961314 -1459704.9390682275 -36769952.384236842 -5.8877034519623585e-06 -0.0012127019583806611 0.00049590701971557126 0.0000000000000000 -0.59999999999253262 -6.0037679169090827 
10000.000000000000 7000.0000000000000 -1500.0000000000000 -24410524.610824618 -1459704.9389312123 -36769952.383645475 -1.5083646823072613e-05 -0.0010105276077637618 0.00047051728349344676 0.0000000000000000 -0.89999999998980529 -6.0037679170634579 
10000.000000000000 8000.0000000000000 -1166.6666666670001 -22106571.359777555 844248.31428249262 -28601390.853479542 -1.0213689907424602e-05 -0.0011289080021243598 0.00045212726786089268 0.0000000000000000 -0.60000000005118437 -6.2329450078810407 
10000.000000000000 7000.0000000000000 -1166.6666666670001 -22106571.359595962 844248.31460639380 -28601390.852821350 -2.0215482720175422e-05 -0.00098298274895099527 0.00042821763839937882 0.0000000000000000 -0.90000000008388603 -6.2329450080302076 
10000.000000000000 8000.0000000000000 -1000.0000000000000 -20954440.077610433 1996379.5974895079 -24516561.760419071 -1.2734800160210902e-05 -0.0010610395983118969 0.00042024802342784426 0.0000000000000000 -0.60000000007894772 -6.3251734002625959 
10000.000000000000 7000.0000000000000 -1000.0000000000000 -20954440.077409804 1996379.5979388393 -24516561.759769849 -2.3445833794087478e-05 -0.00094588188659988138 0.00039752391377651501 0.0000000000000000 -0.90000000012968873 -6.3251734004093221 
10000.000000000000 8000.0000000000000 -833.33333333329995 -19802205.678742066 3148613.9973618588 -20431367.071918543 -1.5617577859965519e-05 -0.00097168631487861725 0.00038044603549397375 0.0000000000000000 -0.60000000010543875 -6.4024932450042016 
10000.000000000000 7000.0000000000000 -833.33333333329995 -19802205.678524192 3148613.9979620446 -20431367.071306311 -2.7405268477348676e-05 -0.00088751794228805725 0.00035933620401067904 0.0000000000000000 -0.90000000017441428 -6.4024932451487846 
10000.000000000000 8000.0000000000000 -666.66666666670005 -18649868.153935168 4300951.5231310278 -16345806.755243951 -1.8967612259312056e-05 -0.00085725020580873219 0.00033162368821749988 0.0000000000000000 -0.60000000013046539 -6.4649032077791935 
10000.000000000000 7000.0000000000000 -666.66666666670005 -18649868.153701533 4300951.5239106994 -16345806.754696587 -3.2342009080862584e-05 -0.00080288385432015369 0.00031268035872649130 0.0000000000000000 -0.90000000021784754 -6.4649032079220712 
10000.000000000000 8000.0000000000000 -500.00000000000000 -17497427.493949987 5453392.1840302739 -12259880.777654082 -2.2902512494398172e-05 -0.00071375642319649820 0.00027256285796266159 0.0000000000000000 -0.60000000015381638 -6.5124019541413567 
10000.000000000000 7000.0000000000000 -500.00000000000000 -17497427.493701778 5453392.1850213911 -12259880.777199311 -3.8538430006250350e-05 -0.00068637690243787816 0.00025647157171977436 0.0000000000000000 -0.90000000025974669 -6.5124019542831162 
10000.000000000000 8000.0000000000000 -333.33333333330000 -16344883.689547213 6605935.9892915459 -8173589.1064112708 -2.7545763124581476e-05 -0.00053683319394277342 0.00020189453814279876 0.0000000000000000 -0.60000000017525723 -6.5449881495248849 
10000.000000000000 7000.0000000000000 -333.33333333330000 -16344883.689285344 6605935.9905295558 -8173589.1060765376 -4.6310950131009021e-05 -0.00053178983480274718 0.00018948483200490130 0.0000000000000000 -0.90000000029983718 -6.5449881496662590 
10000.000000000000 8000.0000000000000 -166.66666666670000 -15192236.731486831 7758582.9481464559 -4086931.7087777788 -3.3018883870497661e-05 -0.00032170040563890930 0.00011805575856922293 0.0000000000000000 -0.60000000019452671 -6.5626604592445288 
10000.000000000000 7000.0000000000000 -166.66666666670000 -15192236.731211983 7758582.9496703763 -4086931.7085903469 -5.6012962709361928e-05 -0.00033227966663489724 0.00011030586533278477 0.0000000000000000 -0.90000000033780592 -6.5626604593863984 
10000.000000000000 8000.0000000000000 0.0000000000000000 -14615887.462887125 8334932.2171263099 -2043511.5742709180 -3.5977814692235540e-05 -0.00020395853526268112 7.2637352049150590e-05 0.0000000000000000 -0.60000000021133271 -6.5654175484955868 
10000.000000000000 7000.0000000000000 0.0000000000000000 -14615887.462605925 8334932.2188034002 -2043511.5741639102 -6.1393184075354040e-05 -0.00022039694532740339 6.7477963281136475e-05 0.0000000000000000 -0.90000000037329553 -6.5654175486389912 
8000.0000000000000 10000.000000000000 -1333.3333333329999 -23258599.535108041 -307779.86213767494 -32685854.385467257 -9.2995538992259332e-07 -0.00041213917567988151 0.0013896387262757558 0.80000000002747784 0.0000000000000000 -6.1258094018932958 
8000.0000000000000 10000.000000000000 -1500.0000000000000 -24410524.611458324 -1459704.9395782149 -36769952.385844231 1.3088281936320096e-06 -0.00042766252633163473 0.0014314932763847209 0.79999999999257032 0.0000000000000000 -6.0037679167284823 
8000.0000000000000 10000.000000000000 -1166.6666666670001 -22106571.360551916 844248.31348513602 -28601390.855082881 -3.2627691771003122e-06 -0.00039104371598511797 0.0013300366558534084 0.80000000006122451 0.0000000000000000 -6.2329450077125061 
8000.0000000000000 10000.000000000000 -1000.0000000000000 -20954440.078552410 1996379.5965231631 -24516561.761943258 -5.6875502608154682e-06 -0.00036363865926600610 0.0012493406740014385 0.80000000009362771 0.0000000000000000 -6.3251734000992936 
8000.0000000000000 10000.000000000000 -833.33333333329995 -19802205.679875448 3148613.9962055003 -20431367.073313423 -8.2066010779625961e-06 -0.00032910997908866242 0.0011437233859758545 0.80000000012448935 0.0000000000000000 -6.4024932448452621 
8000.0000000000000 10000.000000000000 -666.66666666670005 -18649868.155287169 4300951.5217604889 -16345806.756460082 -1.0824266143842877e-05 -0.00028656811034325180 0.0010088379714349939 0.80000000015359141 0.0000000000000000 -6.4649032076234967 
8000.0000000000000 10000.000000000000 -500.00000000000000 -17497427.495551359 5453392.1824181573 -12259880.778642830 -1.3545272700734688e-05 -0.00023503395931457116 0.00083982166977181389 0.80000000018069106 0.0000000000000000 -6.5124019539875286 
8000.0000000000000 10000.000000000000 -333.33333333330000 -16344883.691432392 6605935.9874071293 -8173589.1071248977 -1.6376499419887966e-05 -0.00017344897781980813 0.00063125431715683382 0.80000000020551554 0.0000000000000000 -6.5449881493712958 
8000.0000000000000 10000.000000000000 -166.66666666670000 -15192236.733694125 7758582.9459556248 -4086931.7091694698 -1.9315800079500909e-05 -0.00010070110185682687 0.00037717162134957193 0.80000000022775697 0.0000000000000000 -6.5626604590892921 
8000.0000000000000 10000.000000000000 0.0000000000000000 -14615887.465265559 8334932.2147733122 -2043511.5744900738 -2.0810964239327722e-05 -6.1394919798606626e-05 0.00023797176812004851 0.80000000024706741 0.0000000000000000 -6.5654175483365584 
7.4168059059999997e-30 6000.0000000000000 -1333.3333333329999 -23258599.527723651 -307779.85488633206 -32685854.360021263 1.9131349976620018e-05 -0.00032397402258455812 -0.0040926483324798977 4.0000000000000000 -1.2000000000428011 -6.1258093967908849 
2.1239035100000000e-29 6000.0000000000000 -1500.0000000000000 -24410524.606632054 -1459704.9325996223 -36769952.358380914 2.4885442659769276e-05 -0.00028051192891377874 -0.0041202516365660248 4.0000000000000000 -1.1999999999799644 -6.0037679117320604 
7.7539334480000000e-30 6000.0000000000000 -1166.6666666670001 -22106571.350408316 844248.32109759469 -28601390.831808962 1.2954383037447065e-05 -0.00036382708938230516 -0.0040091069725570957 4.0000000000000000 -1.2000000001057192 -6.2329450025162609 
-2.4273182999999999e-29 6000.0000000000000 -1000.0000000000000 -20954440.065423399 1996379.6045916779 -24516561.741031077 6.4655205155732509e-06 -0.00039569724556840299 -0.0038584792424047241 4.0000000000000000 -1.2000000001685669 -6.3251733948224951 
-3.2549488500000001e-29 6000.0000000000000 -833.33333333329995 -19802205.663503200 3148614.0048332904 -20431367.054988109 -1.9077334269000067e-07 -0.00041446482960864238 -0.0036270246013239940 4.0000000000000000 -1.2000000002311713 -6.4024932395025074 
0.0000000000000000 6000.0000000000000 -666.66666666670005 -18649868.135375824 4300951.5310590146 -16345806.740990574 -6.8254088462076789e-06 -0.00041418153180225090 -0.0032974852945602548 4.0000000000000000 -1.2000000002933315 -6.4649032022308983 
0.0000000000000000 6000.0000000000000 -500.00000000000000 -17497427.471758928 5453392.1925066607 -12259880.766353782 -1.3196283844264774e-05 -0.00038806453448019234 -0.0028476417316685549 4.0000000000000000 -1.2000000003548117 -6.5124019485630171 
-2.8318713500000002e-29 6000.0000000000000 -333.33333333330000 -16344883.663355149 6605935.9984166995 -8173589.0983956270 -1.8992853146850926e-05 -0.00032844985576413802 -0.0022481601341373127 4.0000000000000000 -1.2000000004153357 -6.5449881439349751 
0.0000000000000000 6000.0000000000000 -166.66666666670000 -15192236.700843716 7758582.9580357950 -4086931.7044286081 -2.3803639256818821e-05 -0.00022673983352373612 -0.0014592555588349978 4.0000000000000000 -1.2000000004745799 -6.5626604536637627 
0.0000000000000000 6000.0000000000000 0.0000000000000000 -14615887.429894328 8334932.2274288405 -2043511.5718567423 -2.5903551962243407e-05 -0.00016422863538693649 -0.0010116953745965193 4.0000000000000000 -1.2000000005321649 -6.5654175429472872 
0.0000000000000000 9000.0000000000000 -1333.3333333329999 -23258599.528176744 -307779.85543671716 -32685854.361670837 1.1580832327311588e-06 -0.00084328693710217532 -0.0041506500938349473 4.0000000000000000 -0.30000000000714910 -6.1258093963635565 
0.0000000000000000 9000.0000000000000 -1500.0000000000000 -24410524.606970862 -1459704.9329289487 -36769952.359861434 3.2583396113597531e-06 -0.00087304999468858289 -0.0041929789962801608 4.0000000000000000 -0.29999999999399307 -6.0037679112973770 
0.0000000000000000 9000.0000000000000 -1166.6666666670001 -22106571.350972123 844248.32026986941 -28601390.833549079 -9.6547523056319162e-07 -0.00080199446972553667 -0.0040549794998231848 4.0000000000000000 -0.30000000001964111 -6.2329450020962591 
0.0000000000000000 9000.0000000000000 -1000.0000000000000 -20954440.066095635 1996379.6034214832 -24516561.742782075 -3.0610139133912995e-06 -0.00074760292942111677 -0.0038947306417960303 4.0000000000000000 -0.30000000003135835 -6.3251733944093909 
0.0000000000000000 9000.0000000000000 -833.33333333329995 -19802205.664282799 3148614.0032462776 -20431367.056669034 -5.0705856949661065e-06 -0.00067834618306496024 -0.0036559252821695950 4.0000000000000000 -0.30000000004218302 -6.4024932390954632 
0.0000000000000000 9000.0000000000000 -666.66666666670005 -18649868.136262637 4300951.5289714895 -16345806.742518242 -6.9354953577786951e-06 -0.00059229677941401778 -0.0033208639315643420 4.0000000000000000 -0.30000000005198857 -6.4649032018286583 
0.0000000000000000 9000.0000000000000 -500.00000000000000 -17497427.472753584 5453392.1898253057 -12259880.767642409 -8.5994672825342340e-06 -0.00048734718940923266 -0.0028667064993012060 4.0000000000000000 -0.30000000006063865 -6.5124019481638893 
0.0000000000000000 9000.0000000000000 -333.33333333330000 -16344883.664459160 6605935.9950380214 -8173589.0993574467 -1.0006389875785253e-05 -0.00036119546910147416 -0.0022632902254431774 4.0000000000000000 -0.30000000006798477 -6.5449881435368162 
0.0000000000000000 9000.0000000000000 -166.66666666670000 -15192236.702059589 7758582.9538455540 -4086931.7049744753 -1.1122583163538882e-05 -0.00021135994387025430 -0.0014698756579276720 4.0000000000000000 -0.30000000007386490 -6.5626604532639785 
0.0000000000000000 9000.0000000000000 0.0000000000000000 -14615887.431166891 8334932.2228028830 -2043511.5721721891 -1.1606777918491011e-05 -0.00013019742043667248 -0.0010197902324150664 4.0000000000000000 -0.30000000007809990 -6.5654175425428170 
3000.0000000000000 1000.0000000000000 -1333.3333333329999 -23258599.536074001 -307779.86494737514 -32685854.395108163 5.1067196344934659e-05 0.0047464342675793501 -0.0080711416458563237 2.8000000000210665 -2.6999999999930493 -6.1258094032317834 
3000.0000000000000 1000.0000000000000 -1500.0000000000000 -24410524.613269579 -1459704.9405660401 -36769952.395905338 6.0822804585880412e-05 0.0047984739445338957 -0.0082967590357528754 2.7999999999046810 -2.6999999999494055 -6.0037679180225547 
3000.0000000000000 1000.0000000000000 -1166.6666666670001 -22106571.360738207 844248.30875909876 -28601390.864187982 3.9226637333001451e-05 0.0046247669826956113 -0.0077173763081108066 2.8000000001453773 -2.7000000000409594 -6.2329450090922327 
3000.0000000000000 1000.0000000000000 -1000.0000000000000 -20954440.078040008 1996379.5897737581 -24516561.770376164 2.5096704479732618e-05 0.0044209232551117488 -0.0072218197656343935 2.8000000002784691 -2.7000000000937878 -6.3251734015162544 
3000.0000000000000 1000.0000000000000 -833.33333333329995 -19802205.678763743 3148613.9873107802 -20431367.080915265 8.5003644277054808e-06 0.0041199119069252454 -0.0065695082649519631 2.8000000004212784 -2.7000000001522824 -6.4024932462944850 
3000.0000000000000 1000.0000000000000 -666.66666666670005 -18649868.153697874 4300951.5105806934 -16345806.763048321 -1.0649998661423193e-05 0.0037037392922655062 -0.0057441238551925178 2.8000000005748342 -2.7000000002173143 -6.4649032090988703 
3000.0000000000000 1000.0000000000000 -500.00000000000000 -17497427.493632823 5453392.1687924918 -12259880.784009365 -3.2247183048128160e-05 0.0031506685461527985 -0.0047279587849338393 2.8000000007402588 -2.7000000002899034 -6.5124019554816197 
3000.0000000000000 1000.0000000000000 -333.33333333330000 -16344883.689364728 6605935.9711497761 -8173589.1110347398 -5.5819627439151134e-05 0.0024342292224676949 -0.0035019479532844124 2.8000000009187840 -2.7000000003712534 -6.5449881508751506 
3000.0000000000000 1000.0000000000000 -166.66666666670000 -15192236.731694609 7758582.9268511478 -4086931.7113590813 -8.0229589542557805e-05 0.0015219486052255229 -0.0020458491057286131 2.8000000011117674 -2.7000000004628038 -6.5626604605922338 
3000.0000000000000 1000.0000000000000 0.0000000000000000 -14615887.463359399 8334932.1941874297 -2043511.5757499128 -9.2447862762929327e-05 0.0010123675021830585 -0.0012576828793263697 2.8000000013207331 -2.7000000005662996 -6.5654175498259457 
10000.000000000000 6000.0000000000000 -1333.3333333329999 -23258599.534302555 -307779.86132952577 -32685854.382814955 -2.6067511852127702e-05 1.7487259025999357e-05 0.00040516849026888015 0.0000000000000000 -1.2000000000514814 -6.1258094025170529 
10000.000000000000 6000.0000000000000 -1500.0000000000000 -24410524.610832792 -1459704.9390246426 -36769952.383374214 -2.3149649978268885e-05 7.6611602866095778e-05 0.00042220914770199326 0.0000000000000000 -1.1999999999851432 -6.0037679173630636 
10000.000000000000 6000.0000000000000 -1166.6666666670001 -22106571.359555516 844248.31460465584 -28601390.852363903 -2.9478166386070257e-05 -4.2763944121237594e-05 0.00038264650906175927 0.0000000000000000 -1.2000000001180937 -6.2329450083255686 
10000.000000000000 6000.0000000000000 -1000.0000000000000 -20954440.077350125 1996379.5980209354 -24516561.759271953 -3.3706648587819362e-05 -0.00010023026956733455 0.00035403581897141211 0.0000000000000000 -1.2000000001848785 -6.3251734007023543 
10000.000000000000 6000.0000000000000 -833.33333333329995 -19802205.678448252 3148613.9981590016 -20431367.070802812 -3.9130620594115769e-05 -0.00015030169189660922 0.00031867626195884909 0.0000000000000000 -1.2000000002517182 -6.4024932454395822 
10000.000000000000 6000.0000000000000 -666.66666666670005 -18649868.153612036 4300951.5242582532 -16345806.754222022 -4.6186193286507277e-05 -0.00018761865873556080 0.00027586191937724997 0.0000000000000000 -1.2000000003184728 -6.4649032082109112 
10000.000000000000 6000.0000000000000 -500.00000000000000 -17497427.493601210 5453392.1855603037 -12259880.776787896 -5.5376736822578801e-05 -0.00020602051894359058 0.00022483114197760073 0.0000000000000000 -1.2000000003849713 -6.5124019545704552 
10000.000000000000 6000.0000000000000 -333.33333333330000 -16344883.689176144 6605935.9913058113 -8173589.1057624575 -6.7277983662314850e-05 -0.00019849756110808646 0.00016473018303510620 0.0000000000000000 -1.2000000004510065 -6.5449881499527409 
10000.000000000000 6000.0000000000000 -166.66666666670000 -15192236.731096640 7758582.9507354759 -4086931.7084076540 -8.2541680529823094e-05 -0.00015717021263696423 9.4581011097194135e-05 0.0000000000000000 -1.2000000005163256 -6.5626604596728599 
10000.000000000000 6000.0000000000000 0.0000000000000000 -14615887.462488137 8334932.2200265191 -2043511.5740553583 -9.1100413859066001e-05 -0.00012701667286187237 5.6862988043503647e-05 0.0000000000000000 -1.2000000005806239 -6.5654175489264581 
10000.000000000000 9000.0000000000000 -1333.3333333329999 -23258599.534640029 -307779.86173979979 -32685854.384356119 -2.3081318025261700e-06 -0.00074503185116733567 0.00048600694028542112 0.0000000000000000 -0.30000000001001498 -6.1258094020035854 
10000.000000000000 9000.0000000000000 -1500.0000000000000 -24410524.611104939 -1459704.9392416193 -36769952.384743184 -1.0579476225671261e-06 -0.00077176959866765706 0.00050502202457569103 0.0000000000000000 -0.29999999999580418 -6.0037679168430067 
10000.000000000000 9000.0000000000000 -1166.6666666670001 -22106571.359950662 844248.31394677446 -28601390.853995781 -3.6416810345829122e-06 -0.00070851709395836396 0.00046078250740297843 0.0000000000000000 -0.30000000002361921 -6.2329450078188255 
10000.000000000000 9000.0000000000000 -1000.0000000000000 -20954440.077796344 1996379.5970523430 -24516561.760913748 -5.0800315009065946e-06 -0.00066075868254967846 0.00042846359732716106 0.0000000000000000 -0.30000000003652205 -6.3251734002020754 
10000.000000000000 9000.0000000000000 -833.33333333329995 -19802205.678939894 3148613.9968073955 -20431367.072374225 -6.6473600906822706e-06 -0.00060011606686609376 0.00038803704062387166 0.0000000000000000 -0.30000000004862210 -6.4024932449451031 
10000.000000000000 9000.0000000000000 -666.66666666670005 -18649868.154144317 4300951.5224416088 -16345806.755643446 -8.3706017573433273e-06 -0.00052477458296151282 0.00033836650787990371 0.0000000000000000 -0.30000000005980987 -6.4649032077211572 
10000.000000000000 9000.0000000000000 -500.00000000000000 -17497427.494170122 5453392.1831864389 -12259880.777980329 -1.0279915560264795e-05 -0.00043273939881622166 0.00027819334979299533 0.0000000000000000 -0.30000000006996647 -6.5124019540839369 
10000.000000000000 9000.0000000000000 -333.33333333330000 -16344883.689778317 6605935.9882719247 -8173589.1066476144 -1.2403507002300945e-05 -0.00032182521108366208 0.00020612481508239103 0.0000000000000000 -0.30000000007896149 -6.5449881494675450 
10000.000000000000 9000.0000000000000 -166.66666666670000 -15192236.731729228 7758582.9469277440 -4086931.7089079455 -1.4758101512713540e-05 -0.00018966257700885750 0.00012060636917440990 0.0000000000000000 -0.30000000008665023 -6.5626604591866426 
10000.000000000000 9000.0000000000000 0.0000000000000000 -14615887.463135280 8334932.2158019971 -2043511.5743439319 -1.5994262784515068e-05 -0.00011796305706174962 7.4280109964313195e-05 0.0000000000000000 -0.30000000009287237 -6.5654175484364421 
4000.0000000000000 5000.0000000000000 -1333.3333333329999 -23258599.532952830 -307779.86146158387 -32685854.382937599 -5.9030281525593022e-05 0.0017405581721763592 -0.0046969810682152835 2.4000000000514174 -1.5000000000540099 -6.1258094009304340 
4000.0000000000000 5000.0000000000000 -1500.0000000000000 -24410524.609691340 -1459704.9389246271 -36769952.382883906 -4.3232554684966485e-05 0.0018810650111292825 -0.0049449896352146408 2.3999999999381250 -1.4999999999722426 -6.0037679157727446 
4000.0000000000000 5000.0000000000000 -1166.6666666670001 -22106571.358095903 844248.31427529908 -28601390.852959964 -7.5412415971020462e-05 0.0015734838948886570 -0.0043737266626054554 2.4000000001696766 -1.5000000001376856 -6.2329450067447016 
4000.0000000000000 5000.0000000000000 -1000.0000000000000 -20954440.075898636 1996379.5975288753 -24516561.760202799 -9.2630894779912869e-05 0.0013822962142295892 -0.0039739679079407540 2.4000000002932453 -1.5000000002233238 -6.3251733991285679 
4000.0000000000000 5000.0000000000000 -833.33333333329995 -19802205.677143976 3148613.9975389396 -20431367.071930390 -0.00011102108398479237 0.0011701381639791242 -0.0034974960175425738 2.4000000004224655 -1.5000000003109712 -6.4024932438734510 
4000.0000000000000 5000.0000000000000 -666.66666666670005 -18649868.152616549 4300951.5235453313 -16345806.755408831 -0.00013102201742516410 0.00094095384891275608 -0.0029454615676405803 2.4000000005576632 -1.5000000004006604 -6.4649032066522247 
4000.0000000000000 5000.0000000000000 -500.00000000000000 -17497427.493099760 5453392.1847906066 -12259880.777896952 -0.00015319796137320608 0.00069961415282235025 -0.0023206351058047392 2.4000000006991424 -1.5000000004923990 -6.5124019530182045 
4000.0000000000000 5000.0000000000000 -333.33333333330000 -16344883.689378485 6605935.9905168181 -8173589.1066579670 -0.00017824463536590660 0.00045209601789945322 -0.0016278309729062391 2.4000000008471734 -1.5000000005861656 -6.5449881484050945 
4000.0000000000000 5000.0000000000000 -166.66666666670000 -15192236.732237091 7758582.9499665871 -4086931.7089558979 -0.00020699119787246498 0.00020569112032761078 -0.00087411768666148981 2.4000000010019864 -1.5000000006818939 -6.5626604581271630 
4000.0000000000000 5000.0000000000000 0.0000000000000000 -14615887.464159263 8334932.2192778019 -2043511.5743968815 -0.00022240149739733182 8.3765282108169014e-05 -0.00048305536372310440 2.4000000011637868 -1.5000000007794678 -6.5654175473792664 
2000.0000000000000 3000.0000000000000 -1333.3333333329999 -23258599.531352293 -307779.86051866395 -32685854.376516666 -6.4800450477507656e-07 0.0062521107033703888 -0.0089189517111252642 3.1999999999956654 -2.1000000000259402 -6.1258094002530976 
2000.0000000000000 3000.0000000000000 -1500.0000000000000 -24410524.609395161 -1459704.9373099683 -36769952.376260191 1.4092580088873524e-05 0.0064596539653805672 -0.0090845403342808412 3.1999999999002746 -2.0999999999335643 -6.0037679151240804 
2000.0000000000000 3000.0000000000000 -1166.6666666670001 -22106571.355065580 844248.31451918732 -28601390.846832253 -1.7395685738640322e-05 0.0059476381286172574 -0.0086189144091707443 3.2000000000993571 -2.1000000001243326 -6.2329450060404596 
2000.0000000000000 3000.0000000000000 -1000.0000000000000 -20954440.071299888 1996379.5970475322 -24516561.754474074 -3.6393877970216150e-05 0.0055368097919663954 -0.0081640288618318371 3.2000000002124587 -2.1000000002294215 -6.3251733983997731 
2000.0000000000000 3000.0000000000000 -833.33333333329995 -19802205.670824926 3148613.9963083137 -20431367.066723160 -5.7874831385036013e-05 0.0050094591735254925 -0.0075305045935768642 3.2000000003362348 -2.1000000003419390 -6.4024932431231401 
2000.0000000000000 3000.0000000000000 -666.66666666670005 -18649868.144413132 4300951.5215446902 -16345806.750864325 -8.2044864463239885e-05 0.0043547859922424687 -0.0066905725734635437 3.2000000004721221 -2.1000000004626695 -6.4649032058842355 
2000.0000000000000 3000.0000000000000 -500.00000000000000 -17497427.482838206 5453392.1820038464 -12259880.774177559 -0.00010908974472165739 0.0035616138150077387 -0.0056120199718783653 3.2000000006217557 -2.1000000005924395 -6.5124019522372700 
2000.0000000000000 3000.0000000000000 -333.33333333330000 -16344883.676879572 6605935.9869344058 -8173589.1039483948 -0.00013918895288749728 0.0026188624094372628 -0.0042575725624317473 3.2000000007869960 -2.1000000007320971 -6.5449881476169498 
2000.0000000000000 3000.0000000000000 -166.66666666670000 -15192236.717323817 7758582.9455876434 -4086931.7074642661 -0.00017249842633777052 0.0015163341931354005 -0.0025841213808771996 3.2000000009699403 -2.1000000008824773 -6.5626604573386436 
2000.0000000000000 3000.0000000000000 0.0000000000000000 -14615887.447995476 8334932.2145015597 -2043511.5735693160 -0.00018997204952189776 0.00092393559619538697 -0.0016618630071178783 3.2000000011729375 -2.1000000010443469 -6.5654175465983613 
10000.000000000000 3000.0000000000000 -1333.3333333329999 -23258599.536640704 -307779.86472591886 -32685854.389469452 1.1157569269279314e-05 0.0068166451656196652 0.00018392397044856765 0.0000000000000000 -2.1000000000269239 -6.1258094047238973 
10000.000000000000 3000.0000000000000 -1500.0000000000000 -24410524.613158733 -1459704.9415612090 -36769952.391014501 1.9499059476230531e-05 0.0070276258539592323 0.00019889304912263116 0.0000000000000000 -2.0999999999306720 -6.0037679195468234 
10000.000000000000 3000.0000000000000 -1166.6666666670001 -22106571.361924339 844248.31032893178 -28601390.858068902 1.3739742266091029e-06 0.0065000866804299558 0.00016460120491165419 0.0000000000000000 -2.1000000001295565 -6.2329450105506439 
10000.000000000000 3000.0000000000000 -1000.0000000000000 -20954440.079769135 1996379.5928518178 -24516561.764062434 -1.0131624912043079e-05 0.0060672627310626552 0.00014139534180012756 0.0000000000000000 -2.1000000002392727 -6.3251734029409974 
10000.000000000000 3000.0000000000000 -833.33333333329995 -19802205.680938914 3148613.9920890685 -20431367.074713420 -2.3797900955745826e-05 0.0055064377176909122 0.00011528807147117647 0.0000000000000000 -2.1000000003568511 -6.4024932476873202 
10000.000000000000 3000.0000000000000 -666.66666666670005 -18649868.156198528 4300951.5172886644 -16345806.757287027 -4.0276801972504056e-05 0.0048045772751498014 8.7858999285142059e-05 0.0000000000000000 -2.1000000004831580 -6.4649032104634667 
10000.000000000000 3000.0000000000000 -500.00000000000000 -17497427.496310968 5453392.1777037969 -12259880.779040068 -6.0465700355343114e-05 0.0039471412080951838 6.1293504960405423e-05 0.0000000000000000 -2.1000000006191621 -6.5124019568237417 
10000.000000000000 3000.0000000000000 -333.33333333330000 -16344883.692040138 6605935.9825908970 -8173589.1072316552 -8.5478048685000811e-05 0.0029177994989080143 3.8253250675853028e-05 0.0000000000000000 -2.1000000007659470 -6.5449881522028486 
10000.000000000000 3000.0000000000000 -166.66666666670000 -15192236.734148692 7758582.9412127091 -4086931.7091179015 -0.00011648220741158679 0.0016981063805248640 2.1370752345514166e-05 0.0000000000000000 -2.1000000009247244 -6.5626604619160416 
10000.000000000000 3000.0000000000000 0.0000000000000000 -14615887.465642961 8334932.2101156730 -2043511.5743912305 -0.00013362360622227906 0.0010382221136924724 1.4771129851447355e-05 0.0000000000000000 -2.1000000010968374 -6.5654175511591140 
10000.000000000000 2000.0000000000000 -1333.3333333329999 -23258599.538255483 -307779.86618828180 -32685854.395593576 3.0074578252885933e-05 0.0071960834332503044 0.00013978155657749688 0.0000000000000000 -2.4000000000002553 -6.1258094057425332 
10000.000000000000 2000.0000000000000 -1500.0000000000000 -24410524.614711717 -1459704.9424135091 -36769952.397557348 3.7447670271316635e-05 0.0073186429354290079 0.00015593399582201868 0.0000000000000000 -2.3999999999211012 -6.0037679205390289 
10000.000000000000 2000.0000000000000 -1166.6666666670001 -22106571.363608021 844248.30818131822 -28601390.863714788 2.1249654405628840e-05 0.0069623471075822467 0.00012005568667240644 0.0000000000000000 -2.4000000000861474 -6.2329450115928866 
10000.000000000000 2000.0000000000000 -1000.0000000000000 -20954440.081529781 1996379.5899338536 -24516561.769162972 1.0866675937934555e-05 0.0066009301463079584 9.7451223896323383e-05 0.0000000000000000 -2.4000000001796602 -6.3251734040036318 
10000.000000000000 2000.0000000000000 -833.33333333329995 -19802205.682786305 3148613.9883040460 -20431367.079194475 -1.2326655251708502e-06 0.0060928643435507737 7.3301585566337195e-05 0.0000000000000000 -2.4000000002817945 -6.4024932487667003 
10000.000000000000 2000.0000000000000 -666.66666666670005 -18649868.158145249 4300951.5125260362 -16345806.761068525 -1.5276325989893934e-05 0.0054161983267085149 4.9737434461014997e-05 0.0000000000000000 -2.4000000003936841 -6.4649032115554874 
10000.000000000000 2000.0000000000000 -500.00000000000000 -17497427.498373695 5453392.1718363902 -12259880.782036774 -3.1574579873417654e-05 0.0045453478682971615 2.9762057809814140e-05 0.0000000000000000 -2.4000000005166267 -6.5124019579238022 
10000.000000000000 2000.0000000000000 -333.33333333330000 -16344883.694241069 6605935.9754712954 -8173589.1093535926 -5.0495042946296893e-05 0.0034503848226203073 1.7072698884355531e-05 0.0000000000000000 -2.4000000006521209 -6.5449881533058285 
10000.000000000000 2000.0000000000000 -166.66666666670000 -15192236.736516945 7758582.9326685434 -4086931.7102701329 -7.2341779207916903e-05 0.0020959519793632246 1.5286549399851580e-05 0.0000000000000000 -2.4000000008019149 -6.5626604630162504 
10000.000000000000 2000.0000000000000 0.0000000000000000 -14615887.468103103 8334932.2008126751 -2043511.5750342268 -8.4024800506000307e-05 0.0013490678754270341 1.7527583348603147e-05 0.0000000000000000 -2.4000000009680762 -6.5654175522502323 
0.0000000000000000 1000.0000000000000 -1333.3333333329999 -23258599.532722950 -307779.86031177582 -32685854.377340645 -2.3228753829781520e-05 0.0045942243909677955 -0.0037389711694756104 4.0000000000000000 -2.6999999999930209 -6.1258094005922583 
0.0000000000000000 2000.0000000000000 -1333.3333333329999 -23258599.531381972 -307779.85938567738 -32685854.371962942 -2.5018145645321287e-05 0.0069276748553203440 -0.0036670972301702989 4.0000000000000000 -2.4000000000027013 -6.1258093998226055 
0.0000000000000000 1000.0000000000000 -1500.0000000000000 -24410524.611579157 -1459704.9361162707 -36769952.377257466 -2.3220602873387450e-05 0.0046412051150446134 -0.0037667937023514301 4.0000000000000000 -2.6999999999497821 -6.0037679154624337 
0.0000000000000000 2000.0000000000000 -1500.0000000000000 -24410524.610294849 -1459704.9356932188 -36769952.371637210 -2.6531779636278700e-05 0.0070577852257644527 -0.0036788635731273981 4.0000000000000000 -2.3999999999265564 -6.0037679147182859 
0.0000000000000000 1000.0000000000000 -1166.6666666670001 -22106571.355475921 844248.31359605305 -28601390.847492650 -2.3173780002926116e-05 0.0044787908520022672 -0.0036591838318034676 4.0000000000000000 -2.7000000000404425 -6.2329450063795182 
0.0000000000000000 2000.0000000000000 -1166.6666666670001 -22106571.354073793 844248.31510461052 -28601390.842416488 -2.3322635629066547e-05 0.0066920423422564632 -0.0036020490989275423 4.0000000000000000 -2.4000000000852042 -6.2329450055861839 
0.0000000000000000 1000.0000000000000 -1000.0000000000000 -20954440.070574351 1996379.5948293260 -24516561.754980464 -2.3131275611917175e-05 0.0042827083345704491 -0.0035168057582122001 4.0000000000000000 -2.7000000000926807 -6.3251733987379248 
0.0000000000000000 2000.0000000000000 -1000.0000000000000 -20954440.069106299 1996379.5970138623 -24516561.750276670 -2.1609074090985076e-05 0.0063355591118415691 -0.0034728894604806881 4.0000000000000000 -2.4000000001749169 -6.3251733979231748 
0.0000000000000000 1000.0000000000000 -833.33333333329995 -19802205.668753207 3148613.9926050911 -20431367.067084987 -2.3222310825067984e-05 0.0039913526620943491 -0.0032989688797102636 4.0000000000000000 -2.7000000001504625 -6.4024932434597028 
0.0000000000000000 2000.0000000000000 -833.33333333329995 -19802205.667213790 3148613.9955760194 -20431367.062837169 -2.0001884616714123e-05 0.0058403995362159115 -0.0032665200750491173 4.0000000000000000 -2.4000000002728026 -6.4024932426263437 
0.0000000000000000 1000.0000000000000 -666.66666666670005 -18649868.140742671 4300951.5161374565 -16345806.751093030 -2.3658754965480275e-05 0.0035871797549115710 -0.0029899263539199042 4.0000000000000000 -2.7000000002146294 -6.4649032062186782 
0.0000000000000000 2000.0000000000000 -666.66666666670005 -18649868.139125556 4300951.5200251900 -16345806.747399949 -1.8509697222265462e-05 0.0051858576866970710 -0.0029670965664940654 4.0000000000000000 -2.4000000003799618 -6.4649032053701365 
0.0000000000000000 1000.0000000000000 -500.00000000000000 -17497427.477264319 5453392.1746397167 -12259880.774289375 -2.4837783170700197e-05 0.0030492299077143820 -0.0025702722394459455 4.0000000000000000 -2.7000000002861539 -6.5124019525692729 
0.0000000000000000 2000.0000000000000 -500.00000000000000 -17497427.475562327 5453392.1795982625 -12259880.771268588 -1.6911234964508433e-05 0.0043478717178371765 -0.0025552147430293964 4.0000000000000000 -2.4000000004976547 -6.5124019517097231 
0.0000000000000000 1000.0000000000000 -333.33333333330000 -16344883.669031329 6605935.9773218855 -8173589.1039651260 -2.7548614917885445e-05 0.0023524997076764284 -0.0020159567159312103 4.0000000000000000 -2.7000000003661619 -6.5449881479464889 
0.0000000000000000 2000.0000000000000 -333.33333333330000 -16344883.667235425 6605935.9835342979 -8173589.1017537378 -1.4611047567309279e-05 0.0032982976408140298 -0.0020070083821606952 4.0000000000000000 -2.4000000006273354 -6.5449881470809874 
0.0000000000000000 1000.0000000000000 -166.66666666670000 -15192236.706744205 7758582.9333916744 -4086931.7074138136 -3.3384074835668692e-05 0.0014669658081523473 -0.0012966030990192554 4.0000000000000000 -2.7000000004559457 -6.5626604576660803 
0.0000000000000000 2000.0000000000000 -166.66666666670000 -15192236.704842022 7758582.9410771234 -4086931.7061681682 -1.0355331867727345e-05 0.0020038278984158293 -0.0012925627518608524 4.0000000000000000 -2.4000000007706936 -6.5626604568007032 
0.0000000000000000 1000.0000000000000 0.0000000000000000 -14615887.435923696 8334932.2009243444 -2043511.5734930439 -3.7348765288938661e-05 0.00097288682439481094 -0.00089141508533522999 4.0000000000000000 -2.7000000005569733 -6.5654175469245741 
0.0000000000000000 2000.0000000000000 0.0000000000000000 -14615887.433964796 8334932.2094060816 -2043511.5727718286 -7.5281094621177433e-06 0.0012908348879631698 -0.00088959726931570646 4.0000000000000000 -2.4000000009297380 -6.5654175460665662 
4000.0000000000000 7.4168059059999997e-30 -1333.3333333329999 -23258599.538434457 -307779.86681865319 -32685854.403024260 1.6826684413429232e-05 0.0026548507564981951 -0.0050296788636388316 2.4000000000515658 -3.0000000000000000 -6.1258094046649116 
4000.0000000000000 2.1239035100000000e-29 -1500.0000000000000 -24410524.615004003 -1459704.9422132419 -36769952.404443339 2.0528496108650933e-05 0.0026632827612013210 -0.0052693533346122937 2.3999999999359365 -3.0000000000000000 -6.0037679194210813 
4000.0000000000000 2.3261800339999999e-29 -1166.6666666670001 -22106571.363772061 844248.30662284978 -28601390.871421475 1.2517383465593947e-05 0.0026070000601556165 -0.0047092726271428242 2.4000000001723731 -3.0000000000000000 -6.2329450105561524 
4000.0000000000000 -2.4273182999999999e-29 -1000.0000000000000 -20954440.081796382 1996379.5873246605 -24516561.776856855 7.5352745277043563e-06 0.0025117219062283673 -0.0043058576617041929 2.4000000002987250 -3.0000000000000000 -6.3251734030067421 
4000.0000000000000 -4.5191771299999999e-29 -833.33333333329995 -19802205.683293715 3148613.9844920724 -20431367.086564206 1.8439768403865900e-06 0.0023592444782917685 -0.0038178352412352461 2.4000000004310027 -3.0000000000000000 -6.4024932478068379 
4000.0000000000000 0.0000000000000000 -666.66666666670005 -18649868.159054630 4300951.5073245149 -16345806.767778531 -4.5087286066626003e-06 0.0021377699126544532 -0.0032443091771062150 2.4000000005695967 -3.0000000000000000 -6.4649032106278534 
4000.0000000000000 -1.8204887200000001e-29 -500.00000000000000 -17497427.499872044 5453392.1650171587 -12259880.787726935 -1.1309764426957687e-05 0.0018329340857390231 -0.0025851616623085022 2.4000000007149063 -3.0000000000000000 -6.5124019570214182 
4000.0000000000000 0.0000000000000000 -333.33333333330000 -16344883.696545264 6605935.9667563783 -8173589.1136404388 -1.8022278361371687e-05 0.0014274024266225612 -0.0018410043101731697 2.4000000008673417 -3.0000000000000000 -6.5449881524193207 
4000.0000000000000 -1.9553397400000001e-29 -166.66666666670000 -15192236.739879861 7758582.9217191758 -4086931.7127510607 -2.3504164509713358e-05 0.00090046023080588033 -0.0010129156852435783 2.4000000010273208 -3.0000000000000000 -6.5626604621336586 
4000.0000000000000 0.0000000000000000 0.0000000000000000 -14615887.472063549 8334932.1886530258 -2043511.5765094908 -2.5746163520593344e-05 0.00060381985034293031 -0.00057804649845330871 2.4000000011952749 -3.0000000000000000 -6.5654175513568402 
3000.0000000000000 -3.7084029499999999e-30 -1333.3333333329999 -23258599.536648162 -307779.86525001348 -32685854.397389472 3.3802425796896188e-05 0.0027697274199011543 -0.0080188796574675904 2.8000000000196184 -3.0000000000000000 -6.1258094035385549 
3000.0000000000000 -1.0619517500000000e-29 -1500.0000000000000 -24410524.613816462 -1459704.9406671808 -36769952.398261718 3.8061015854184380e-05 0.0027864192455607515 -0.0082353755578419494 2.7999999999031240 -3.0000000000000000 -6.0037679183183599 
3000.0000000000000 -1.1630900200000000e-29 -1166.6666666670001 -22106571.361341722 844248.30821887543 -28601390.866367467 2.8465028194991487e-05 0.0027132840325396197 -0.0076737909086601643 2.8000000001440717 -3.0000000000000000 -6.2329450094093728 
3000.0000000000000 1.2136591479999999e-29 -1000.0000000000000 -20954440.078675143 1996379.5889527737 -24516561.772420660 2.1910145703482908e-05 0.0026091410817305552 -0.0071862680710006645 2.8000000002773469 -3.0000000000000000 -6.3251734018429717 
3000.0000000000000 2.2595885659999999e-29 -833.33333333329995 -19802205.679433100 3148613.9861571789 -20431367.082784209 1.4033725184825373e-05 0.0024476185083233061 -0.0065411468663780434 2.8000000004203875 -3.0000000000000000 -6.4024932466297280 
3000.0000000000000 0.0000000000000000 -666.66666666670005 -18649868.154404644 4300951.5090318657 -16345806.764692707 4.8595043902210339e-06 0.0022169158936418778 -0.0057219459221056279 2.8000000005742187 -3.0000000000000000 -6.4649032094412711 
3000.0000000000000 9.1024436120000003e-30 -500.00000000000000 -17497427.494381242 5453392.1667723246 -12259880.785370687 -5.2916161653949134e-06 0.0019024724358356765 -0.0047109607499209163 2.8000000007399484 -3.0000000000000000 -6.5124019558294242 
3000.0000000000000 0.0000000000000000 -333.33333333330000 -16344883.690160850 6605935.9685647897 -8173589.1120442767 -1.5515088609071001e-05 0.0014861720719445482 -0.0034894855853030322 2.8000000009187618 -3.0000000000000000 -6.5449881512261285 
3000.0000000000000 9.7766986949999993e-30 -166.66666666670000 -15192236.732547581 7758582.9235850610 -4086931.7119374680 -2.3759961516891139e-05 0.00094526499667013208 -0.0020383991176986470 2.8000000011119131 -3.0000000000000000 -6.5626604609435617 
3000.0000000000000 0.0000000000000000 0.0000000000000000 -14615887.464243561 8334932.1905484702 -2043511.5760915461 -2.7035972526685310e-05 0.00064048199128472426 -0.0012530631060889005 2.8000000013206994 -3.0000000000000000 -6.5654175501740921 
0.0000000000000000 10000.000000000000 -1333.3333333329999 -23258599.528247930 -307779.85554980190 -32685854.361879908 1.8188643963684045e-07 -0.00046243377730497163 -0.0041506446228352558 4.0000000000000000 0.0000000000000000 -6.1258093963533407 
0.0000000000000000 10000.000000000000 -1500.0000000000000 -24410524.607032537 -1459704.9330107165 -36769952.360069051 1.3016709388000357e-06 -0.00047980839483477227 -0.0041934261185900224 4.0000000000000000 0.0000000000000000 -6.0037679112863707 
0.0000000000000000 10000.000000000000 -1166.6666666670001 -22106571.351052515 844248.32012102916 -28601390.833753675 -9.3774184443362359e-07 -0.00043872949084712988 -0.0040547622705866797 4.0000000000000000 0.0000000000000000 -6.2329450020867618 
0.0000000000000000 10000.000000000000 -1000.0000000000000 -20954440.066185012 1996379.6032318780 -24516561.742976222 -2.0295673134444169e-06 -0.00040789654733362399 -0.0038945003043775210 4.0000000000000000 0.0000000000000000 -6.3251733944005162 
0.0000000000000000 10000.000000000000 -833.33333333329995 -19802205.664380975 3148614.0030103466 -20431367.056846619 -3.0586568012143099e-06 -0.00036905222734712672 -0.0036558428006006330 4.0000000000000000 0.0000000000000000 -6.4024932390870832 
0.0000000000000000 10000.000000000000 -666.66666666670005 -18649868.136369482 4300951.5286831139 -16345806.742673067 -3.9905353725007508e-06 -0.00032124436865442197 -0.0033210500010970173 4.0000000000000000 0.0000000000000000 -6.4649032018206185 
0.0000000000000000 10000.000000000000 -500.00000000000000 -17497427.472869016 5453392.1894778060 -12259880.767768214 -4.7897387298072244e-06 -0.00026342762151230993 -0.0028671846424570386 4.0000000000000000 0.0000000000000000 -6.5124019481560049 
0.0000000000000000 10000.000000000000 -333.33333333330000 -16344883.664583199 6605935.9946240857 -8173589.0994481593 -5.4189644447127430e-06 -0.00019446296266509598 -0.0022639920963833729 4.0000000000000000 0.0000000000000000 -6.5449881435288795 
0.0000000000000000 10000.000000000000 -166.66666666670000 -15192236.702192400 7758582.9533572560 -4086931.7050241744 -5.8623584210283280e-06 -0.00011313742704652577 -0.0014706312668597672 4.0000000000000000 0.0000000000000000 -6.5626604532557522 
0.0000000000000000 10000.000000000000 0.0000000000000000 -14615887.431304146 8334932.2222753493 -2043511.5721999095 -6.0382201652554967e-06 -6.9225836596474742e-05 -0.0010205067389737277 4.0000000000000000 0.0000000000000000 -6.5654175425340444 
9000.0000000000000 0.0000000000000000 -1333.3333333329999 -23258599.540315032 -307779.86745223642 -32685854.404008329 3.0273471308951461e-05 0.0026575103288662858 0.00012375826902875231 0.40000000001323194 -3.0000000000000000 -6.1258094067907027 
10000.000000000000 1000.0000000000000 -1333.3333333329999 -23258599.539673366 -307779.86710188864 -32685854.401477195 2.6002679117197698e-05 0.0046452416574976471 0.00012665654500142913 0.0000000000000000 -2.6999999999901148 -6.1258094065392337 
10000.000000000000 0.0000000000000000 -1333.3333333329999 -23258599.540246323 -307779.86739082041 -32685854.403958656 1.6611218671748170e-05 0.0026124015753744715 0.00012623656940323721 0.0000000000000000 -3.0000000000000000 -6.1258094068397027 
9000.0000000000000 0.0000000000000000 -1500.0000000000000 -24410524.616662446 -1459704.9429610693 -36769952.406304456 3.2872151033895127e-05 0.0026672396547857405 0.00015467376354015049 0.39999999999411551 -3.0000000000000000 -6.0037679215476825 
10000.000000000000 1000.0000000000000 -1500.0000000000000 -24410524.616060935 -1459704.9428124684 -36769952.403703839 2.9891358777791116e-05 0.0046813340924105893 0.00014455677424657308 0.0000000000000000 -2.6999999999452657 -6.0037679213081141 
10000.000000000000 0.0000000000000000 -1500.0000000000000 -24410524.616602998 -1459704.9428999727 -36769952.406265467 1.8417280373405614e-05 0.0026188611319449490 0.00014505668337199236 0.0000000000000000 -3.0000000000000000 -6.0037679215964861 
9000.0000000000000 0.0000000000000000 -1166.6666666670001 -22106571.365782805 844248.30608553835 -28601390.871692892 2.6918637634811564e-05 0.0026082285634164279 9.0665545755367033e-05 0.40000000003200553 -3.0000000000000000 -6.2329450126779786 
10000.000000000000 1000.0000000000000 -1166.6666666670001 -22106571.365100484 844248.30667107203 -28601390.869266845 2.1225232779465179e-05 0.0045381272040233255 0.00010617591319719105 0.0000000000000000 -2.7000000000393833 -6.2329450124152688 
10000.000000000000 0.0000000000000000 -1166.6666666670001 -22106571.365706787 844248.30614457291 -28601390.871638082 1.4335713259200562e-05 0.0025663725275283586 0.00010532177072749421 0.0000000000000000 -3.0000000000000000 -6.2329450127272406 
9000.0000000000000 0.0000000000000000 -1000.0000000000000 -20954440.083824750 1996379.5868704144 -24516561.776579592 2.2775612031679505e-05 0.0025114122532001086 5.6354844646974185e-05 0.40000000005043296 -3.0000000000000000 -6.3251734051223147 
10000.000000000000 1000.0000000000000 -1000.0000000000000 -20954440.083103027 1996379.5877310433 -24516561.774301328 1.5553666794082628e-05 0.0043470930029571430 8.3904584313527307e-05 0.0000000000000000 -2.7000000000937225 -6.3251734048492620 
10000.000000000000 0.0000000000000000 -1000.0000000000000 -20954440.083745107 1996379.5869239657 -24516561.776525158 1.1606399530821947e-05 0.0024727917720842626 8.3131784778338926e-05 0.0000000000000000 -3.0000000000000000 -6.3251734051719257 
9000.0000000000000 0.0000000000000000 -833.33333333329995 -19802205.685204696 3148613.9841128504 -20431367.085902300 1.7876227664007414e-05 0.0023574714300463747 2.2427176003065540e-05 0.40000000006853514 -3.0000000000000000 -6.4024932499147740 
10000.000000000000 1000.0000000000000 -833.33333333329995 -19802205.684447154 3148613.9852962219 -20431367.083822444 9.0205919295193433e-06 0.0040568960715528868 6.1218139856778836e-05 0.0000000000000000 -2.7000000001538753 -6.4024932496325562 
10000.000000000000 0.0000000000000000 -833.33333333329995 -19802205.685127359 3148613.9841574742 -20431367.085853286 8.4911859231458879e-06 0.0023220700073889595 6.1007228652912529e-05 0.0000000000000000 -3.0000000000000000 -6.4024932499648193 
9000.0000000000000 0.0000000000000000 -666.66666666670005 -18649868.160688639 4300951.5070179598 -16345806.766896253 1.2375526275607883e-05 0.0021347369792718415 -8.6628836672901518e-06 0.40000000008636266 -3.0000000000000000 -6.4649032127277115 
10000.000000000000 1000.0000000000000 -666.66666666670005 -18649868.159901667 4300951.5085810442 -16345806.765074069 1.7152625468689895e-06 0.0036494254012765133 4.0213708432273106e-05 0.0000000000000000 -2.7000000002206952 -6.4649032124378456 
10000.000000000000 0.0000000000000000 -666.66666666670005 -18649868.160622254 4300951.5070499703 -16345806.766856860 5.1293815844236728e-06 0.0021025631687170460 4.0909747342339825e-05 0.0000000000000000 -3.0000000000000000 -6.4649032127782649 
9000.0000000000000 0.0000000000000000 -500.00000000000000 -17497427.501043011 5453392.1647869367 -12259880.786789572 6.6635665386915198e-06 0.0018290404002525695 -3.3398432738413965e-05 0.40000000010399867 -3.0000000000000000 -6.5124019591137419 
10000.000000000000 1000.0000000000000 -500.00000000000000 -17497427.500235680 5453392.1667982507 -12259880.785292570 -6.1819033361032638e-06 0.0031031481926596491 2.3753247739350191e-05 0.0000000000000000 -2.7000000002951596 -6.5124019588181330 
10000.000000000000 0.0000000000000000 -500.00000000000000 -17497427.500998989 5453392.1648028092 -12259880.786762347 1.7852399655196129e-06 0.0018003179295847565 2.5403878895186481e-05 0.0000000000000000 -3.0000000000000000 -6.5124019591648343 
9000.0000000000000 0.0000000000000000 -333.33333333330000 -16344883.697038781 6605935.9666127125 -8173589.1128142867 1.5471959357691133e-06 0.0014232934003665005 -4.7050132178241610e-05 0.40000000012155601 -3.0000000000000000 -6.5449881545056741 
10000.000000000000 1000.0000000000000 -333.33333333330000 -16344883.696221817 6605935.9691550359 -8173589.1117175175 -1.4357881916582387e-05 0.0023925481474834850 1.5246343106429044e-05 0.0000000000000000 -2.7000000003783922 -6.5449881542066750 
10000.000000000000 0.0000000000000000 -333.33333333330000 -16344883.697030392 6605935.9666099045 -8173589.1127991043 -1.1085578411655709e-06 0.0013986942305427776 1.7412248009916347e-05 0.0000000000000000 -3.0000000000000000 -6.5449881545572675 
9000.0000000000000 0.0000000000000000 -166.66666666670000 -15192236.739452396 7758582.9216791186 -4086931.7122034766 -1.4831060903912082e-06 0.00089698306335689922 -4.3737032233986508e-05 0.40000000013916315 -3.0000000000000000 -6.5626604642166537 
10000.000000000000 1000.0000000000000 -166.66666666670000 -15192236.738634702 7758582.9248531824 -4086931.7115876023 -2.2338536088003276e-05 0.0014874030746468429 1.7751956822016400e-05 0.0000000000000000 -2.7000000004716900 -6.5626604639171147 
10000.000000000000 0.0000000000000000 -166.66666666670000 -15192236.739491716 7758582.9216575772 -4086931.7121966593 -2.9608730960575099e-06 0.00087806434642161211 1.9295160594304596e-05 0.0000000000000000 -3.0000000000000000 -6.5626604642685997 
9000.0000000000000 0.0000000000000000 0.0000000000000000 -14615887.471111087 8334932.1886698687 -2043511.5761432562 -2.2375139019953472e-06 0.00060089605923844083 -3.7037459852143680e-05 0.40000000015692255 -3.0000000000000000 -6.5654175534401533 
10000.000000000000 1000.0000000000000 0.0000000000000000 -14615887.470294699 8334932.1921875039 -2043511.5757884998 -2.6209691886638744e-05 0.00098209621094251217 2.2075358785555568e-05 0.0000000000000000 -2.7000000005765554 -6.5654175531434733 
10000.000000000000 0.0000000000000000 0.0000000000000000 -14615887.471176848 8334932.1886393866 -2043511.5761391923 -3.5435276203733135e-06 0.00058535164384929431 2.2922461161739972e-05 0.0000000000000000 -3.0000000000000000 -6.5654175534921597 
0.0000000000000000 0.0000000000000000 -1333.3333333329999 -23258599.533265188 -307779.86061596742 -32685854.379601084 -1.5083573922696004e-05 0.0026401819232323609 -0.0038136588133738407 4.0000000000000000 -3.0000000000000000 -6.1258094008841883 
0.0000000000000000 0.0000000000000000 -1500.0000000000000 -24410524.612095587 -1459704.9362220429 -36769952.379594140 -1.4434607827239003e-05 0.0026543579777238971 -0.0038491396071841494 4.0000000000000000 -3.0000000000000000 -6.0037679157431976 
0.0000000000000000 0.0000000000000000 -1166.6666666670001 -22106571.356045917 844248.31305817713 -28601390.849650830 -1.5782195588962533e-05 0.0025873761674630610 -0.0037263252175172516 4.0000000000000000 -3.0000000000000000 -6.2329450066820726 
0.0000000000000000 0.0000000000000000 -1000.0000000000000 -20954440.071174175 1996379.5940155131 -24516561.757004187 -1.6559355260961364e-05 0.0024882680915787642 -0.0035765332450538854 4.0000000000000000 -3.0000000000000000 -6.3251733990503611 
0.0000000000000000 0.0000000000000000 -833.33333333329995 -19802205.669385076 3148613.9914646917 -20431367.068934821 -1.7486731366130640e-05 0.0023335236702164480 -0.0033515135827023768 4.0000000000000000 -3.0000000000000000 -6.4024932437810342 
0.0000000000000000 0.0000000000000000 -666.66666666670005 -18649868.141409002 4300951.5146096535 -16345806.752721295 -1.8756947528147596e-05 0.0021117175675521059 -0.0030354313799731726 4.0000000000000000 -3.0000000000000000 -6.4649032065475929 
0.0000000000000000 0.0000000000000000 -500.00000000000000 -17497427.477967560 5453392.1726514902 -12259880.775638457 -2.0833178025514112e-05 0.0018089879922034190 -0.0026086085896082382 4.0000000000000000 -3.0000000000000000 -6.5124019529040638 
0.0000000000000000 0.0000000000000000 -333.33333333330000 -16344883.669773757 6605935.9747853968 -8173589.1049662475 -2.4749386256893301e-05 0.0014086273442578704 -0.0020463601720831000 4.0000000000000000 -3.0000000000000000 -6.5449881482849541 
0.0000000000000000 0.0000000000000000 -166.66666666670000 -15192236.707527209 7758582.9302013759 -4086931.7079856182 -3.2719744117979938e-05 0.00089047568413936728 -0.0013167775353559539 4.0000000000000000 -3.0000000000000000 -6.5626604580054142 
0.0000000000000000 0.0000000000000000 0.0000000000000000 -14615887.436727140 8334932.1973783774 -2043511.5738281037 -3.8093543307937549e-05 0.00059919321752716732 -0.00090563340815941261 4.0000000000000000 -3.0000000000000000 -6.5654175472612302 
9000.0000000000000 10000.000000000000 -1333.3333333329999 -23258599.534823179 -307779.86192523548 -32685854.384798527 -9.1570510201899117e-07 -0.00041218803281799487 0.00087998270941771085 0.40000000001260472 0.0000000000000000 -6.1258094019676887 
9000.0000000000000 10000.000000000000 -1500.0000000000000 -24410524.611252077 -1459704.9393894430 -36769952.385183811 3.7812036767942689e-07 -0.00042798147589363404 0.00091209915779045549 0.39999999999587277 0.0000000000000000 -6.0037679168054590 
9000.0000000000000 10000.000000000000 -1166.6666666670001 -22106571.360174216 844248.31371995551 -28601390.854426835 -2.2737610106787728e-06 -0.00039091899385508132 0.00083664032510821491 0.40000000002859210 0.0000000000000000 -6.2329450077844593 
9000.0000000000000 10000.000000000000 -1000.0000000000000 -20954440.078065541 1996379.5967796205 -24516561.761320539 -3.7003502162430396e-06 -0.00036343381615063083 0.00078030463590305602 0.40000000004372765 0.0000000000000000 -6.3251734001690574 
9000.0000000000000 10000.000000000000 -833.33333333329995 -19802205.679260820 3148613.9964834722 -20431367.072744161 -5.2025709589531770e-06 -0.00032892505513333359 0.00070896221671503897 0.40000000005789593 0.0000000000000000 -6.4024932449131882 
9000.0000000000000 10000.000000000000 -666.66666666670005 -18649868.154523935 4300951.5220604334 -16345806.755964119 -6.7875830972260409e-06 -0.00028649897995754842 0.00062035400290226441 0.40000000007097131 0.0000000000000000 -6.4649032076900390 
9000.0000000000000 10000.000000000000 -500.00000000000000 -17497427.494616289 5453392.1827411558 -12259880.778239662 -8.4644063169436094e-06 -0.00023517131056699357 0.00051196316797693351 0.40000000008281472 0.0000000000000000 -6.5124019540532450 
9000.0000000000000 10000.000000000000 -333.33333333330000 -16344883.690299829 6605935.9877548749 -8173589.1068338212 -1.0242095886314540e-05 -0.00017388206160000346 0.00038100433434960958 0.40000000009327130 0.0000000000000000 -6.5449881494368496 
9000.0000000000000 10000.000000000000 -166.66666666670000 -15192236.732335875 7758582.9463304570 -4086931.7090095370 -1.2119519245916536e-05 -0.00010149669490976799 0.00022440403602828717 0.40000000010216807 0.0000000000000000 -6.5626604591554525 
9000.0000000000000 10000.000000000000 0.0000000000000000 -14615887.463787075 8334932.2151623629 -2043511.5744004115 -1.3082114911603715e-05 -6.2384170966283520e-05 0.00013928904163313351 0.40000000010931103 0.0000000000000000 -6.5654175484042048 
5000.0000000000000 10000.000000000000 -1333.3333333329999 -23258599.534518901 -307779.86231106718 -32685854.386698797 -9.6351698758964190e-06 -0.00042268149354216178 -0.0019343598103964401 2.0000000000618399 0.0000000000000000 -6.1258094008076247 
5000.0000000000000 10000.000000000000 -1500.0000000000000 -24410524.610827278 -1459704.9396428156 -36769952.386691883 -7.9058401599269737e-06 -0.00043872658871785155 -0.0021074383293310057 1.9999999999640699 0.0000000000000000 -6.0037679156359305 
5000.0000000000000 10000.000000000000 -1166.6666666670001 -22106571.360075273 844248.31321388553 -28601390.856574949 -1.1473611494830564e-05 -0.00040089043928248424 -0.0017330377415539109 2.0000000001617178 0.0000000000000000 -6.2329450066345995 
5000.0000000000000 10000.000000000000 -1000.0000000000000 -20954440.078270145 1996379.5961620593 -24516561.763574142 -1.3473824256627512e-05 -0.00037261554221257927 -0.0015074698683703103 2.0000000002637202 0.0000000000000000 -6.3251733990294321 
5000.0000000000000 10000.000000000000 -833.33333333329995 -19802205.679881189 3148613.9957594462 -20431367.074963383 -1.5690124149029944e-05 -0.00033704245652548502 -0.0012625910603394858 2.0000000003678551 0.0000000000000000 -6.4024932437831250 
5000.0000000000000 10000.000000000000 -666.66666666670005 -18649868.155686848 4300951.5212310478 -16345806.758011930 -1.8174562040935943e-05 -0.00029329229528081608 -0.0010042296261994199 2.0000000004741163 0.0000000000000000 -6.4649032065681675 
5000.0000000000000 10000.000000000000 -500.00000000000000 -17497427.496463813 5453392.1818033047 -12259880.779982522 -2.0978182949618716e-05 -0.00024041918650642377 -0.00073903108096697750 2.0000000005824825 0.0000000000000000 -6.5124019529375063 
5000.0000000000000 10000.000000000000 -333.33333333330000 -16344883.692990188 6605935.9867009083 -8173589.1081423741 -2.4156481418909441e-05 -0.00017740882907664994 -0.00047429429366286279 2.0000000006929128 0.0000000000000000 -6.5449881483244994 
5000.0000000000000 10000.000000000000 -166.66666666670000 -15192236.736044601 7758582.9451478049 -4086931.7097592223 -2.7775547715234614e-05 -0.00010318181141518636 -0.00021761989920957912 2.0000000008053478 0.0000000000000000 -6.5626604580430747 
5000.0000000000000 10000.000000000000 0.0000000000000000 -14615887.468051113 8334932.2139115967 -2043511.5748401205 -2.9704516848268196e-05 -6.3124769363690202e-05 -9.2255440483149362e-05 2.0000000009197065 0.0000000000000000 -6.5654175472877014 
10000.000000000000 10000.000000000000 -1333.3333333329999 -23258599.534703780 -307779.86184286181 -32685854.384550944 -7.2167554250716904e-07 -0.00041182280887408203 0.00048776378381852869 0.0000000000000000 0.0000000000000000 -6.1258094019869667 
10000.000000000000 10000.000000000000 -1500.0000000000000 -24410524.611163415 -1459704.9393154541 -36769952.384936199 -4.7617831711013239e-08 -0.00042772847687233941 0.00050678342264661336 0.0000000000000000 0.0000000000000000 -6.0037679168256703 
10000.000000000000 10000.000000000000 -1166.6666666670001 -22106571.360019181 844248.31381030846 -28601390.854186390 -1.4348286838442180e-06 -0.00039049596338396487 0.00046249576345376738 0.0000000000000000 0.0000000000000000 -6.2329450078028765 
10000.000000000000 10000.000000000000 -1000.0000000000000 -20954440.077869274 1996379.5968777230 -24516561.761094287 -2.1922740111403555e-06 -0.00036300188489067522 0.00043009336508950148 0.0000000000000000 0.0000000000000000 -6.3251734001867144 
10000.000000000000 10000.000000000000 -833.33333333329995 -19802205.679016978 3148613.9965893310 -20431367.072538875 -2.9987812918936452e-06 -0.00032853189298794744 0.00038953681660038064 0.0000000000000000 0.0000000000000000 -6.4024932449302225 
10000.000000000000 10000.000000000000 -666.66666666670005 -18649868.154225416 4300951.5221742485 -16345806.755786486 -3.8589501927233970e-06 -0.00028619618650758407 0.00033968381768520938 0.0000000000000000 0.0000000000000000 -6.4649032077066213 
10000.000000000000 10000.000000000000 -500.00000000000000 -17497427.494255215 5453392.1828633696 -12259880.778096145 -4.7797912998467444e-06 -0.00023500440341902640 0.00027927053964354044 0.0000000000000000 0.0000000000000000 -6.5124019540695812 
10000.000000000000 10000.000000000000 -333.33333333330000 -16344883.689867523 6605935.9878861364 -8173589.1067308113 -5.7667929701883125e-06 -0.00017388197828528730 0.00020690720969571963 0.0000000000000000 0.0000000000000000 -6.5449881494531761 
10000.000000000000 10000.000000000000 -166.66666666670000 -15192236.731822841 7758582.9464716008 -4086931.7089534001 -6.8170010027722274e-06 -0.00010167844596299112 0.00012106167021223811 0.0000000000000000 0.0000000000000000 -6.5626604591720419 
10000.000000000000 10000.000000000000 0.0000000000000000 -14615887.463231189 8334932.2153086970 -2043511.5743692394 -7.3569463207352883e-06 -6.2658887356914316e-05 7.4565948869546468e-05 0.0000000000000000 0.0000000000000000 -6.5654175484213644 
6000.0000000000000 9000.0000000000000 -4833.3333333330002 -47427389.735998869 -24476570.079923160 -118375201.48942889 6.8554073077887689e-05 -9.5574462715142247e-05 0.00011278171920534516 1.5999999987896341 -0.29999999974068142 -0.43475698858952161 
6000.0000000000000 10000.000000000000 -4833.3333333330002 -47427389.735713616 -24476570.079625215 -118375201.48833159 3.7181326141794596e-05 -5.9001169975200899e-05 0.00011629224291593248 1.5999999987907154 0.0000000000000000 -0.43475698858593037 
7000.0000000000000 10000.000000000000 -4833.3333333330002 -47427389.736626931 -24476570.082495678 -118375201.50016135 1.8346553990171503e-05 -5.9574423822380785e-05 0.00021698791195897879 1.1999999990625927 0.0000000000000000 -0.43475698863318368 
7000.0000000000000 9000.0000000000000 -4833.3333333330002 -47427389.736919135 -24476570.082786299 -118375201.50128229 3.4216752049831791e-05 -9.3939548533358001e-05 0.00021910112290810294 1.1999999990620003 -0.29999999973898600 -0.43475698863680318 
6000.0000000000000 9000.0000000000000 -5000.0000000000000 -48002296.534494713 -25051476.878487911 -120413507.41146970 6.9602610910771815e-05 -4.9181256659193914e-05 6.3307004683700824e-05 1.5999999987840299 -0.29999999973944685 0.0000000000000000 
6000.0000000000000 10000.000000000000 -5000.0000000000000 -48002296.534192324 -25051476.878173016 -120413507.41030842 3.7630877596348671e-05 -3.0495907715214840e-05 6.5087164187260164e-05 1.5999999987851130 0.0000000000000000 0.0000000000000000 
7000.0000000000000 10000.000000000000 -5000.0000000000000 -48002296.535248056 -25051476.881198443 -120413507.42269760 1.8269186729773060e-05 -3.0865561224868225e-05 0.00011354298225593533 1.1999999990582213 0.0000000000000000 0.0000000000000000 
7000.0000000000000 9000.0000000000000 -5000.0000000000000 -48002296.535557970 -25051476.881506376 -120413507.42388538 3.3803334448018909e-05 -4.8373732244614619e-05 0.00011461168268405213 1.1999999990576222 -0.29999999973772806 0.0000000000000000 
6000.0000000000000 9000.0000000000000 -4666.6666666669998 -46277524.684567511 -23326705.028293118 -114298407.21588767 6.5767519969878253e-05 -0.00018321410650279425 0.00018687954958870482 1.5999999988057725 -0.29999999974424912 -0.85463608608739061 
6000.0000000000000 10000.000000000000 -4666.6666666669998 -46277524.684315190 -23326705.028027300 -114298407.21491607 3.5912737220326931e-05 -0.00011231332647488443 0.00019369130523580781 1.5999999988068401 0.0000000000000000 -0.85463608608048547 
7000.0000000000000 10000.000000000000 -4666.6666666669998 -46277524.684965603 -23326705.030597232 -114298407.22564964 1.8567241655257928e-05 -0.00011303618578064985 0.00040485832346653895 1.1999999990752250 0.0000000000000000 -0.85463608617089049 
7000.0000000000000 9000.0000000000000 -4666.6666666669998 -46277524.685223967 -23326705.030855458 -114298407.22663964 3.5255214877096375e-05 -0.00017996411745600259 0.00040895558672611698 1.1999999990746433 -0.29999999974261232 -0.85463608617787212 
6000.0000000000000 9000.0000000000000 -4500.0000000000000 -45127556.719631590 -22176737.063046101 -110221248.06704859 6.1952422825131047e-05 -0.00026135996201636464 0.00021671447826783160 1.5999999988311460 -0.29999999974988495 -1.2596359609195202 
6000.0000000000000 10000.000000000000 -4500.0000000000000 -45127556.719409600 -22176737.062808849 -110221248.06619787 3.4019457160951077e-05 -0.00015879066997977784 0.00022638685337164689 1.5999999988321778 0.0000000000000000 -1.2596359609096213 
7000.0000000000000 10000.000000000000 -4500.0000000000000 -45127556.719840899 -22176737.065097459 -110221248.07588176 1.8881825873277021e-05 -0.00015927086128904791 0.00055710693794964463 1.1999999990951833 0.0000000000000000 -1.2596359610392056 
7000.0000000000000 9000.0000000000000 -4500.0000000000000 -45127556.720068291 -22176737.065327588 -110221248.07674664 3.6513718378604996e-05 -0.00025666851729435047 0.00056294275716214112 1.1999999990946055 -0.29999999974832375 -1.2596359610492369 
6000.0000000000000 9000.0000000000000 -4333.3333333330002 -43977485.831947744 -21026666.174955506 -106143724.01017304 5.7661523147357895e-05 -0.00033144732832069925 0.00021255548227505270 1.5999999988645579 -0.29999999975733999 -1.6497552813847418 
6000.0000000000000 10000.000000000000 -4333.3333333330002 -43977485.831753783 -21026666.174743436 -106143724.00943774 3.1719776594941673e-05 -0.00019951693748853497 0.00022448812834842771 1.5999999988655358 0.0000000000000000 -1.6497552813721950 
7000.0000000000000 10000.000000000000 -4333.3333333330002 -43977485.832008399 -21026666.176770374 -106143724.01812072 1.9204656512469071e-05 -0.00019956805106687665 0.00067861836877108873 1.1999999991215902 0.0000000000000000 -1.6497552815371164 
7000.0000000000000 9000.0000000000000 -4333.3333333330002 -43977485.832207195 -21026666.176976241 -106143724.01886682 3.7662703817907810e-05 -0.00032561853010875931 0.00068587394017525767 1.1999999991210120 -0.29999999975586050 -1.6497552815498489 
6000.0000000000000 9000.0000000000000 -4166.6666666669998 -42827312.012275904 -19876492.354794700 -102065835.01252286 5.3211856863672121e-05 -0.00039463017151297394 0.00018350138779405040 1.5999999989049305 -0.29999999976638403 -2.0249927156627359 
6000.0000000000000 10000.000000000000 -4166.6666666669998 -42827312.012107894 -19876492.354604818 -102065835.01189703 2.9199409231707470e-05 -0.00023545431677187865 0.00019708017644293058 1.5999999989058418 0.0000000000000000 -2.0249927156479006 
7000.0000000000000 10000.000000000000 -4166.6666666669998 -42827312.012225330 -19876492.356389623 -102065835.01962961 1.9452050883381167e-05 -0.00023501743522920670 0.00077431055865155997 1.1999999991536305 0.0000000000000000 -2.0249927158444536 
7000.0000000000000 9000.0000000000000 -4166.6666666669998 -42827312.012397595 -19876492.356574439 -102065835.02026363 3.8507074165692667e-05 -0.00038799417867387275 0.00078261807034011883 1.1999999991530490 -0.29999999976498731 -2.0249927158595225 
6000.0000000000000 9000.0000000000000 -4000.0000000000000 -41677035.251373395 -18726215.593331896 -97987581.041342258 4.8777490980457771e-05 -0.00045183350017184151 0.00013745765920066759 1.5999999989513045 -0.29999999977680564 -2.3853469318203913 
6000.0000000000000 10000.000000000000 -4000.0000000000000 -41677035.251229450 -18726215.593161643 -97987581.040819675 2.6595845181531070e-05 -0.00026738891689089797 0.00015210065101871719 1.5999999989521416 0.0000000000000000 -2.3853469318036278 
7000.0000000000000 10000.000000000000 -4000.0000000000000 -41677035.251245469 -18726215.594723374 -97987581.047653541 1.9561014382007776e-05 -0.00026647490585477346 0.00084890004392841113 1.1999999991905523 0.0000000000000000 -2.3853469320282557 
7000.0000000000000 9000.0000000000000 -4000.0000000000000 -41677035.251393013 -18726215.594889760 -97987581.048182294 3.8942046412786775e-05 -0.00044468989159607969 0.00085789536025592656 1.1999999991899679 -0.29999999977549069 -2.3853469320452940 
6000.0000000000000 9000.0000000000000 -3833.3333333330002 -40526655.540004678 -17575835.881340474 -93908962.063894600 4.4443665998786916e-05 -0.00050378400260856263 8.1142406401084596e-05 1.5999999990028311 -0.29999999978841069 -2.7308165977983054 
6000.0000000000000 10000.000000000000 -3833.3333333330002 -40526655.539883092 -17575835.881187703 -93908962.063468769 2.3998429063115267e-05 -0.00029592917827454883 9.6327954064869074e-05 1.5999999990035914 0.0000000000000000 -2.7308165977799668 
7000.0000000000000 10000.000000000000 -3833.3333333330002 -40526655.539829314 -17575835.882544681 -93908962.069456160 1.9489224868281465e-05 -0.00029458761694395823 0.00090671963071376448 1.1999999992316661 0.0000000000000000 -2.7308165980292718 
7000.0000000000000 9000.0000000000000 -3833.3333333330002 -40526655.539953806 -17575835.882694747 -93908962.069886610 3.8917536264737234e-05 -0.00049638703050962319 0.00091606988508919794 1.1999999992310821 -0.29999999978717606 -2.7308165980479191 
6000.0000000000000 9000.0000000000000 -3666.6666666669998 -39376172.868935734 -16425353.209593717 -89829978.047443748 4.0246748792247425e-05 -0.00055105119045098473 2.0308909759968351e-05 1.5999999990587648 -0.29999999980102071 -3.0614003814179247 
6000.0000000000000 10000.000000000000 -3666.6666666669998 -39376172.868834913 -16425353.209456682 -89829978.047108099 2.1461955923820464e-05 -0.00032153326243257978 3.5600093540904268e-05 1.5999999990594480 0.0000000000000000 -3.0614003813983484 
7000.0000000000000 10000.000000000000 -3666.6666666669998 -39376172.868738770 -16425353.210626358 -89829978.052301437 1.9216353551468142e-05 -0.00031982751164913486 0.00095171382647090872 1.1999999992763455 0.0000000000000000 -3.0614003816691016 
7000.0000000000000 9000.0000000000000 -3666.6666666669998 -39376172.868841790 -16425353.210761778 -89829978.052640557 3.8421181032677595e-05 -0.00054359898416670186 0.00096111481950846131 1.1999999992757671 -0.29999999979986564 -3.0614003816890127 
6000.0000000000000 9000.0000000000000 -3500.0000000000000 -38225587.228928573 -15274767.568859631 -85750628.959235877 3.6198458964240651e-05 -0.00059407869373378564 -4.0207383456740769e-05 1.5999999991184541 -0.29999999981447162 -3.3770969503870956 
6000.0000000000000 10000.000000000000 -3500.0000000000000 -38225587.228847057 -15274767.568736948 -85750628.958983779 1.9019873150723692e-05 -0.00034454328736096542 -2.5169639570805675e-05 1.5999999991190623 0.0000000000000000 -3.3770969503666026 
7000.0000000000000 10000.000000000000 -3500.0000000000000 -38225587.228731878 -15274767.569735900 -85750628.963435575 1.8736365321818618e-05 -0.00034253166742595259 0.00098734684321046744 1.1999999993240242 0.0000000000000000 -3.3770969506557518 
7000.0000000000000 9000.0000000000000 -3500.0000000000000 -38225587.228814900 -15274767.569857942 -85750628.963690311 3.7465312162455757e-05 -0.00058671238839327238 0.00099652657666212210 1.1999999993234567 -0.29999999981339603 -3.3770969506766022 
6000.0000000000000 9000.0000000000000 -3333.3333333330002 -37074898.610751398 -14124078.949911283 -81670914.766536281 3.2293995070319170e-05 -0.00063318781565969507 -9.6441921653632801e-05 1.5999999991813332 -0.29999999982861209 -3.6779049722881791 
6000.0000000000000 10000.000000000000 -3333.3333333330002 -37074898.610687762 -14124078.949801892 -81670914.766360894 1.6685400879978142e-05 -0.00036519546416570144 -8.1947355002357040e-05 1.5999999991818685 0.0000000000000000 -3.6779049722670671 
7000.0000000000000 10000.000000000000 -3333.3333333330002 -37074898.610572889 -14124078.950645765 -81670914.770123377 1.8049194221849293e-05 -0.00036292956771708011 0.0010165177136804563 1.1999999993741930 0.0000000000000000 -3.6779049725717439 
7000.0000000000000 9000.0000000000000 -3333.3333333330002 -37074898.610637374 -14124078.950755360 -81670914.770300731 3.6073257774586255e-05 -0.00062600839217033966 0.0010252542892141576 1.1999999993736425 -0.29999999982761677 -3.6779049725932316 
6000.0000000000000 9000.0000000000000 -3166.6666666669998 -35924107.005173132 -12973287.343521539 -77590835.436610505 2.8519287337797645e-05 -0.00066858448243539801 -0.00014512440435041464 1.5999999992469096 -0.29999999984330245 -3.9638231145843892 
6000.0000000000000 10000.000000000000 -3166.6666666669998 -35924107.005126044 -12973287.343424724 -77590835.436505035 1.4458851541769280e-05 -0.00038363380233360719 -0.00013139444462057509 1.5999999992473750 0.0000000000000000 -3.9638231145629312 
7000.0000000000000 10000.000000000000 -3166.6666666669998 -35924107.005026981 -12973287.344128206 -77590835.439629927 1.7162107724818682e-05 -0.00038116091741567036 0.0010416235758360696 1.1999999994263952 0.0000000000000000 -3.9638231148804581 
7000.0000000000000 9000.0000000000000 -3166.6666666669998 -35924107.005074322 -12973287.344225939 -77590835.439736903 3.4274699604549671e-05 -0.00066166164397157704 0.0010497326874139667 1.1999999994258685 -0.29999999984238906 -3.9638231149023051 
6000.0000000000000 9000.0000000000000 -3000.0000000000000 -34773212.402958266 -11822392.740457959 -73510390.936706454 2.4857396843454246e-05 -0.00070036886959269325 -0.00018369300816968771 1.5999999993147607 -0.29999999985841358 -4.2348500446245430 
6000.0000000000000 10000.000000000000 -3000.0000000000000 -34773212.402926467 -11822392.740373364 -73510390.936664104 1.2337390700025660e-05 -0.00039993686069909407 -0.00017088643932442951 1.5999999993151592 0.0000000000000000 -4.2348500446029878 
7000.0000000000000 10000.000000000000 -3000.0000000000000 -34773212.402855024 -11822392.740950232 -73510390.939202666 1.6088285177383548e-05 -0.00039729332641385748 0.0010645074206268863 1.1999999994802251 0.0000000000000000 -4.2348500449308837 
7000.0000000000000 9000.0000000000000 -3000.0000000000000 -34773212.402886569 -11822392.741036341 -73510390.939246178 3.2103766310799668e-05 -0.00069374665492477096 0.0010718470999727051 1.1999999994797281 -0.29999999985758458 -4.2348500449528421 
6000.0000000000000 9000.0000000000000 -2833.3333333330002 -33622214.794877045 -10671395.131493144 -69429581.234090790 2.1289854624019996e-05 -0.00072852927835685873 -0.00021026977775267302 1.5999999993845220 -0.29999999987382614 -4.4909844296327739 
6000.0000000000000 10000.000000000000 -2833.3333333330002 -33622214.794859312 -10671395.131420735 -69429581.234104693 1.0312605304142074e-05 -0.00041410244530797074 -0.00019850615640963317 1.5999999993848564 0.0000000000000000 -4.4909844296113404 
7000.0000000000000 10000.000000000000 -2833.3333333330002 -33622214.794823743 -10671395.131883860 -69429581.236107647 1.4841030898274843e-05 -0.00041131848406870822 0.0010864482539174746 1.1999999995353192 0.0000000000000000 -4.4909844299473249 
7000.0000000000000 9000.0000000000000 -2833.3333333330002 -33622214.794840805 -10671395.131958269 -69429581.236094698 2.9593451388782722e-05 -0.00072223634427573511 0.0010929236749984805 1.1999999995348585 -0.29999999987308407 -4.4909844299691706 
6000.0000000000000 9000.0000000000000 -2666.6666666669998 -32471114.171700250 -9520294.5073995702 -65348406.296030685 1.7796534534450527e-05 -0.00075294334718148100 -0.00022356532760975221 1.5999999994558807 -0.29999999988942877 -4.7322249367140765 
6000.0000000000000 10000.000000000000 -2666.6666666669998 -32471114.171695426 -9520294.5073396862 -65348406.296094008 8.3723218590866227e-06 -0.00042606248803716445 -0.00021291640856819209 1.5999999994561538 0.0000000000000000 -4.7322249366929583 
7000.0000000000000 10000.000000000000 -2666.6666666669998 -32471114.171700455 -9520294.5077009965 -65348406.297611326 1.3434152565966766e-05 -0.00042317018295247647 0.0011082434947416375 1.1999999995913562 0.0000000000000000 -4.7322249370349541 
7000.0000000000000 9000.0000000000000 -2666.6666666669998 -32471114.171704296 -9520294.5077632740 -65348406.297548860 2.6773556338883845e-05 -0.00074699757510810383 0.0011137910328862842 1.1999999995909365 -0.29999999988877685 -4.7322249370564959 
6000.0000000000000 9000.0000000000000 -2500.0000000000000 -31319910.524193890 -8369090.8589444021 -61266866.089775302 1.4354694260829043e-05 -0.00077337812812027916 -0.00022291234157924229 1.5999999995285721 -0.29999999990511778 -4.9585702328582544 
6000.0000000000000 10000.000000000000 -2500.0000000000000 -31319910.524200879 -8369090.8588977437 -61266866.089881197 6.5031180169471749e-06 -0.00043570280606822795 -0.00021341911567949453 1.5999999995287855 0.0000000000000000 -4.9585702328376158 
7000.0000000000000 10000.000000000000 -2500.0000000000000 -31319910.524247881 -8369090.8591683451 -61266866.090962484 1.1881166257427080e-05 -0.00043273088682939110 0.0011301556955414513 1.1999999996480484 0.0000000000000000 -4.9585702331837505 
7000.0000000000000 9000.0000000000000 -2500.0000000000000 -31319910.524239674 -8369090.8592176763 -61266866.090857349 2.3670543129950105e-05 -0.00076778986990812693 0.0011347510853386680 1.1999999996476751 -0.29999999990455933 -4.9585702332048243 
6000.0000000000000 9000.0000000000000 -2333.3333333330002 -30168603.843129542 -7217784.1768998541 -57184960.582592383 1.0939578918127385e-05 -0.00078947319129696390 -0.00020825386016688676 1.5999999996023673 -0.29999999992079546 -5.1700189849312324 
6000.0000000000000 10000.000000000000 -2333.3333333330002 -30168603.843147330 -7217784.1768675316 -57184960.582734093 4.6878083818000337e-06 -0.00044283891979098522 -0.00019992882461636991 1.5999999996025229 0.0000000000000000 -5.1700189849112075 
7000.0000000000000 10000.000000000000 -2333.3333333330002 -30168603.843234308 -7217784.1770576406 -57184960.583428308 1.0194400814918789e-05 -0.00043981327644603479 0.0011519364118334366 1.1999999997051403 0.0000000000000000 -5.1700189852598220 
7000.0000000000000 9000.0000000000000 -2333.3333333330002 -30168603.843215179 -7217784.1770928530 -57184960.583287366 2.0307277312249228e-05 -0.00078425382981912710 0.0011555849368248044 1.1999999997048183 -0.29999999992033427 -5.1700189852802927 
6000.0000000000000 9000.0000000000000 -2166.6666666669998 -29017194.119279169 -6066374.4520381466 -53102689.741750263 7.5256421315142193e-06 -0.00080074261751553188 -0.00018012306284141021 1.5999999996770722 -0.29999999993636911 -5.3665698596798057 
6000.0000000000000 10000.000000000000 -2166.6666666669998 -29017194.119306788 -6066374.4520216631 -53102689.741921045 2.9085462471622728e-06 -0.00044721691372226420 -0.00017295535201256328 1.5999999996771719 0.0000000000000000 -5.3665698596605012 
7000.0000000000000 10000.000000000000 -2166.6666666669998 -29017194.119428489 -6066374.4521406759 -53102689.742276728 8.3836786963281902e-06 -0.00044416723408171222 0.0011728424208066286 1.1999999997624009 0.0000000000000000 -5.3665698600101441 
7000.0000000000000 9000.0000000000000 -2166.6666666669998 -29017194.119399458 -6066374.4521601731 -53102689.742106676 1.6702561107914679e-05 -0.00079590561504155714 0.0011755806144951675 1.1999999997621345 -0.29999999993600951 -5.3665698600299043 
6000.0000000000000 9000.0000000000000 -2000.0000000000000 -27865681.343409926 -4914861.6751263477 -49020053.534499399 4.0855176203279026e-06 -0.00080657452267209398 -0.00013966988708631947 1.5999999997525194 -0.29999999995175036 -5.5482215237347736 
6000.0000000000000 10000.000000000000 -2000.0000000000000 -27865681.343446493 -4914861.6751276208 -49020053.534692548 1.1438173233182834e-06 -0.00044851853953225971 -0.00013363202795150061 1.5999999997525627 0.0000000000000000 -5.5482215237162658 
7000.0000000000000 10000.000000000000 -2000.0000000000000 -27865681.343594328 -4914861.6751840450 -49020053.534757577 6.4536134540606165e-06 -0.00044547875351424733 0.0011916328053075136 1.1999999998196218 0.0000000000000000 -5.5482215240657045 
7000.0000000000000 9000.0000000000000 -2000.0000000000000 -27865681.343556352 -4914861.6751858406 -49020053.534565121 1.2871538702325138e-05 -0.00080213039421344560 0.0011935249519396053 1.1999999998194149 -0.29999999995149623 -5.5482215240846759 
6000.0000000000000 9000.0000000000000 -1833.3333333329999 -26714065.506294318 -3763245.8369366252 -44937051.928108558 5.9137826938322281e-07 -0.00080621433926850660 -8.8622807773882051e-05 1.5999999998285621 -0.29999999996685262 -5.7149726436038772 
6000.0000000000000 10000.000000000000 -1833.3333333329999 -26714065.506339040 -3763245.8369580242 -44937051.928317524 -6.2631143556445240e-07 -0.00044635736968180539 -8.3663027179913609e-05 1.5999999998285486 0.0000000000000000 -5.7149726435862123 
7000.0000000000000 10000.000000000000 -1833.3333333329999 -26714065.506501187 -3763245.8369595213 -44937051.928139240 4.4128316326813439e-06 -0.00044335807461582901 0.0012065903101789288 1.1999999998766098 0.0000000000000000 -5.7149726439344208 
7000.0000000000000 9000.0000000000000 -1833.3333333329999 -26714065.506455135 -3763245.8369412189 -44937051.927931026 8.8272662057864374e-06 -0.00080217674496718227 0.0012077167320838098 1.1999999998764659 -0.29999999996670867 -5.7149726439525583 
6000.0000000000000 9000.0000000000000 -1666.6666666670001 -25562346.598705169 -2611526.9282412841 -40853684.889847055 -2.9849762170043273e-06 -0.00079876787475674331 -2.9308089807443909e-05 1.5999999999050694 -0.29999999998159116 -5.8668218856757202 
6000.0000000000000 10000.000000000000 -1666.6666666670001 -25562346.598757356 -2611526.9282856295 -40853684.890065432 -2.4188015171100515e-06 -0.00044028609440292788 -2.5364082232451584e-05 1.5999999999049983 0.0000000000000000 -5.8668218856589185 
7000.0000000000000 10000.000000000000 -1666.6666666670001 -25562346.598918706 -2611526.9282389907 -40853684.889690563 2.2692672231778683e-06 -0.00043736457362445272 0.0012154934873733047 1.1999999999331830 0.0000000000000000 -5.8668218860050878 
7000.0000000000000 9000.0000000000000 -1666.6666666670001 -25562346.598865308 -2611526.9281977271 -40853684.889473006 4.5791321453717297e-06 -0.00079515376915747387 0.0012159581057735530 1.1999999999331055 -0.29999999998156190 -5.8668218860223726 
9000.0000000000000 4000.0000000000000 -4833.3333333330002 -47427389.749778695 -24476570.088376768 -118375201.56218784 0.00022393176308849533 0.00022822544599850400 6.3551353728166267e-05 0.39999999965492078 -1.7999999987344459 -0.43475698888474235 
9000.0000000000000 5000.0000000000000 -4833.3333333330002 -47427389.746391512 -24476570.089053057 -118375201.54505293 0.00026286042881072810 4.8606982206741506e-05 8.5514297529407492e-05 0.39999999966435024 -1.4999999988046364 -0.43475698881018132 
10000.000000000000 5000.0000000000000 -4833.3333333330002 -47427389.746646173 -24476570.089540713 -118375201.54700781 0.00014861986285103125 5.9604285205217997e-05 6.7442401783137816e-05 0.0000000000000000 -1.4999999987997981 -0.43475698881685215 
10000.000000000000 4000.0000000000000 -4833.3333333330002 -47427389.750011817 -24476570.088885695 -118375201.56451698 0.00012678277721069552 0.00023917879006988592 6.5221589010278707e-05 0.0000000000000000 -1.7999999987302215 -0.43475698889272063 
9000.0000000000000 4000.0000000000000 -5000.0000000000000 -48002296.549159199 -25051476.887815017 -120413507.48753223 0.00022899094855313858 0.00010609720856202649 3.4937021222573565e-05 0.39999999965287086 -1.7999999987287467 0.0000000000000000 
9000.0000000000000 5000.0000000000000 -5000.0000000000000 -48002296.545576088 -25051476.888309084 -120413507.46966343 0.00026826096508166826 1.7621197846507263e-05 4.5254115107046789e-05 0.39999999966250521 -1.4999999987992707 0.0000000000000000 
10000.000000000000 5000.0000000000000 -5000.0000000000000 -48002296.545860857 -25051476.888831429 -120413507.47174464 0.00015132608798870418 2.2848442979357357e-05 3.5715269193051760e-05 0.0000000000000000 -1.4999999987943524 0.0000000000000000 
10000.000000000000 4000.0000000000000 -5000.0000000000000 -48002296.549430728 -25051476.888367318 -120413507.49002358 0.00012945485720054390 0.00011126456777121642 3.5111931790458332e-05 0.0000000000000000 -1.7999999987244293 0.0000000000000000 
9000.0000000000000 4000.0000000000000 -4666.6666666669998 -46277524.696665071 -23326705.035100263 -114298407.28219400 0.00021044379442308262 0.00050040671214698104 0.00011025191037547861 0.39999999966074945 -1.7999999987506876 -0.85463608665298252 
9000.0000000000000 5000.0000000000000 -4666.6666666669998 -46277524.693646342 -23326705.036103059 -114298407.26647492 0.00024812393010961600 0.00013454529089090318 0.00015739355943007364 0.39999999966962646 -1.4999999988200292 -0.85463608650952438 
10000.000000000000 5000.0000000000000 -4666.6666666669998 -46277524.693847649 -23326705.036524151 -114298407.26818343 0.00014106955695995964 0.00015789097171759411 0.00012367671086456052 0.0000000000000000 -1.4999999988154169 -0.85463608652228984 
10000.000000000000 4000.0000000000000 -4666.6666666669998 -46277524.696831048 -23326705.035527539 -114298407.28420816 0.00011956251909610015 0.00052377653514839207 0.00011642905609414659 0.0000000000000000 -1.7999999987467099 -0.85463608666826030 
9000.0000000000000 4000.0000000000000 -4500.0000000000000 -45127556.730216667 -22176737.068405606 -110221248.12721276 0.00019203835168225957 0.00082070652103603326 0.00013965190325769962 0.39999999966974015 -1.7999999987758775 -1.2596359617316131 
9000.0000000000000 5000.0000000000000 -4500.0000000000000 -45127556.727522507 -22176737.069661662 -110221248.11280674 0.00022717681573835669 0.00026305519778834548 0.00021436473944321812 0.39999999967783917 -1.4999999988441226 -1.2596359615246204 
10000.000000000000 5000.0000000000000 -4500.0000000000000 -45127556.727683358 -22176737.070021965 -110221248.11428221 0.00012997909422307120 0.00029984676119874405 0.00016704340918537866 0.0000000000000000 -1.4999999988398494 -1.2596359615428470 
10000.000000000000 4000.0000000000000 -4500.0000000000000 -45127556.730333954 -22176737.068761487 -110221248.12893221 0.00010950662031812021 0.00085752184649775945 0.00015174947601881065 0.0000000000000000 -1.7999999987722375 -1.2596359617534205 
9000.0000000000000 4000.0000000000000 -4333.3333333330002 -43977485.841181234 -21026666.179060362 -106143724.06450760 0.00017177714306871846 0.0011746966036997402 0.00015839797127250013 0.39999999968133920 -1.7999999988086464 -1.6497552824204542 
9000.0000000000000 5000.0000000000000 -4333.3333333330002 -43977485.838772997 -21026666.180502053 -106143724.05131489 0.00020292543625419787 0.00042386117785077121 0.00026067327344745961 0.39999999968854050 -1.4999999988757471 -1.6497552821549828 
10000.000000000000 5000.0000000000000 -4333.3333333330002 -43977485.838904276 -21026666.180807475 -106143724.05257174 0.00011673155447115802 0.00047422271937881986 0.00020060050785775661 0.0000000000000000 -1.4999999988718888 -1.6497552821780008 
10000.000000000000 4000.0000000000000 -4333.3333333330002 -43977485.841265671 -21026666.179354798 -106143724.06595451 9.8210189717188787e-05 0.0012248384477928180 0.00017542123502289919 0.0000000000000000 -1.7999999988053852 -1.6497552824479655 
9000.0000000000000 4000.0000000000000 -4166.6666666669998 -42827312.020309336 -19876492.357829604 -102065835.06134109 0.00015167816903614856 0.0015499070244033399 0.00017147882778474575 0.39999999969506739 -1.7999999988478377 -2.0249927169001904 
9000.0000000000000 5000.0000000000000 -4166.6666666669998 -42827312.018152677 -19876492.359395526 -102065835.04926625 0.00017750443271340150 0.00060759996398552195 0.00029960338502716169 0.39999999970133426 -1.4999999989138766 -2.0249927165809880 
10000.000000000000 5000.0000000000000 -4166.6666666669998 -42827312.018262893 -19876492.359651729 -102065835.05031943 0.00010248929602332235 0.00067086771528786595 0.00022705490895143568 0.0000000000000000 -1.4999999989104740 -2.0249927166081165 
10000.000000000000 4000.0000000000000 -4166.6666666669998 -42827312.020373225 -19876492.358071584 -102065835.06253837 8.6808313928663704e-05 0.0016124771121586528 0.00019129953760835654 0.0000000000000000 -1.7999999988449606 -2.0249927169325592 
9000.0000000000000 4000.0000000000000 -4000.0000000000000 -41677035.258348234 -18726215.595471323 -97987581.084956527 0.00013294594862145706 0.0019356256039356091 0.00018239771427811758 0.39999999971051947 -1.7999999988924880 -2.3853469332387287 
9000.0000000000000 5000.0000000000000 -4000.0000000000000 -41677035.256412402 -18726215.597106289 -97987581.073909163 0.00015239332867356557 0.00080576705032921203 0.00033358629479930658 0.39999999971587341 -1.4999999989576163 -2.3853469328702377 
10000.000000000000 5000.0000000000000 -4000.0000000000000 -41677035.256507918 -18726215.597318545 -97987581.074773848 8.8142758793918755e-05 0.00088069498081163558 0.00024855074445742306 0.0000000000000000 -1.4999999989546815 -2.3853469329008030 
10000.000000000000 4000.0000000000000 -4000.0000000000000 -41677035.258400515 -18726215.595668614 -97987581.085926995 7.6030652822013951e-05 0.0020092619480313301 0.00020244578301913607 0.0000000000000000 -1.7999999988899753 -2.3853469332751200 
9000.0000000000000 4000.0000000000000 -3833.3333333330002 -40526655.546051800 -17575835.882747192 -93908962.102614805 0.00011618370466950277 0.0023226630484812186 0.00019346800096791815 0.39999999972735273 -1.7999999989418070 -2.7308165993776963 
9000.0000000000000 5000.0000000000000 -3833.3333333330002 -40526655.544309244 -17575835.884402078 -93908962.092510492 0.00012854573396109864 0.0010107406018355315 0.00036437242238524415 0.39999999973185241 -1.4999999990061945 -2.7308165989640640 
10000.000000000000 5000.0000000000000 -3833.3333333330002 -40526655.544394597 -17575835.884575203 -93908962.093201816 7.4317438428582976e-05 0.0010957184740937322 0.00026669264886536190 0.0000000000000000 -1.4999999990037178 -2.7308165989974165 
10000.000000000000 4000.0000000000000 -3833.3333333330002 -40526655.546098530 -17575835.882906366 -93908962.103380561 6.6281112669559173e-05 0.0024057946596872325 0.00021110391080471415 0.0000000000000000 -1.7999999989396263 -2.7308165994173126 
9000.0000000000000 4000.0000000000000 -3666.6666666669998 -39376172.874175012 -16425353.210417859 -89829978.081576139 0.00010157636807850748 0.0027030564637890676 0.00020609351652070074 0.39999999974527922 -1.7999999989951587 -3.0614003831395840 
9000.0000000000000 5000.0000000000000 -3666.6666666669998 -39376172.872601017 -16425353.212049168 -89829978.072336912 0.00010651277542315688 0.0012157251161699139 0.00039317653106051833 0.39999999974900330 -1.4999999990589510 -3.0614003826846741 
10000.000000000000 5000.0000000000000 -3666.6666666669998 -39376172.872679271 -16425353.212187497 -89829978.072869748 6.1411877814784225e-05 0.0013089629343566601 0.00028261575741086114 0.0000000000000000 -1.4999999990569075 -3.0614003827201972 
10000.000000000000 4000.0000000000000 -3666.6666666669998 -39376172.874219999 -16425353.210544389 -89829978.082158297 5.7721681579568729e-05 0.0027940922670857799 0.00021879551151143801 0.0000000000000000 -1.7999999989932705 -3.0614003831816761 
9000.0000000000000 4000.0000000000000 -3500.0000000000000 -38225587.233468689 -15274767.569238076 -85750628.989082098 8.9031799715331766e-05 0.0030698647967155224 0.00022098489727908610 0.39999999976405526 -1.7999999990520426 -3.3770969522332912 
9000.0000000000000 5000.0000000000000 -3500.0000000000000 -38225587.232041039 -15274767.570807416 -85750628.980636567 8.6547386123551288e-05 0.0014146852961250613 0.00042078153962687970 0.39999999976708972 -1.4999999991153294 -3.3770969517407039 
10000.000000000000 5000.0000000000000 -3500.0000000000000 -38225587.232114114 -15274767.570914824 -85750628.981025487 4.9645034969387686e-05 0.0015143365284153384 0.00029705974508655698 0.0000000000000000 -1.4999999991136845 -3.3770969517778244 
10000.000000000000 4000.0000000000000 -3500.0000000000000 -38225587.233514018 -15274767.569336485 -85750628.989500523 5.0342681159186279e-05 0.0031672899153341269 0.00022643810233640227 0.0000000000000000 -1.7999999990504068 -3.3770969522771743 
9000.0000000000000 4000.0000000000000 -3333.3333333330002 -37074898.614689633 -14124078.949967304 -81670914.792392313 7.8288807944928862e-05 0.0034170219027796407 0.00023834710438763084 0.39999999978347323 -1.7999999991120763 -3.6779049742422361 
9000.0000000000000 5000.0000000000000 -3333.3333333330002 -37074898.613388412 -14124078.951440865 -81670914.784675881 6.8693788819310897e-05 0.0016023761887195014 0.00044762472884334861 0.39999999978590306 -1.4999999991748654 -3.6779049737153260 
10000.000000000000 5000.0000000000000 -3333.3333333330002 -37074898.613457359 -14124078.951520827 -81670914.784935176 3.9100047564744998e-05 0.0017066498047750192 0.00031045460608525533 0.0000000000000000 -1.4999999991735811 -3.6779049737535199 
10000.000000000000 4000.0000000000000 -3333.3333333330002 -37074898.614736140 -14124078.950041335 -81670914.792665690 4.4026116941702105e-05 0.0035194544163524785 0.00023449132362556664 0.0000000000000000 -1.7999999991106572 -3.6779049742872938 
9000.0000000000000 4000.0000000000000 -3166.6666666669998 -35924107.008595392 -12973287.343364660 -77590835.458766341 6.8997092571911539e-05 0.0037390927811895786 0.00025802428031259359 0.39999999980335493 -1.7999999991749824 -3.9638231166306985 
9000.0000000000000 5000.0000000000000 -3166.6666666669998 -35924107.007402755 -12973287.344712680 -77590835.451720938 5.2858160725741243e-05 0.0017742079723562106 0.00047387147842142981 0.39999999980525769 -1.4999999992371806 -3.9638231160725961 
10000.000000000000 5000.0000000000000 -3166.6666666669998 -35924107.007467881 -12973287.344768254 -77590835.451864406 2.9765195997454798e-05 0.0018814381360854407 0.00032299197813982587 0.0000000000000000 -1.4999999992362163 -3.9638231161113913 
10000.000000000000 4000.0000000000000 -3166.6666666669998 -35924107.008642942 -12973287.343417399 -77590835.458912075 3.8596045603896162e-05 0.0038453154061709426 0.00024307063568969201 0.0000000000000000 -1.7999999991737494 -3.9638231166763842 
9000.0000000000000 4000.0000000000000 -3000.0000000000000 -34773212.405939087 -11822392.740183931 -73510390.955445662 6.0774308478203591e-05 0.0040311590865368526 0.00027959857050959723 0.39999999982354473 -1.7999999992405757 -4.2348500467485595 
9000.0000000000000 5000.0000000000000 -3000.0000000000000 -34773212.404839039 -11822392.741380202 -73510390.949019492 3.8863038026053027e-05 0.0019262327375543255 0.00049946230165381098 0.39999999982498868 -1.4999999993019704 -4.2348500461621947 
10000.000000000000 5000.0000000000000 -3000.0000000000000 -34773212.404900119 -11822392.741414137 -73510390.949060678 2.1568347080586765e-05 0.0020349187565188815 0.00033468019272188095 0.0000000000000000 -1.4999999993012878 -4.2348500462011760 
10000.000000000000 4000.0000000000000 -3000.0000000000000 -34773212.405986883 -11822392.740217956 -73510390.955479994 3.3848481477679888e-05 0.0041401196969199656 0.00025204513722396261 0.0000000000000000 -1.7999999992395042 -4.2348500467944019 
9000.0000000000000 4000.0000000000000 -2833.3333333330002 -33622214.797479682 -10671395.131183987 -69429581.249690428 5.3243411444542219e-05 0.0042887611625825987 0.00030244924562905734 0.39999999984390699 -1.7999999993087497 -4.4909844318210217 
9000.0000000000000 5000.0000000000000 -2833.3333333330002 -33622214.796457969 -10671395.132205453 -69429581.243837744 2.6488376140624928e-05 0.0020551125635270787 0.00052413499324306624 0.39999999984494850 -1.4999999993689990 -4.4909844312091431 
10000.000000000000 5000.0000000000000 -2833.3333333330002 -33622214.796514273 -10671395.132220190 -69429581.243789792 1.4401594370975120e-05 0.0021639438416991958 0.00034537062332074957 0.0000000000000000 -1.4999999993685611 -4.4909844312479521 
10000.000000000000 4000.0000000000000 -2833.3333333330002 -33622214.797526419 -10671395.131201468 -69429581.249628648 2.9575786933241312e-05 0.0043995562519284596 0.00026109242804855297 0.0000000000000000 -1.7999999993078226 -4.4909844318666199 
9000.0000000000000 4000.0000000000000 -2666.6666666669998 -32471114.173976742 -9520294.5071236286 -65348406.308761299 4.6056062642815578e-05 0.0045077276775488803 0.00032581946437536984 0.39999999986432000 -1.7999999993794709 -4.7322249389541504 
9000.0000000000000 5000.0000000000000 -2666.6666666669998 -32471114.173020668 -9520294.5079500210 -65348406.303441942 1.5497418946359836e-05 0.0021580332319074695 0.00054747382317007923 0.39999999986500473 -1.4999999994380881 -4.7322249383193480 
10000.000000000000 5000.0000000000000 -2666.6666666669998 -32471114.173071038 -9520294.5079477224 -65348406.303317584 8.1371712799981583e-06 0.0022658927272307238 0.00035481831078524283 0.0000000000000000 -1.4999999994378617 -4.7322249383576835 
10000.000000000000 4000.0000000000000 -2666.6666666669998 -32471114.174020693 -9520294.5071263965 -65348406.308617733 2.5583026363530766e-05 0.0046195753372466715 0.00026976709380528160 0.0000000000000000 -1.7999999993786762 -4.7322249389991731 
9000.0000000000000 4000.0000000000000 -2500.0000000000000 -31319910.526185226 -8369090.8587563746 -61266866.099901125 3.8906254063595516e-05 0.0046841570310512115 0.00034883513040432631 0.39999999988467527 -1.7999999994527653 -4.9585702351388159 
9000.0000000000000 5000.0000000000000 -2500.0000000000000 -31319910.525283497 -8369090.8593698852 -61266866.095079906 5.6537678791506914e-06 0.0022327464811951218 0.00056891559436819564 0.39999999988503815 -1.4999999995091111 -4.9585702344835374 
10000.000000000000 5000.0000000000000 -2500.0000000000000 -31319910.525326423 -8369090.8593525346 -61266866.094891660 2.6385111021436522e-06 0.0023387171485891429 0.00036269694608677064 0.0000000000000000 -1.4999999995090680 -4.9585702345211553 
10000.000000000000 4000.0000000000000 -2500.0000000000000 -31319910.526224378 -8369090.8587460499 -61266866.099689484 2.1696630914737728e-05 0.0047963850224281065 0.00027753686454440822 0.0000000000000000 -1.7999999994520977 -4.9585702351830037 
9000.0000000000000 4000.0000000000000 -2333.3333333330002 -30168603.844865803 -7217784.1768408539 -57184960.590371907 3.1538636516303432e-05 0.0048143369137401398 0.00037053388931577172 0.39999999990487428 -1.7999999995287155 -5.1700189872420177 
9000.0000000000000 5000.0000000000000 -2333.3333333330002 -30168603.844008386 -7217784.1772259381 -57184960.586018085 -3.2657042851204084e-06 0.0022774812626978297 0.00058776645841009329 0.39999999990494106 -1.4999999995819862 -5.1700189865685848 
10000.000000000000 5000.0000000000000 -2333.3333333330002 -30168603.844042040 -7217784.1771953339 -57184960.585778162 -2.2275334932930676e-06 0.0023808262945847949 0.00036860588958417470 0.0000000000000000 -1.4999999995821021 -5.1700189866052959 
10000.000000000000 4000.0000000000000 -2333.3333333330002 -30168603.844897907 -7217784.1768188868 -57184960.590105362 1.7771872510616382e-05 0.0049263450098096127 0.00028380817151380482 0.0000000000000000 -1.7999999995281730 -5.1700189872851761 
9000.0000000000000 4000.0000000000000 -2166.6666666669998 -29017194.120779645 -6066374.4521355871 -53102689.747436576 2.3743854005107293e-05 0.0048947129531964105 0.00038987702182933083 0.39999999992482754 -1.7999999996074512 -5.3665698620116267 
9000.0000000000000 5000.0000000000000 -2166.6666666669998 -29017194.119957637 -6066374.4522787863 -53102689.743523218 -1.1471992065035914e-05 0.0022909312572099230 0.00060322053981828297 0.39999999992461582 -1.4999999996566706 -5.3665698613222483 
10000.000000000000 5000.0000000000000 -2166.6666666669998 -29017194.119979858 -6066374.4522365602 -53102689.743243456 -6.5928254018097643e-06 0.0023910760042211571 0.00037209794953866281 0.0000000000000000 -1.4999999996569249 -5.3665698613579202 
10000.000000000000 4000.0000000000000 -2166.6666666669998 -29017194.120802239 -6066374.4521032842 -53102689.747127749 1.3687313009523902e-05 0.0050059497493955855 0.00028795648065851767 0.0000000000000000 -1.7999999996070366 -5.3665698620536268 
9000.0000000000000 4000.0000000000000 -2000.0000000000000 -27865681.344683111 -4914861.6753936568 -49020053.538340345 1.5350873567868576e-05 0.0049218849231113804 0.00040577680225431544 0.39999999994445268 -1.7999999996891458 -5.5482215260795238 
9000.0000000000000 5000.0000000000000 -2000.0000000000000 -27865681.343888588 -4914861.6752834972 -49020053.534843668 -1.9170205877352060e-05 0.0022722742317979796 0.00061437209307076894 0.39999999994397312 -1.4999999997331512 -5.5482215253763076 
10000.000000000000 5000.0000000000000 -2000.0000000000000 -27865681.343896955 -4914861.6752311662 -49020053.534535609 -1.0593525169677565e-05 0.0023687769315370241 0.00037270747305892830 0.0000000000000000 -1.4999999997335292 -5.5482215254108578 
10000.000000000000 4000.0000000000000 -2000.0000000000000 -27865681.344693616 -4914861.6753522744 -49020053.538001589 9.3371774364486471e-06 0.0050318347985479558 0.00028935952130671431 0.0000000000000000 -1.7999999996888651 -5.5482215261203001 
9000.0000000000000 4000.0000000000000 -1833.3333333329999 -26714065.507338140 -3763245.8373730653 -44937051.930347830 6.2134605205582445e-06 0.0048925561018254085 0.00041712069794331175 0.39999999996367497 -1.7999999997740113 -5.7149726459545356 
9000.0000000000000 5000.0000000000000 -1833.3333333329999 -26714065.506564036 -3763245.8370000441 -44937051.927246563 -2.6571409669581387e-05 0.0022211537938779955 0.00062023707069818531 0.39999999996293140 -1.4999999998114437 -5.7149726452394924 
10000.000000000000 5000.0000000000000 -1833.3333333329999 -26714065.506555885 -3763245.8369390182 -44937051.926921360 -1.4376999172486197e-05 0.0023136753276786566 0.00036995546995619212 0.0000000000000000 -1.4999999998119358 -5.7149726452728880 
10000.000000000000 4000.0000000000000 -1833.3333333329999 -26714065.507333901 -3763245.8373238104 -44937051.929991126 4.6233175843507857e-06 0.0050007171131063125 0.00028742644632032680 0.0000000000000000 -1.7999999997738731 -5.7149726459940808 
9000.0000000000000 4000.0000000000000 -1666.6666666670001 -25562346.599506952 -2611526.9288314134 -40853684.890724599 -3.8130819700509736e-06 0.0048035633489403656 0.00042277209135305297 0.39999999998242691 -1.7999999998622935 -5.8668218880263705 
9000.0000000000000 5000.0000000000000 -1666.6666666670001 -25562346.598746911 -2611526.9281880092 -40853684.887999184 -3.3908829103725258e-05 0.0021376993450898970 0.00061974885687604184 0.39999999998141517 -1.4999999998915838 -5.8668218873014144 
10000.000000000000 5000.0000000000000 -1666.6666666670001 -25562346.598719396 -2611526.9281196045 -40853684.887667567 -1.8113987035144492e-05 0.0022259864501009458 0.00036335636123620811 0.0000000000000000 -1.4999999998921867 -5.8668218873336695 
10000.000000000000 4000.0000000000000 -1666.6666666670001 -25562346.599485364 -2611526.9287755075 -40853684.890361622 -5.6192304578710338e-07 0.0049094277900713296 0.00028161295371602812 0.0000000000000000 -1.7999999998623104 -5.8668218880647318 
3000.0000000000000 2000.0000000000000 -4833.3333333330002 -47427389.756097361 -24476570.066821437 -118375201.51601754 3.3255832658875768e-06 0.00036216709920669098 -0.00039287959046936167 2.7999999985850113 -2.3999999990924366 -0.43475698870024593 
3000.0000000000000 3000.0000000000000 -4833.3333333330002 -47427389.752778284 -24476570.068931118 -118375201.49881317 0.00019364342010271584 0.00033497956332559120 -0.00040365672651972748 2.7999999985879565 -2.0999999988452704 -0.43475698862203954 
4000.0000000000000 3000.0000000000000 -4833.3333333330002 -47427389.750856787 -24476570.073142745 -118375201.52084762 0.00018080757307763334 0.00034831456617220142 -0.00027995492837913589 2.3999999984926643 -2.0999999988383440 -0.43475698871862900 
4000.0000000000000 2000.0000000000000 -4833.3333333330002 -47427389.754200630 -24476570.071042590 -118375201.53797965 4.8976476029855684e-05 0.00033689720773226342 -0.00027551820972305266 2.3999999984891431 -2.3999999990941254 -0.43475698879677704 
3000.0000000000000 2000.0000000000000 -5000.0000000000000 -48002296.555016987 -25051476.865670018 -120413507.43937916 2.9169176404093486e-07 0.00017400944285806305 -0.00018593701194092438 2.7999999985789388 -2.3999999990882901 0.0000000000000000 
3000.0000000000000 3000.0000000000000 -5000.0000000000000 -48002296.551485054 -25051476.867590636 -120413507.42139685 0.00019703011124143344 0.00015963242632834431 -0.00019165846781975558 2.7999999985819595 -2.0999999988401674 0.0000000000000000 
4000.0000000000000 3000.0000000000000 -5000.0000000000000 -48002296.549792267 -25051476.872050762 -120413507.44435880 0.00018346055316881041 0.00016597833815458295 -0.00013184451765996656 2.3999999984859595 -2.0999999988330695 0.0000000000000000 
4000.0000000000000 2000.0000000000000 -5000.0000000000000 -48002296.553357430 -25051476.870146744 -120413507.46229956 4.7481688521974666e-05 0.00016144092151400188 -0.00012950544659046331 2.3999999984823677 -2.3999999990901375 0.0000000000000000 
3000.0000000000000 2000.0000000000000 -4666.6666666669998 -46277524.703803502 -23326705.014736243 -114298407.23994412 1.1673502591766317e-05 0.00076237835345189110 -0.00084355738795291284 2.7999999986022499 -2.3999999991040473 -0.85463608629900911 
3000.0000000000000 3000.0000000000000 -4666.6666666669998 -46277524.700876623 -23326705.017171346 -114298407.22419702 0.00018522867890305967 0.00071306342527357016 -0.00086338353753319733 2.7999999986050628 -2.0999999988597420 -0.85463608614873976 
4000.0000000000000 3000.0000000000000 -4666.6666666669998 -46277524.698551692 -23326705.020921022 -114298407.24446267 0.00017415113341861689 0.00074079590709132375 -0.00060393841759831350 2.3999999985117157 -2.0999999988532134 -0.85463608633515531 
4000.0000000000000 2000.0000000000000 -4666.6666666669998 -46277524.701491095 -23326705.018486664 -114298407.26009677 5.3179262584573741e-05 0.00071191294103723878 -0.00059559785426757921 2.3999999985083273 -2.3999999991053009 -0.85463608648481160 
3000.0000000000000 2000.0000000000000 -4500.0000000000000 -45127556.737979300 -22176737.049247961 -110221248.08878586 2.3701710644534886e-05 0.0012024633573731157 -0.0013579682719927595 2.7999999986288411 -2.3999999991216376 -1.2596359612229264 
3000.0000000000000 3000.0000000000000 -4500.0000000000000 -45127556.735381611 -22176737.051912319 -110221248.07430913 0.00017512864415421338 0.0011383249603443893 -0.0013850400559615916 2.7999999986315944 -2.0999999988820370 -1.2596359610060264 
4000.0000000000000 3000.0000000000000 -4500.0000000000000 -45127556.732755847 -22176737.055266183 -110221248.09297444 0.00016596877431946131 0.0011802014222236951 -0.00097502685313604893 2.3999999985411797 -2.0999999988759535 -1.2596359612759473 
4000.0000000000000 2000.0000000000000 -4500.0000000000000 -45127556.735360287 -22176737.052601211 -110221248.10733296 5.9386417222555397e-05 0.0011282454835017468 -0.00096321165824800553 2.3999999985378841 -2.3999999991222634 -1.2596359614914634 
3000.0000000000000 2000.0000000000000 -4333.3333333330002 -43977485.849387951 -21026666.161108017 -106143724.02979265 3.7838867577980918e-05 0.0016683816893652314 -0.0019176647111627883 2.7999999986632420 -2.3999999991440415 -1.6497552817715258 
3000.0000000000000 3000.0000000000000 -4333.3333333330002 -43977485.847064406 -21026666.163922410 -106143724.01641957 0.00016571150194751884 0.0015965392846799718 -0.0019503971191176185 2.7999999986660535 -2.0999999989108615 -1.6497552814927803 
4000.0000000000000 3000.0000000000000 -4333.3333333330002 -43977485.844229072 -21026666.166938625 -106143724.03364319 0.00015798471813046537 0.0016508808361547179 -0.0013781035642986661 2.3999999985794762 -2.0999999989051741 -1.6497552818403389 
4000.0000000000000 2000.0000000000000 -4333.3333333330002 -43977485.846555881 -21026666.164124839 -106143724.04691727 6.6753347423439467e-05 0.0015735191335421309 -0.0013632333992855969 2.3999999985762006 -2.3999999991439265 -1.6497552821169319 
3000.0000000000000 2000.0000000000000 -4166.6666666669998 -42827312.028793141 -19876492.341068525 -102065835.03021429 5.2860295665341899e-05 0.0021492134249723608 -0.0025066015295761783 2.7999999987041813 -2.3999999991703489 -2.0249927161251651 
3000.0000000000000 3000.0000000000000 -4166.6666666669998 -42827312.026696011 -19876492.343967650 -102065835.01779707 0.00015801367346576477 0.0020754331338758581 -0.0025431313042627310 2.7999999987071691 -2.0999999989451470 -2.0249927157887648 
4000.0000000000000 3000.0000000000000 -4166.6666666669998 -42827312.023731284 -19876492.346696880 -102065835.03372580 0.00015092469851510078 0.0021403322428630417 -0.0018008829248607008 2.3999999986253049 -2.0999999989397664 -2.0249927162085526 
4000.0000000000000 2000.0000000000000 -4166.6666666669998 -42827312.025828369 -19876492.343799997 -102065835.04607914 7.4500595417640710e-05 0.0020378525384464130 -0.0017836947726084771 2.3999999986219791 -2.3999999991694518 -2.0249927165421866 
3000.0000000000000 2000.0000000000000 -4000.0000000000000 -41677035.266954161 -18726215.579877526 -97987581.057281360 6.7827898974640659e-05 0.0026363636375639986 -0.0031110663330224057 2.7999999987506392 -2.3999999991998666 -2.3853469323513790 
3000.0000000000000 3000.0000000000000 -4000.0000000000000 -41677035.265042335 -18726215.582807180 -97987581.045689791 0.00015226557944217638 0.0025644831719392573 -0.0031491064854830943 2.7999999987538939 -2.0999999989840252 -2.3853469319609819 
4000.0000000000000 3000.0000000000000 -4000.0000000000000 -41677035.262018420 -18726215.585293636 -97987581.060458347 0.00014494238946725707 0.0026384234897767539 -0.0022330269949014164 2.3999999986775982 -2.0999999989788560 -2.3853469324480367 
4000.0000000000000 2000.0000000000000 -4000.0000000000000 -41677035.263926186 -18726215.582367353 -97987581.072030306 8.2003814608316600e-05 0.0025132153711151296 -0.0022146279812795206 2.3999999986741689 -2.3999999991981924 -2.3853469328353074 
3000.0000000000000 2000.0000000000000 -3833.3333333330002 -40526655.554636739 -17575835.868290011 -93908962.078243420 8.2034314737310766e-05 0.0031229142827439481 -0.0037194339796309673 2.7999999988018125 -2.3999999992320737 -2.7308165983913728 
3000.0000000000000 3000.0000000000000 -3833.3333333330002 -40526655.552874841 -17575835.871204603 -93908962.067363560 0.00014824390866597105 0.0030546351096094248 -0.0037563127666062541 2.7999999988053936 -2.0999999990268106 -2.7308165979501671 
4000.0000000000000 3000.0000000000000 -3833.3333333330002 -40526655.549853288 -17575835.873486895 -93908962.081094176 0.00013988681777842569 0.0031367037500097785 -0.0026655342928043045 2.3999999987354781 -2.0999999990217670 -2.7308165984999482 
4000.0000000000000 2000.0000000000000 -3833.3333333330002 -40526655.551606186 -17575835.870576005 -93908962.092002660 8.8803538221832740e-05 0.0029928259976425035 -0.0026473586667650141 2.3999999987319174 -2.3999999992296672 -2.7308165989379813 
3000.0000000000000 2000.0000000000000 -3666.6666666669998 -39376172.882607892 -16425353.197062982 -89829978.060351536 9.4964640650477215e-05 0.0036031803808575301 -0.0043217444866908202 2.7999999988570954 -2.3999999992665990 -3.0614003820671596 
3000.0000000000000 3000.0000000000000 -3666.6666666669998 -39376172.880965553 -16425353.199923413 -89829978.050084516 0.00014549777925072153 0.0035381167947349328 -0.0043545717415070656 2.7999999988610282 -2.0999999990729701 -3.0614003815779260 
4000.0000000000000 3000.0000000000000 -3666.6666666669998 -39376172.878000557 -16425353.202035243 -89829978.062886596 0.00013545615506077070 0.0036279715911019172 -0.0030903377149656265 2.3999999987982363 -2.0999999990679865 -3.0614003821862852 
4000.0000000000000 2000.0000000000000 -3666.6666666669998 -39376172.879628181 -16425353.199178092 -89829978.073230818 9.4578969886649104e-05 0.0034708445840881566 -0.0030740138209782151 2.3999999987945349 -2.3999999992635268 -3.0614003826726419 
3000.0000000000000 2000.0000000000000 -3500.0000000000000 -38225587.241630547 -15274767.556950171 -85750628.970840037 0.00010626815300227913 0.0040722983520363265 -0.0049094287204189922 2.7999999989160496 -2.3999999993031906 -3.3770969510871214 
3000.0000000000000 3000.0000000000000 -3500.0000000000000 -38225587.240081705 -15274767.559722029 -85750628.961100638 0.00014348691956249330 0.0040081513805347337 -0.0049351980176590973 2.7999999989203292 -2.0999999991221094 -3.3770969505522883 
4000.0000000000000 3000.0000000000000 -3500.0000000000000 -38225587.237221405 -15274767.561692810 -85750628.973070815 0.00013129721634685910 0.0041059500823404354 -0.0035001751133258091 2.3999999988653085 -2.0999999991171481 -3.3770969512154312 
4000.0000000000000 2000.0000000000000 -3500.0000000000000 -38225587.238749415 -15274767.558923252 -85750628.982933819 9.9123239162631342e-05 0.0039421103600483631 -0.0034874189082264480 2.3999999988614786 -2.3999999992995353 -3.3770969517480265 
3000.0000000000000 2000.0000000000000 -3333.3333333330002 -37074898.622473761 -14124078.938712280 -81670914.776963174 0.00011571407002905480 0.0045259011998915874 -0.0054749005634822656 2.7999999989783855 -2.3999999993417021 -3.6779049730341131 
3000.0000000000000 3000.0000000000000 -3333.3333333330002 -37074898.620995969 -14124078.941364320 -81670914.767678693 0.00014167081496609647 0.0044586812345147131 -0.0054906618193059104 2.7999999989829827 -2.0999999991739546 -3.6779049724558068 
4000.0000000000000 3000.0000000000000 -3333.3333333330002 -37074898.618283644 -14124078.943219706 -81670914.778901130 0.00012705586549291542 0.0045649424897527859 -0.0038883814911102013 2.3999999989362593 -2.0999999991690008 -3.6779049731702544 
4000.0000000000000 2000.0000000000000 -3333.3333333330002 -37074898.619734466 -14124078.940568630 -81670914.788351581 0.00010230479211302062 0.0044018227732374520 -0.0038808744463854766 2.3999999989323269 -2.3999999993375538 -3.6779049737472898 
3000.0000000000000 2000.0000000000000 -3166.6666666669998 -35924107.015907198 -12973287.333111532 -77590835.445976362 0.00012315694506513186 0.0049599212292093407 -0.0060112404579337657 2.7999999990439388 -2.3999999993820755 -3.9638231153718095 
3000.0000000000000 3000.0000000000000 -3166.6666666669998 -35924107.014481202 -12973287.335614460 -77590835.437086061 0.00013954941053535857 0.0048842012048920542 -0.0060142425023853741 2.7999999990488047 -2.0999999992283378 -3.9638231147519116 
4000.0000000000000 3000.0000000000000 -3166.6666666669998 -35924107.011956438 -12973287.337376824 -77590835.447632730 0.00012240553658330816 0.0049996293422868198 -0.0042487587958135583 2.3999999990107646 -2.0999999992234017 -3.9638231155144537 
4000.0000000000000 2000.0000000000000 -3166.6666666669998 -35924107.013349712 -12973287.334873401 -77590835.456726402 0.00010404556979170241 0.0048454205373486747 -0.0042480741849053863 2.3999999990067695 -2.3999999993775307 -3.9638231161343507 
3000.0000000000000 2000.0000000000000 -3000.0000000000000 -34773212.412695967 -11822392.730906412 -73510390.945118040 0.00012850672878816691 0.0053703719974525178 -0.0065119832790028215 2.7999999991126607 -2.3999999994243351 -4.2348500454494582 
3000.0000000000000 3000.0000000000000 -3000.0000000000000 -34773212.411305174 -11822392.733231734 -73510390.936572015 0.00013666922774186656 0.0052795691768165514 -0.0064997718063461545 2.7999999991177305 -2.0999999992851879 -4.2348500447896491 
4000.0000000000000 3000.0000000000000 -3000.0000000000000 -34773212.409004793 -11822392.734920543 -73510390.946503431 0.00011706058511380826 0.0054049032117858111 -0.0045755734753017011 2.3999999990886032 -2.0999999992802980 -4.2348500455972991 
4000.0000000000000 2000.0000000000000 -3000.0000000000000 -34773212.410357863 -11822392.732593324 -73510390.955284536 0.00010430579636462077 0.0052683983257929435 -0.0045831034871165032 2.3999999990845926 -2.3999999994194905 -4.2348500462586474 
3000.0000000000000 2000.0000000000000 -2833.3333333330002 -33622214.803610809 -10671395.122861769 -69429581.241646096 0.00013170750313785517 0.0057531567117425396 -0.0069708523736924169 2.7999999991845992 -2.3999999994685752 -4.4909844304915874 
3000.0000000000000 3000.0000000000000 -2833.3333333330002 -33622214.802240908 -10671395.124980848 -69429581.233404666 0.00013263563254691603 0.0056398279941077944 -0.0069413718779657426 2.7999999991897955 -2.0999999993445146 -4.4909844297933903 
4000.0000000000000 3000.0000000000000 -2833.3333333330002 -33622214.800199859 -10671395.126613002 -69429581.242770314 0.00011077963446602032 0.0057757191700159114 -0.0048634627279271992 2.3999999991696424 -2.0999999993397203 -4.4909844306433486 
4000.0000000000000 2000.0000000000000 -2833.3333333330002 -33622214.801528044 -10671395.124490825 -69429581.251272455 0.00010306678850668500 0.0056661284365489709 -0.0048803354576070733 2.3999999991656726 -2.3999999994635277 -4.4909844313448479 
3000.0000000000000 2000.0000000000000 -2666.6666666669998 -32471114.179422878 -9520294.4997434746 -65348406.302819148 0.00013271602777652859 0.0061039408128867999 -0.0073815760531740415 2.7999999992598914 -2.3999999995149559 -4.7322249376035552 
3000.0000000000000 3000.0000000000000 -2666.6666666669998 -32471114.178061523 -9520294.5016267113 -65348406.294852547 0.00012711558478714337 0.0059600866941273327 -0.0073332395764933202 2.7999999992651272 -2.0999999994064074 -4.7322249368683877 
4000.0000000000000 3000.0000000000000 -2666.6666666669998 -32471114.176313616 -9520294.5032168478 -65348406.303691640 0.00010336599942385608 0.0061069912840171553 -0.0051073374686566638 2.3999999992538297 -2.0999999994017706 -4.7322249377579899 
4000.0000000000000 2000.0000000000000 -2666.6666666669998 -32471114.177630499 -9520294.5013296288 -65348406.311938338 0.00010032162415356392 0.0060337674241380691 -0.0051343986161134043 2.3999999992499603 -2.3999999995098018 -4.7322249384984056 
3000.0000000000000 2000.0000000000000 -2500.0000000000000 -31319910.530898631 -8369090.8523131851 -61266866.095878541 0.00013148016504912650 0.0064180125482012308 -0.0077377417642628971 2.7999999993387554 -2.3999999995637009 -4.9585702337754958 
3000.0000000000000 3000.0000000000000 -2500.0000000000000 -31319910.529535137 -8369090.8539292114 -61266866.088166296 0.00011982405440435095 0.0062353374098042093 -0.0076694655349150119 2.7999999993439362 -2.0999999994710241 -4.9585702330047070 
4000.0000000000000 3000.0000000000000 -2500.0000000000000 -31319910.528113697 -8369090.8554899562 -61266866.096508525 9.4659941376381513e-05 0.0063934101707609379 -0.0053023878000704296 2.3999999993411834 -2.0999999994666187 -4.9585702339313906 
4000.0000000000000 2000.0000000000000 -2500.0000000000000 -31319910.529431332 -8369090.8538694475 -61266866.104513720 9.6058160185382517e-05 0.0063660740291978466 -0.0053401706072587988 2.3999999993374783 -2.3999999995585370 -4.9585702347095060 
3000.0000000000000 2000.0000000000000 -2333.3333333330002 -30168603.848810136 -7217784.1713384558 -57184960.588084280 0.00012793919935627398 0.0066901163281922671 -0.0080326599462288619 2.7999999994214857 -2.3999999996150954 -5.1700189858736323 
3000.0000000000000 3000.0000000000000 -2333.3333333330002 -30168603.847435247 -7217784.1726534003 -57184960.580615126 0.00011052265369558427 0.0064603787062103377 -0.0079438978987356572 2.7999999994265092 -2.0999999995385874 -5.1700189850685518 
4000.0000000000000 3000.0000000000000 -2333.3333333330002 -30168603.846373603 -7217784.1741955606 -57184960.588481262 8.4540459584213419e-05 0.0066294518701672713 -0.0054440762360989858 2.3999999994317847 -2.0999999995344969 -5.1700189860298122 
4000.0000000000000 2000.0000000000000 -2333.3333333330002 -30168603.847702749 -7217784.1728761066 -57184960.596249670 9.0261514510973237e-05 0.0066573214619719155 -0.0054927970435651851 2.3999999994283123 -2.3999999996100176 -5.1700189868443820 
3000.0000000000000 2000.0000000000000 -2166.6666666669998 -29017194.123930078 -6066374.4475875469 -53102689.746697076 0.00012201573479813890 0.0069143693285260086 -0.0082592094403407205 2.7999999995084441 -2.3999999996694825 -5.3665698606450238 
3000.0000000000000 3000.0000000000000 -2166.6666666669998 -29017194.122535735 -6066374.4485643040 -53102689.739468701 9.9016742126746614e-05 0.0066297857400063496 -0.0081500123064214263 2.7999999995132034 -2.0999999996093810 -5.3665698598070026 
4000.0000000000000 3000.0000000000000 -2166.6666666669998 -29017194.121867657 -6066374.4500970533 -53102689.746871211 7.2920170795924387e-05 0.0068092716188417422 -0.0055280937673960048 2.3999999995257704 -2.0999999996056964 -5.3665698608003618 
4000.0000000000000 2000.0000000000000 -2166.6666666669998 -29017194.123217929 -6066374.4491162719 -53102689.754398495 8.2913767523476575e-05 0.0069011035289654778 -0.0055876298525631826 2.3999999995225996 -2.3999999996645891 -5.3665698616500643 
3000.0000000000000 2000.0000000000000 -2000.0000000000000 -27865681.347026572 -4914861.6718240343 -49020053.538959451 0.00011360621812547296 0.0070840449550810154 -0.0084097353599099887 2.7999999996000615 -2.3999999997272679 -5.5482215247207032 
3000.0000000000000 3000.0000000000000 -2000.0000000000000 -27865681.345605709 -4914861.6724215243 -49020053.531978324 8.5147369105260641e-05 0.0067376516644485317 -0.0082807547231307267 2.7999999996044411 -2.0999999996837464 -5.5482215238511614 
4000.0000000000000 3000.0000000000000 -2000.0000000000000 -27865681.345365804 -4914861.6739526279 -49020053.538922273 5.9738442726855674e-05 0.0069265431915312399 -0.0055503660960562621 2.3999999996233261 -2.0999999996805623 -5.5482215248741280 
4000.0000000000000 2000.0000000000000 -2000.0000000000000 -27865681.346745837 -4914861.6733521344 -49020053.546195187 7.3982461198069451e-05 0.0070902081195488853 -0.0056202615330262209 2.3999999996205279 -2.3999999997226600 -5.5482215257575254 
3000.0000000000000 2000.0000000000000 -1833.3333333329999 -26714065.508873783 -3763245.8348171283 -44937051.932132430 0.00010258645833955473 0.0071914806839864943 -0.0084759683236165211 2.7999999996968352 -2.3999999997889212 -5.7149726446085944 
3000.0000000000000 3000.0000000000000 -1833.3333333329999 -26714065.507420186 -3763245.8349896083 -44937051.925414138 6.8790239489009729e-05 0.0067776228715137419 -0.0083284698664301705 2.7999999997007157 -2.0999999997620815 -5.7149726437090616 
4000.0000000000000 3000.0000000000000 -1833.3333333329999 -26714065.507644113 -3763245.8365255417 -44937051.931897685 4.4968152965462583e-05 0.0069744888111070540 -0.0055071127335209425 2.3999999997246815 -2.0999999997594947 -5.7149726447591114 
4000.0000000000000 2000.0000000000000 -1833.3333333329999 -26714065.509061720 -3763245.8363516582 -44937051.938893937 6.3427493384724489e-05 0.0072164899010714063 -0.0055865808647440453 2.3999999997223260 -2.3999999997847010 -5.7149726456745977 
3000.0000000000000 2000.0000000000000 -1666.6666666670001 -25562346.600246962 -2611526.9273364944 -40853684.893477477 8.8810262413713208e-05 0.0072278716355273082 -0.0084488666713219609 2.7999999997993252 -2.3999999998549781 -5.8668218866974602 
3000.0000000000000 3000.0000000000000 -1666.6666666670001 -25562346.598755077 -2611526.9270327245 -40853684.887046598 4.9850617502868621e-05 0.0067428257860355145 -0.0082847791294067760 2.7999999998025817 -2.0999999998448398 -5.8668218857696246 
4000.0000000000000 3000.0000000000000 -1666.6666666670001 -25562346.599479765 -2611526.9285788354 -40853684.893061757 2.8603087622500923e-05 0.0069457800595958304 -0.0053948282825380884 2.3999999998300994 -2.0999999998429488 -5.8668218868441704 
4000.0000000000000 2000.0000000000000 -1666.6666666670001 -25562346.600942090 -2611526.9288834045 -40853684.899750099 5.1201742668580889e-05 0.0072706068916146283 -0.0054827517188132582 2.3999999998282600 -2.3999999998512540 -5.8668218877899232 
5000.0000000000000 8000.0000000000000 -4833.3333333330002 -47427389.736822486 -24476570.077073891 -118375201.47633791 0.00014856875274413608 -0.00016810978374433701 -8.8871975186096707e-05 1.9999999985941987 -0.59999999948637217 -0.43475698853268396 
5000.0000000000000 9000.0000000000000 -4833.3333333330002 -47427389.735979207 -24476570.076247867 -118375201.47312132 9.5125592098033995e-05 -0.00010021246451820978 -8.5074168448529978e-05 1.9999999985988146 -0.29999999974381081 -0.43475698852132949 
6000.0000000000000 8000.0000000000000 -4833.3333333330002 -47427389.736871898 -24476570.080715667 -118375201.49283698 9.6503559789916455e-05 -0.00015943664021690092 0.00010491924088371390 1.5999999987860787 -0.59999999948187510 -0.43475698860346818 
5000.0000000000000 8000.0000000000000 -5000.0000000000000 -48002296.535187639 -25051476.875477366 -120413507.39778957 0.00015041014335687633 -8.6543383545730876e-05 -3.7216819078724785e-05 1.9999999985877945 -0.59999999948406368 0.0000000000000000 
5000.0000000000000 9000.0000000000000 -5000.0000000000000 -48002296.534298025 -25051476.874606073 -120413507.39440618 9.6557625833510765e-05 -5.1362914986921557e-05 -3.5472377288256831e-05 1.9999999985924946 -0.29999999974264746 0.0000000000000000 
6000.0000000000000 8000.0000000000000 -5000.0000000000000 -48002296.535418920 -25051476.879329350 -120413507.41506954 9.7305508193546846e-05 -8.2121937518547030e-05 5.9268139832955493e-05 1.5999999987803708 -0.59999999947944305 0.0000000000000000 
5000.0000000000000 8000.0000000000000 -4666.6666666669998 -46277524.685611092 -23326705.025750469 -114298407.20393261 0.00014350156906674501 -0.00032174676507126224 -0.00021667616825206252 1.9999999986124846 -0.59999999949308058 -0.85463608597821394 
5000.0000000000000 9000.0000000000000 -4666.6666666669998 -46277524.684858173 -23326705.025011778 -114298407.20104490 9.1163440573951705e-05 -0.00019306302028290518 -0.00020835739866248746 1.9999999986168768 -0.29999999974719138 -0.85463608595652663 
6000.0000000000000 8000.0000000000000 -4666.6666666669998 -46277524.685342662 -23326705.028994240 -114298407.21892107 9.4421616159464091e-05 -0.00030511856408321092 0.00017197499208724756 1.5999999988024636 -0.59999999948887794 -0.85463608611359210 
5000.0000000000000 8000.0000000000000 -4500.0000000000000 -45127556.720819898 -22176737.060779843 -110221248.05614655 0.00013615311650774618 -0.00045735858152904670 -0.00038583999510951000 1.9999999986409467 -0.59999999950375427 -1.2596359607623160 
5000.0000000000000 9000.0000000000000 -4500.0000000000000 -45127556.720152318 -22176737.060121801 -110221248.05357769 8.5387824488539752e-05 -0.00027661668127639764 -0.00037252243975303468 1.9999999986450265 -0.29999999975257235 -1.2596359607313348 
6000.0000000000000 8000.0000000000000 -4500.0000000000000 -45127556.720317058 -22176737.063667592 -110221248.06972508 9.1649873544038011e-05 -0.00043411173799152682 0.00019618471508120629 1.5999999988281284 -0.59999999949990446 -1.2596359609563856 
5000.0000000000000 8000.0000000000000 -4333.3333333330002 -43977485.833219238 -21026666.172938574 -106143724.00024524 0.00012735364009909504 -0.00057684926251116953 -0.00058287803166331466 1.9999999986781469 -0.59999999951796446 -1.6497552811836087 
5000.0000000000000 9000.0000000000000 -4333.3333333330002 -43977485.832631603 -21026666.172354236 -106143723.99798395 7.8477015454720743e-05 -0.00035167973434258731 -0.00056466376495297615 1.9999999986818637 -0.29999999975974090 -1.6497552811443776 
6000.0000000000000 8000.0000000000000 -4333.3333333330002 -43977485.832550347 -21026666.175507098 -106143724.01251057 8.8553167953404118e-05 -0.00054859008415103971 0.00018803676843125619 1.5999999988618332 -0.59999999951447347 -1.6497552814307779 
5000.0000000000000 8000.0000000000000 -4166.6666666669998 -42827312.013579957 -19876492.353002943 -102065835.00349560 0.00011768905752482215 -0.00068207107293654810 -0.00079723750145073804 1.9999999987228709 -0.59999999953529948 -2.0249927154215510 
5000.0000000000000 9000.0000000000000 -4166.6666666669998 -42827312.013066933 -19876492.352485366 -102065835.00152937 7.0947586409000240e-05 -0.00041906736364276690 -0.00077458878467460740 1.9999999987262027 -0.29999999976849118 -2.0249927153751059 
6000.0000000000000 8000.0000000000000 -4166.6666666669998 -42827312.012801565 -19876492.355284709 -102065835.01453958 8.5252866364551866e-05 -0.00065035967294202338 0.00015652313847985258 1.5999999989024831 -0.59999999953215155 -2.0249927157165466 
5000.0000000000000 8000.0000000000000 -4000.0000000000000 -41677035.252668023 -18726215.591743626 -97987581.033147126 0.00010757866050815802 -0.00077478378623914066 -0.0010203597371000205 1.9999999987740920 -0.59999999955537175 -2.3853469315428057 
5000.0000000000000 9000.0000000000000 -4000.0000000000000 -41677035.252224460 -18726215.591286100 -97987581.031462431 6.3182276478632732e-05 -0.00047956064116914677 -0.00099392047151310387 1.9999999987770329 -0.29999999977862690 -2.3853469314901634 
6000.0000000000000 8000.0000000000000 -4000.0000000000000 -41677035.251827441 -18726215.593767539 -97987581.043056473 8.1765635192152417e-05 -0.00074099478799732638 0.00010931995022519936 1.5999999989491120 -0.59999999955254246 -2.3853469318806755 
5000.0000000000000 8000.0000000000000 -3833.3333333330002 -40526655.541254699 -17575835.879936039 -93908962.056468442 9.7323585751222377e-05 -0.00085659395661850739 -0.0012450711870735703 1.9999999988309372 -0.59999999957781780 -2.7308165974877521 
5000.0000000000000 9000.0000000000000 -3833.3333333330002 -40526655.540875770 -17575835.879532281 -93908962.055050939 5.5454994509005795e-05 -0.00053386243069562279 -0.0012155831964938907 1.9999999988334944 -0.29999999978996245 -2.7308165974298984 
6000.0000000000000 8000.0000000000000 -3833.3333333330002 -40526655.540392041 -17575835.881728038 -93908962.065324739 7.8066493039293157e-05 -0.00082187955405313884 5.2908694572516678e-05 1.5999999990008718 -0.59999999957528238 -2.7308165978638517 
5000.0000000000000 8000.0000000000000 -3666.6666666669998 -39376172.870111443 -16425353.208355099 -89829978.040728554 8.7137249106535031e-05 -0.00092894390761149757 -0.0014651418303152769 1.9999999988926656 -0.59999999960230010 -3.0614003810776218 
5000.0000000000000 9000.0000000000000 -3666.6666666669998 -39376172.869792610 -16425353.207999395 -89829978.039563239 4.7955276272130340e-05 -0.00058259348934335117 -0.0014333618241234710 1.9999999988948554 -0.29999999980232378 -3.0614003810155030 
6000.0000000000000 8000.0000000000000 -3666.6666666669998 -39376172.869261041 -16425353.209938616 -89829978.048608318 7.4122245934491948e-05 -0.00089423172677189212 -7.2150648306236215e-06 1.5999999990570193 -0.59999999960003592 -3.0614003814876125 
5000.0000000000000 8000.0000000000000 -3500.0000000000000 -38225587.230004869 -15274767.567770122 -85750628.953178629 7.7169256032681512e-05 -0.00099309233017773032 -0.0016750821920947373 1.9999999989586550 -0.59999999962850659 -3.3770969500200616 
5000.0000000000000 9000.0000000000000 -3500.0000000000000 -38225587.229741827 -15274767.567457428 -85750628.952249736 4.0810536872669419e-05 -0.00062628777418507336 -0.0016417373515474696 1.9999999989604977 -0.29999999981554804 -3.3770969499545780 
6000.0000000000000 8000.0000000000000 -3500.0000000000000 -38225587.229196221 -15274767.569166427 -85750628.960153535 6.9908607637998818e-05 -0.00095911248569284968 -6.6423671091739265e-05 1.5999999991169069 -0.59999999962649386 -3.3770969504598929 
5000.0000000000000 8000.0000000000000 -3333.3333333330002 -37074898.611707143 -14124078.948955206 -81670914.761088476 6.7518630409082561e-05 -0.0010500955021740047 -0.0018700164799947290 1.9999999990283812 -0.59999999965614925 -3.6779049718972425 
5000.0000000000000 9000.0000000000000 -3333.3333333330002 -37074898.611495830 -14124078.948681263 -81670914.760379776 3.4098802277995812e-05 -0.00066537340136103591 -0.0018357870801634867 1.9999999990299027 -0.29999999982948383 -3.6779049718292383 
6000.0000000000000 8000.0000000000000 -3333.3333333330002 -37074898.610965557 -14124078.950183669 -81670914.767225757 6.5408963806840172e-05 -0.0010174068413880319 -0.00012091161346560694 1.5999999991799707 -0.59999999965437112 -3.6779049723631383 
5000.0000000000000 8000.0000000000000 -3166.6666666669998 -35924107.005990855 -12973287.342684042 -77590835.431728080 5.8245178316128799e-05 -0.0011007995678572692 -0.0020455618365874196 1.9999999991014126 -0.59999999968496243 -3.9638231141721998 
5000.0000000000000 9000.0000000000000 -3166.6666666669998 -35924107.005827442 -12973287.342445483 -77590835.431222841 2.7860704901590597e-05 -0.00070016611975956067 -0.0020110521521653525 1.9999999991026376 -0.29999999984399056 -3.9638231141024609 
6000.0000000000000 8000.0000000000000 -3166.6666666669998 -35924107.005337849 -12973287.343762308 -77590835.437090665 6.0614878826008520e-05 -0.0010698257947019426 -0.00016755918282132642 1.5999999992457214 -0.59999999968340567 -3.9638231146606522 
5000.0000000000000 8000.0000000000000 -3000.0000000000000 -34773212.403623872 -11822392.739724780 -73510390.932349116 4.9377693666857053e-05 -0.0011458258397801207 -0.0021978369069643412 1.9999999991773976 -0.59999999971470241 -4.2348500441935863 
5000.0000000000000 9000.0000000000000 -3000.0000000000000 -34773212.403504714 -11822392.739519203 -73510390.932030246 2.2108330584461382e-05 -0.00073087427171409963 -0.0021635713763178731 1.9999999991783510 -0.29999999985893727 -4.2348500441228367 
6000.0000000000000 8000.0000000000000 -3000.0000000000000 -34773212.403077394 -11822392.740668939 -73510390.936996236 5.5524436457032996e-05 -0.0011168753020198135 -0.00020391778742360388 1.5999999993137382 -0.59999999971335594 -4.2348500447013384 
5000.0000000000000 8000.0000000000000 -2833.3333333330002 -33622214.795379736 -10671395.130850427 -69429581.230221659 4.0917124166163253e-05 -0.0011855586973282880 -0.0023234643971924655 1.9999999992560544 -0.59999999974514406 -4.4909844291853780 
5000.0000000000000 9000.0000000000000 -2833.3333333330002 -33622214.795301370 -10671395.130676471 -69429581.230071664 1.6831746650295352e-05 -0.00075758662905468267 -0.0022898867544996703 1.9999999992567596 -0.29999999987420262 -4.4909844291142740 
6000.0000000000000 8000.0000000000000 -2833.3333333330002 -33622214.794954292 -10671395.131675135 -69429581.234209254 5.0138270238900830e-05 -0.0011588423617100100 -0.00022818129614185181 1.5999999993836589 -0.59999999974399965 -4.4909844297094130 
5000.0000000000000 8000.0000000000000 -2666.6666666669998 -32471114.172032431 -9520294.5068336837 -65348406.292615786 3.2842270558102128e-05 -0.0012201403656650861 -0.0024195290212112404 1.9999999993371633 -0.59999999977608021 -4.7322249362524254 
5000.0000000000000 9000.0000000000000 -2666.6666666669998 -32471114.171991616 -9520294.5066911355 -65348406.292617016 1.2003824612516461e-05 -0.00078027547228096627 -0.0023870242915468962 1.9999999993376445 -0.29999999988967335 -4.7322249361815532 
6000.0000000000000 8000.0000000000000 -2666.6666666669998 -32471114.171739101 -9520294.5075522661 -65348406.295996815 4.4456703016136966e-05 -0.0011957972150211174 -0.00023912188611877364 1.5999999994551728 -0.59999999977513152 -4.7322249367899607 
5000.0000000000000 8000.0000000000000 -2500.0000000000000 -31319910.524351262 -8369090.8584418064 -61266866.086783156 2.5112306896049968e-05 -0.0012494488789890033 -0.0024836532963955836 1.9999999994205633 -0.59999999980731855 -4.9585702323843881 
5000.0000000000000 9000.0000000000000 -2500.0000000000000 -31319910.524344932 -8369090.8583316403 -61266866.086917728 7.5821355840772529e-06 -0.00079878632896636446 -0.0024525275571980485 1.9999999994208397 -0.29999999990524340 -4.9585702323142620 
6000.0000000000000 8000.0000000000000 -2500.0000000000000 -31319910.524197660 -8369090.8590663401 -61266866.089608125 3.8477564266814091e-05 -0.0012275588815610365 -0.00023612282016826654 1.5999999995280147 -0.59999999980656149 -4.9585702329328676 
5000.0000000000000 8000.0000000000000 -2333.3333333330002 -30168603.843111131 -7217784.1764470087 -57184960.579993665 1.7670504536943025e-05 -0.0012730838614888164 -0.0025139937041360472 1.9999999995061370 -0.59999999983868024 -5.1700189844470552 
5000.0000000000000 9000.0000000000000 -2333.3333333330002 -30168603.843136407 -7217784.1763714338 -57184960.580243468 3.5140012321238417e-06 -0.00081282435527340951 -0.0024844837636001154 1.9999999995062263 -0.29999999992081311 -5.1700189843781139 
6000.0000000000000 8000.0000000000000 -2333.3333333330002 -30168603.843101360 -7217784.1769884070 -57184960.582311049 3.2197186407699501e-05 -0.0012536815234551121 -0.00021916493590562198 1.5999999996019592 -0.59999999983811236 -5.1700189850041491 
5000.0000000000000 8000.0000000000000 -2166.6666666669998 -29017194.119087353 -6066374.4516212754 -53102689.739516966 1.0446884326407419e-05 -0.0012903705889360001 -0.0025092715857127136 1.9999999995938096 -0.59999999986999686 -5.3665698591870896 
5000.0000000000000 9000.0000000000000 -2166.6666666669998 -29017194.119141575 -6066374.4515838344 -53102689.739863850 -2.6034113065301739e-07 -0.00082196738164971883 -0.0024815679082223368 1.9999999995937274 -0.29999999993628768 -5.3665698591196929 
6000.0000000000000 8000.0000000000000 -2166.6666666669998 -29017194.119221907 -6066374.4520893767 -53102689.741373695 2.5609263556216620e-05 -0.0012734497727791376 -0.00018880858728280680 1.5999999996768133 -0.59999999986961772 -5.3665698597506895 
5000.0000000000000 8000.0000000000000 -2000.0000000000000 -27865681.343050513 -4914861.6747313300 -49020053.532604396 3.3598290856607898e-06 -0.0013003529277625361 -0.0024688163687470780 1.9999999996835398 -0.59999999990110797 -5.5482215232351573 
5000.0000000000000 9000.0000000000000 -2000.0000000000000 -27865681.343131248 -4914861.6747369384 -49020053.533030204 -3.8115987945316535e-06 -0.00082565331494862608 -0.0024430771758910670 1.9999999996832971 -0.29999999995157606 -5.5482215231695866 
6000.0000000000000 8000.0000000000000 -2000.0000000000000 -27865681.343326192 -4914861.6751349987 -49020053.534046382 1.8706037029426458e-05 -0.0012858712471206875 -0.00014621908334845263 1.5999999997524097 -0.59999999990091901 -5.5482215238033712 
5000.0000000000000 8000.0000000000000 -1833.3333333329999 -26714065.505776756 -3763245.8365489366 -44937051.926525310 -3.6810645951837318e-06 -0.0013017654315739058 -0.0023925919293668074 1.9999999997753124 -0.59999999993185904 -5.7149726430988599 
5000.0000000000000 9000.0000000000000 -1833.3333333329999 -26714065.505881764 -3763245.8366039125 -44937051.927011810 -7.2170800053199219e-06 -0.00082317197358700261 -0.0023689319107947993 1.9999999997749163 -0.29999999996658988 -5.7149726430353169 
6000.0000000000000 8000.0000000000000 -1833.3333333329999 -26714065.506186508 -3763245.8368961010 -44937051.927597880 1.1479271688357196e-05 -0.0012896535616603632 -9.3150115562240130e-05 1.5999999998286039 -0.59999999993186359 -5.7149726436700243 
5000.0000000000000 8000.0000000000000 -1666.6666666670001 -25562346.598042630 -2611526.9278458678 -40853684.888549134 -1.0773577817698067e-05 -0.0012930244820176082 -0.0022812909947220032 1.9999999998691327 -0.59999999996209796 -5.8668218851666616 
5000.0000000000000 9000.0000000000000 -1666.6666666670001 -25562346.598169919 -2611526.9279580074 -40853684.889078155 -1.0556632805874999e-05 -0.00081366515003129434 -0.0022597854669373736 1.9999999998685882 -0.29999999998124188 -5.8668218851052689 
6000.0000000000000 8000.0000000000000 -1666.6666666670001 -25562346.598575376 -2611526.9281435674 -40853684.889297225 3.9200372368743554e-06 -0.0012831886798909474 -3.1947694415236628e-05 1.5999999999052650 -0.59999999996230091 -5.8668218857393466 
8000.0000000000000 1000.0000000000000 -4833.3333333330002 -47427389.758501366 -24476570.081385843 -118375201.60418315 -0.00011901786996812264 0.00024166293288883898 0.00013267537453436851 0.79999999932642052 -2.6999999994905290 -0.43475698907322785 
8000.0000000000000 0.0000000000000000 -4833.3333333330002 -47427389.759336367 -24476570.080701467 -118375201.60891539 -0.00010109413208724585 0.00013861351897191221 0.00016478055893106555 0.79999999933159416 -3.0000000000000000 -0.43475698909565019 
7000.0000000000000 1.0774409110000000e-29 -4833.3333333330002 -47427389.758260056 -24476570.078519966 -118375201.60049206 2.1373501731146237e-05 0.00016840082114071171 0.00022109745025339903 1.1999999990341494 -3.0000000000000000 -0.43475698906381821 
7000.0000000000000 1000.0000000000000 -4833.3333333330002 -47427389.757443592 -24476570.079227887 -118375201.59542826 4.3409390169938334e-05 0.00027336640409954596 0.00022168987689962682 1.1999999990348231 -2.6999999994856072 -0.43475698903535298 
8000.0000000000000 1000.0000000000000 -5000.0000000000000 -48002296.558374166 -25051476.881230891 -120413507.53123930 -0.00012540746300573546 0.00011659383871685259 7.1005558697774475e-05 0.79999999932269228 -2.6999999994881367 0.0000000000000000 
8000.0000000000000 0.0000000000000000 -5000.0000000000000 -48002296.559276171 -25051476.880606458 -120413507.53622419 -0.00010671411932045504 6.7027098751941839e-05 8.7178099353284278e-05 0.79999999932822197 -3.0000000000000000 0.0000000000000000 
7000.0000000000000 0.0000000000000000 -5000.0000000000000 -48002296.558079079 -25051476.878285997 -120413507.52731802 2.1606796822077703e-05 8.2287216558103271e-05 0.00011519167981606827 1.1999999990297618 -3.0000000000000000 0.0000000000000000 
7000.0000000000000 1000.0000000000000 -5000.0000000000000 -48002296.557188712 -25051476.878927421 -120413507.52195552 4.3833184359285893e-05 0.00013262151417397963 0.00011549854874422967 1.1999999990304460 -2.6999999994828556 0.0000000000000000 
8000.0000000000000 1000.0000000000000 -4666.6666666669998 -46277524.704463959 -23326705.027423263 -114298407.32099779 -0.00010235099533028078 0.00050569440731354834 0.00024034834122614677 0.79999999933688470 -2.6999999994971517 -0.85463608701684435 
8000.0000000000000 0.0000000000000000 -4666.6666666669998 -46277524.705181122 -23326705.026639663 -114298407.32527190 -8.6728790032123922e-05 0.00028912905544468460 0.00030305720352694911 0.79999999934122290 -3.0000000000000000 -0.85463608705953797 
7000.0000000000000 4.7197855770000003e-30 -4666.6666666669998 -46277524.704321131 -23326705.024722293 -114298407.31776081 2.0792902303161472e-05 0.00034598045579975408 0.00041482371469123678 1.1999999990468260 -3.0000000000000000 -0.85463608699940430 
7000.0000000000000 1000.0000000000000 -4666.6666666669998 -46277524.703630947 -23326705.025537141 -114298407.31323951 4.2347016453077161e-05 0.00056736198146356163 0.00041593515383300160 1.1999999990474775 -2.6999999994930834 -0.85463608694640580 
8000.0000000000000 1000.0000000000000 -4500.0000000000000 -45127556.737210482 -22176737.060274016 -110221248.16326018 -8.0328334838396519e-05 0.00079229812254788025 0.00032149353867022144 0.79999999935282706 -2.6999999995070381 -1.2596359622595059 
8000.0000000000000 0.0000000000000000 -4500.0000000000000 -45127556.737838261 -22176737.059426252 -110221248.16716215 -6.8407765927412854e-05 0.00045135756485598674 0.00041122481749910651 0.79999999935619703 -3.0000000000000000 -1.2596359623207323 
7000.0000000000000 7.0796783649999997e-30 -4500.0000000000000 -45127556.737151772 -22176737.057747141 -110221248.16046755 2.0088920723491001e-05 0.00053071942121578005 0.00057370013287113815 1.1999999990668726 -3.0000000000000000 -1.2596359622352902 
7000.0000000000000 1000.0000000000000 -4500.0000000000000 -45127556.736551434 -22176737.058626018 -110221248.15638831 4.1032383133026935e-05 0.00088023742333357899 0.00057520724574983563 1.1999999990675005 -2.6999999995039796 -1.2596359621608793 
8000.0000000000000 1000.0000000000000 -4333.3333333330002 -43977485.847481892 -21026666.170663532 -106143724.09817949 -5.6749079469330478e-05 0.0010925855942947912 0.00038379466569320896 0.79999999937330302 -2.6999999995194695 -1.6497552831025628 
8000.0000000000000 0.0000000000000000 -4333.3333333330002 -43977485.848042041 -21026666.169776287 -106143724.10177982 -4.9592852185522421e-05 0.00062035866158347442 0.00049561390465846327 0.79999999937573452 -3.0000000000000000 -1.6497552831809206 
7000.0000000000000 0.0000000000000000 -4333.3333333330002 -43977485.847498097 -21026666.168312684 -106143724.09582533 1.9407788204717375e-05 0.00071715982240724515 0.00070070773831473906 1.1999999990934587 -3.0000000000000000 -1.6497552830727773 
7000.0000000000000 1000.0000000000000 -4333.3333333330002 -43977485.846962102 -21026666.169227567 -106143724.09210469 3.9713299418557105e-05 0.0012019422168808710 0.00070248487765983887 1.1999999990940646 -2.6999999995174111 -1.6497552829793953 
8000.0000000000000 1000.0000000000000 -4166.6666666669998 -42827312.026020423 -19876492.349323876 -102065835.09296985 -3.3753936632112392e-05 0.0014002257216545575 0.00043191592310495126 0.79999999939757593 -2.6999999995339161 -2.0249927177280225 
8000.0000000000000 0.0000000000000000 -4166.6666666669998 -42827312.026529796 -19876492.348415002 -102065835.09632665 -3.1996388395364288e-05 0.00079285640057483696 0.00056067571340044989 0.79999999939916866 -3.0000000000000000 -2.0249927178223857 
7000.0000000000000 0.0000000000000000 -4166.6666666669998 -42827312.026104197 -19876492.347146761 -102065835.09104985 1.8801750016742945e-05 0.00090241037836618038 0.00079947451893588308 1.1999999991258126 -3.0000000000000000 -2.0249927176938693 
7000.0000000000000 1000.0000000000000 -4166.6666666669998 -42827312.025614165 -19876492.348078690 -102065835.08761850 3.8474347103765446e-05 0.0015260166059267858 0.00080142254544236823 1.1999999991263994 -2.6999999995327730 -2.0249927175834035 
8000.0000000000000 1000.0000000000000 -4000.0000000000000 -41677035.263564333 -18726215.586987365 -97987581.114831164 -1.2492317886103581e-05 0.0017105774826656516 0.00046877543313779489 0.79999999942505162 -2.6999999995499944 -2.3853469342049292 
8000.0000000000000 0.0000000000000000 -4000.0000000000000 -41677035.264036134 -18726215.586070228 -97987581.117992461 -1.6372445638231590e-05 0.00096656126565943207 0.00060967210511890546 0.79999999942592825 -3.0000000000000000 -2.3853469343144007 
7000.0000000000000 -6.0354824400000000e-30 -4000.0000000000000 -41677035.263708659 -18726215.584979329 -97987581.113340825 1.8273048714010032e-05 0.0010849057930347383 0.00087404563331782933 1.1999999991632124 -3.0000000000000000 -2.3853469341676314 
7000.0000000000000 1000.0000000000000 -4000.0000000000000 -41677035.263250977 -18726215.585914899 -97987581.110141248 3.7314578483756044e-05 0.0018481773323151698 0.00087608766312422719 1.1999999991637829 -2.6999999995496475 -2.3853469340415256 
8000.0000000000000 1000.0000000000000 -3833.3333333330002 -40526655.550858319 -17575835.874396101 -93908962.130985320 6.4806265150403687e-06 0.0020201310400960325 0.00049631282139768267 0.79999999945523559 -2.6999999995674284 -2.7308166004758863 
8000.0000000000000 0.0000000000000000 -3833.3333333330002 -40526655.551303059 -17575835.873481162 -93908962.133990839 -2.9577175511843371e-06 0.0011398321999308845 0.00064511817057837648 0.79999999945551870 -3.0000000000000000 -2.7308166005997561 
7000.0000000000000 -1.8821719000000001e-29 -3833.3333333330002 -40526655.551056117 -17575835.872551300 -93908962.129918784 1.7792892119205008e-05 0.0012637421642290182 0.00092859516609559100 1.1999999992049883 -3.0000000000000000 -2.7308166004366976 
7000.0000000000000 1000.0000000000000 -3833.3333333330002 -40526655.550620466 -17575835.873480499 -93908962.126903325 3.6191704397203272e-05 0.0021654570938310375 0.00093067661070560834 1.1999999992055435 -2.6999999995677557 -2.7308166002960452 
8000.0000000000000 1000.0000000000000 -3666.6666666669998 -39376172.878648460 -16425353.202296104 -89829978.108657122 2.2962811520192460e-05 0.0023260812777114357 0.00051594889192457805 0.79999999948770517 -2.6999999995860340 -3.0614003843642057 
8000.0000000000000 0.0000000000000000 -3666.6666666669998 -39376172.879074648 -16425353.201391978 -89829978.111539871 8.2807294787717425e-06 0.0013113895865500417 0.00066906755504526731 0.79999999948750722 -3.0000000000000000 -3.0614003845019218 
7000.0000000000000 -2.6904576700000000e-29 -3666.6666666669998 -39376172.878892660 -16425353.200608276 -89829978.108006597 1.7324725900628742e-05 0.0014383352475022047 0.00096719370766952441 1.1999999992505215 -3.0000000000000000 -3.0614003843244113 
7000.0000000000000 1000.0000000000000 -3666.6666666669998 -39376172.878471017 -16425353.201523123 -89829978.105135918 3.5052254153588456e-05 0.0024756770856756895 0.00096928152585532500 1.1999999992510608 -2.6999999995869177 -3.0614003841700277 
8000.0000000000000 1000.0000000000000 -3500.0000000000000 -38225587.237677187 -15274767.561431624 -85750629.015055835 3.6957979348685236e-05 0.0026260543995629665 0.00052879860390700223 0.79999999952209222 -2.6999999996056978 -3.3770969535794819 
8000.0000000000000 0.0000000000000000 -3500.0000000000000 -38225587.238091759 -15274767.560545847 -85750629.017842978 1.7508101590816288e-05 0.0014801380036293132 0.00068325121894754278 0.79999999952151080 -3.0000000000000000 -3.3770969537306170 
7000.0000000000000 0.0000000000000000 -3500.0000000000000 -38225587.237960957 -15274767.559894649 -85750629.014811024 1.6832335928339600e-05 0.0016081909171587559 0.00099365340619057049 1.1999999992992447 -3.0000000000000000 -3.3770969535403870 
7000.0000000000000 1000.0000000000000 -3500.0000000000000 -38225587.237546951 -15274767.560788237 -85750629.012052774 3.3841649670957768e-05 0.0027770499641870238 0.00099571900017584518 1.1999999992997681 -2.6999999996070296 -3.3770969533728712 
8000.0000000000000 1000.0000000000000 -3333.3333333330002 -37074898.618693627 -14124078.942555042 -81670914.817411274 4.8581340367131304e-05 0.0029179129874371598 0.00053582207613356075 0.79999999955807055 -2.6999999996263666 -3.6779049757057001 
8000.0000000000000 0.0000000000000000 -3333.3333333330002 -37074898.619102374 -14124078.941694636 -81670914.820125178 2.4943752546716120e-05 0.0016450838398642115 0.00068918294901980663 0.79999999955718859 -3.0000000000000000 -3.6779049758699314 
7000.0000000000000 0.0000000000000000 -3333.3333333330002 -37074898.619010717 -14124078.941163341 -81670914.817559332 1.6278549953160549e-05 0.0017728219903961403 0.0010114194084851467 1.1999999993506432 -3.0000000000000000 -3.6779049756686213 
7000.0000000000000 1000.0000000000000 -3333.3333333330002 -37074898.618599162 -14124078.942029215 -81670914.814887062 3.2507499878655646e-05 0.0030679778711389743 0.0010134344859808787 1.1999999993511477 -2.6999999996280519 -3.6779049754884037 
8000.0000000000000 1000.0000000000000 -3166.6666666669998 -35924107.012448467 -12973287.336421341 -77590835.482955262 5.7999180334573403e-05 0.0031995745344613668 0.00053788624335432194 0.79999999959534862 -2.6999999996480382 -3.9638231182075856 
8000.0000000000000 0.0000000000000000 -3166.6666666669998 -35924107.012856267 -12973287.335593268 -77590835.485614091 3.0818773068871954e-05 0.0018052069482131642 0.00068820243201153663 0.79999999959423518 -3.0000000000000000 -3.9638231183846768 
7000.0000000000000 4.6309918630000001e-29 -3166.6666666669998 -35924107.012793519 -12973287.335170178 -77590835.483480543 1.5634492483061818e-05 0.0019315875132174349 0.0010234815186844844 1.1999999994042523 -3.0000000000000000 -3.9638231181738370 
7000.0000000000000 1000.0000000000000 -3166.6666666669998 -35924107.012380108 -12973287.336001877 -77590835.480872959 3.1006147865433420e-05 0.0033468456813305607 0.0010254289446307242 1.1999999994047350 -2.6999999996499962 -3.9638231179812236 
8000.0000000000000 1000.0000000000000 -3000.0000000000000 -34773212.409688763 -11822392.733782729 -73510390.978903294 6.5395171749875247e-05 0.0034689254851453986 0.00053575519871663924 0.79999999963366508 -2.6999999996707560 -4.2348500484353666 
8000.0000000000000 0.0000000000000000 -3000.0000000000000 -34773212.410099797 -11822392.732994230 -73510390.981521502 3.5352058688111916e-05 0.0019594708936075973 0.00068147175546900767 0.79999999963237578 -3.0000000000000000 -4.2348500486251446 
7000.0000000000000 0.0000000000000000 -3000.0000000000000 -34773212.410057627 -11822392.732668499 -73510390.979787469 1.4877710202048160e-05 0.0020837106036663616 0.0010323214600093228 1.1999999994596553 -3.0000000000000000 -4.2348500484062406 
7000.0000000000000 1000.0000000000000 -3000.0000000000000 -34773212.409638695 -11822392.733459180 -73510390.977227747 2.9302504250017130e-05 0.0036119157969280993 0.0010341743515243345 1.1999999994601132 -2.6999999996729160 -4.2348500482014364 
8000.0000000000000 1000.0000000000000 -2833.3333333330002 -33622214.801168174 -10671395.125398697 -69429581.272490680 7.0951227088522512e-05 0.0037236750180547253 0.00053009926465486922 0.79999999967278168 -2.6999999996946071 -4.4909844336144751 
8000.0000000000000 0.0000000000000000 -2833.3333333330002 -33622214.801586062 -10671395.124657601 -69429581.275079280 3.8740884766430149e-05 0.0021066824426831904 0.00066998272554452448 0.79999999967136204 -3.0000000000000000 -4.4909844338168154 
7000.0000000000000 0.0000000000000000 -2833.3333333330002 -33622214.801558107 -10671395.124419143 -69429581.273712620 1.3988582494472526e-05 0.0022282254775536172 0.0010398776604165602 1.1999999995164816 -3.0000000000000000 -4.4909844335912279 
7000.0000000000000 1000.0000000000000 -2833.3333333330002 -33622214.801130503 -10671395.125161283 -69429581.271187931 2.7366846507429781e-05 0.0038612211435981301 0.0010416070100933469 1.1999999995169102 -2.6999999996969097 -4.4909844333743729 
8000.0000000000000 1000.0000000000000 -2666.6666666669998 -32471114.177641716 -9520294.5020306539 -65348406.330954060 7.4829636474630471e-05 0.0039612994054658976 0.00052148610598731879 0.79999999971248326 -2.6999999997197146 -4.7322249408511050 
8000.0000000000000 0.0000000000000000 -2666.6666666669998 -32471114.178069636 -9520294.5013457052 -65348406.333520934 4.1153842103348788e-05 0.0022454823436179631 0.00065456383766100397 0.79999999971096958 -3.0000000000000000 -4.7322249410659172 
7000.0000000000000 9.6621616689999997e-29 -2666.6666666669998 -32471114.178051583 -9520294.5011851769 -65348406.332490057 1.2949189753475371e-05 0.0023639259321907406 0.0010475461690611317 1.1999999995744011 -3.0000000000000000 -4.7322249408349384 
7000.0000000000000 1000.0000000000000 -2666.6666666669998 -32471114.177612547 -9520294.5018702522 -65348406.329991214 2.5173249875170964e-05 0.0040924927839048946 0.0010491231083505569 1.1999999995747961 -2.6999999997221087 -4.7322249406061303 
8000.0000000000000 1000.0000000000000 -2500.0000000000000 -31319910.529860474 -8369090.8544366686 -61266866.121513054 7.7162097909987915e-05 0.0041789187631298217 0.00051034667155458230 0.79999999975257363 -2.6999999997462392 -4.9585702371361506 
8000.0000000000000 0.0000000000000000 -2500.0000000000000 -31319910.530301254 -8369090.8538178187 -61266866.124063075 4.2726174783261619e-05 0.0023743029467133388 0.00063585458780783706 0.79999999975099512 -3.0000000000000000 -4.9585702373633627 
7000.0000000000000 1.0352316070000000e-28 -2500.0000000000000 -31319910.530290924 -8369090.8537265547 -61266866.123336717 1.1750145187706805e-05 0.0024893331313665412 0.0010561652986166711 1.1999999996331210 -3.0000000000000000 -4.9585702371281934 
7000.0000000000000 1000.0000000000000 -2500.0000000000000 -31319910.529838007 -8369090.8543447712 -61266866.120857954 2.2704336292035951e-05 0.0043030585233008100 0.0010575520026376145 1.1999999996334774 -2.6999999997486808 -4.9585702368875095 
8000.0000000000000 1000.0000000000000 -2333.3333333330002 -30168603.848581880 -7217784.1733817533 -57184960.611406878 7.8048255795078379e-05 0.0043731944343130729 0.00049694873138283395 0.79999999979287284 -2.6999999997743824 -5.1700189893365263 
8000.0000000000000 0.0000000000000000 -2333.3333333330002 -30168603.849038068 -7217784.1728404807 -57184960.613941886 4.3564282641551214e-05 0.0024912799185666246 0.00061428260959420580 0.79999999979125302 -3.0000000000000000 -5.1700189895760706 
7000.0000000000000 1.1042470480000000e-28 -2333.3333333330002 -30168603.849035442 -7217784.1728104446 -57184960.613489047 1.0387789892550413e-05 0.0026026448111418398 0.0010660187495773643 1.1999999996923818 -3.0000000000000000 -5.1700189893378203 
7000.0000000000000 1000.0000000000000 -2333.3333333330002 -30168603.848566439 -7217784.1733504133 -57184960.611027852 1.9947719636894411e-05 0.0044897442516167937 0.0010671763381289684 1.1999999996926949 -2.6999999997768325 -5.1700189890853308 
8000.0000000000000 1000.0000000000000 -2166.6666666669998 -29017194.124564342 -6066374.4496324984 -53102689.767875522 7.7550710724729111e-05 0.0045402762654683706 0.00048138103994487056 0.79999999983321601 -2.6999999998043824 -5.3665698641999136 
8000.0000000000000 0.0000000000000000 -2166.6666666669998 -29017194.125038236 -6066374.4491821760 -53102689.770394340 4.3741340299099406e-05 0.0025942278586307600 0.00059007099900120993 0.79999999983157433 -3.0000000000000000 -5.3665698644517112 
7000.0000000000000 1.0097419590000000e-28 -2166.6666666669998 -29017194.125045493 -6066374.4492059322 -53102689.770184211 8.8572221855409229e-06 0.0027017098688610448 0.0010768249182027145 1.1999999997519515 -3.0000000000000000 -5.3665698642113924 
7000.0000000000000 1000.0000000000000 -2166.6666666669998 -29017194.124558430 -6066374.4496543529 -53102689.767741397 1.6894481763674626e-05 0.0046488455049724930 0.0010777111507239046 1.1999999997522162 -2.6999999998068054 -5.3665698639471877 
8000.0000000000000 1000.0000000000000 -2000.0000000000000 -27865681.348561980 -4914861.6739519564 -49020053.558141544 7.5692474917822658e-05 0.0046756237989679953 0.00046356879798284585 0.79999999987345105 -2.6999999998365176 -5.5482215283578933 
8000.0000000000000 0.0000000000000000 -2000.0000000000000 -27865681.349055663 -4914861.6736082193 -49020053.560639657 4.3296439715000576e-05 0.0026805108003738888 0.00056326119815722751 0.79999999987180415 -3.0000000000000000 -5.5482215286218342 
7000.0000000000000 0.0000000000000000 -2000.0000000000000 -27865681.349077225 -4914861.6736789234 -49020053.560641736 7.1575325476939903e-06 0.0027838808683330490 0.0010877697919446237 1.1999999998116213 -3.0000000000000000 -5.5482215283803589 
7000.0000000000000 1000.0000000000000 -2000.0000000000000 -27865681.348570321 -4914861.6740201665 -49020053.558221459 1.3540894338830079e-05 0.0047759206647650845 0.0010883333743418402 1.1999999998118323 -2.6999999998388802 -5.5482215281045706 
8000.0000000000000 1000.0000000000000 -1833.3333333329999 -26714065.511334781 -3763245.8371098954 -44937051.949446380 7.2463880395842208e-05 0.0047738947702420428 0.00044324809919054611 0.79999999991343596 -2.6999999998711139 -5.7149726483188790 
8000.0000000000000 0.0000000000000000 -1833.3333333329999 -26714065.511850178 -3763245.8368911520 -44937051.951915815 4.2243129944964316e-05 0.0027469874457392964 0.00053368156486125850 0.79999999991179993 -3.0000000000000000 -5.7149726485948040 
7000.0000000000000 3.2286888359999998e-30 -1833.3333333329999 -26714065.511892725 -3763245.8370025363 -44937051.952099875 5.2934838036146766e-06 0.0028459845464217175 0.0010974702076575842 1.1999999998712001 -3.0000000000000000 -5.7149726483529841 
7000.0000000000000 1000.0000000000000 -1833.3333333329999 -26714065.511364352 -3763245.8372181724 -44937051.949709825 9.8880092106518276e-06 0.0048657186404956728 0.0010976724680167595 1.1999999998713522 -2.6999999998733837 -5.7149726480657979 
8000.0000000000000 1000.0000000000000 -1666.6666666670001 -25562346.603643280 -2611526.9298776696 -40853684.909031987 6.7817236426700122e-05 0.0048288247735567670 0.00041995296436069337 0.79999999995303872 -2.6999999999085444 -5.8668218904720453 
8000.0000000000000 0.0000000000000000 -1666.6666666670001 -25562346.604182143 -2611526.9298056061 -40853684.911460817 4.0561970888561841e-05 0.0027899393478601083 0.00050096146665573507 0.79999999995142979 -3.0000000000000000 -5.8668218907597263 
7000.0000000000000 0.0000000000000000 -1666.6666666670001 -25562346.604254600 -2611526.9299518876 -40853684.911796756 3.2728589363675070e-06 0.0028842762121245964 0.0011039716159871277 1.1999999999305087 -3.0000000000000000 -5.8668218905182616 
7000.0000000000000 1000.0000000000000 -1666.6666666670001 -25562346.603703305 -2611526.9300201912 -40853684.909448504 5.9413876364411051e-06 0.0049120771425009086 0.0011037795061375330 1.1999999999305981 -2.6999999999106858 -5.8668218902199536 
2000.0000000000000 1000.0000000000000 -4833.3333333330002 -47427389.760906830 -24476570.061133422 -118375201.50830266 3.8802666099882133e-05 0.00026746598300331204 -0.00046161035366539877 3.1999999988825145 -2.6999999994939290 -0.43475698867163043 
2000.0000000000000 0.0000000000000000 -4833.3333333330002 -47427389.761735030 -24476570.060421266 -118375201.51330009 1.7703884230813203e-05 0.00016504565420770732 -0.00046269988277254637 3.1999999988819181 -3.0000000000000000 -0.43475698869980023 
1000.0000000000000 0.0000000000000000 -4833.3333333330002 -47427389.764190324 -24476570.057431545 -118375201.49656820 9.6736217002552582e-05 0.00013344915909250274 -0.00040530491117363925 3.5999999993669922 -3.0000000000000000 -0.43475698861187995 
1000.0000000000000 1000.0000000000000 -4833.3333333330002 -47427389.763312973 -24476570.058139831 -118375201.49193215 0.00013240176813875774 0.00023202775954149604 -0.00036909036379057045 3.5999999993722764 -2.6999999995007471 -0.43475698858983070 
2000.0000000000000 1000.0000000000000 -5000.0000000000000 -48002296.559769161 -25051476.859892197 -120413507.43143311 3.9060320330940181e-05 0.00012964529381292289 -0.00022173176858032755 3.1999999988774714 -2.6999999994911899 0.0000000000000000 
2000.0000000000000 0.0000000000000000 -5000.0000000000000 -48002296.560672157 -25051476.859247245 -120413507.43673262 1.7850886104519885e-05 8.0590692879469009e-05 -0.00022219249896048980 3.1999999988768821 -3.0000000000000000 0.0000000000000000 
1000.0000000000000 0.0000000000000000 -5000.0000000000000 -48002296.562912367 -25051476.856002390 -120413507.41902632 0.00010197815676845894 6.4469434167456390e-05 -0.00019760635747550072 3.5999999993631753 -3.0000000000000000 0.0000000000000000 
1000.0000000000000 1000.0000000000000 -5000.0000000000000 -48002296.561968364 -25051476.856652610 -120413507.41414563 0.00013822709837563898 0.00011175820399280089 -0.00017926779735876898 3.5999999993688507 -2.6999999994983925 0.0000000000000000 
2000.0000000000000 1000.0000000000000 -4666.6666666669998 -46277524.708712265 -23326705.009241808 -114298407.23268433 3.8174476611758405e-05 0.00055568475921686524 -0.00097207128961742111 3.1999999988966148 -2.6999999995013542 -0.85463608624212639 
2000.0000000000000 -4.7197855800000003e-30 -4666.6666666669998 -46277524.709413067 -23326705.008422274 -114298407.23713577 1.7353302848259062e-05 0.00033932314480766482 -0.00097462306142146403 3.1999999988960117 -3.0000000000000000 -0.85463608629447885 
1000.0000000000000 1.1799463940000000e-30 -4666.6666666669998 -46277524.712211788 -23326705.005882740 -114298407.22218151 8.3677440625802940e-05 0.00027887078522124097 -0.00083444046251501423 3.5999999993771614 -3.0000000000000000 -0.85463608612902842 
1000.0000000000000 1000.0000000000000 -4666.6666666669998 -46277524.711453229 -23326705.006686818 -114298407.21798865 0.00011759481295937735 0.00048672516000293248 -0.00076431493633497200 3.5999999993815548 -2.6999999995072699 -0.85463608608710839 
2000.0000000000000 1000.0000000000000 -4500.0000000000000 -45127556.742951803 -22176737.043965049 -110221248.08196096 3.7482412507940083e-05 0.00086283523210418825 -0.0015338456342577551 3.1999999989179249 -2.6999999995121504 -1.2596359611383521 
2000.0000000000000 -7.0796783699999993e-30 -4500.0000000000000 -45127556.743562475 -22176737.043082483 -110221248.08597204 1.7006276226926179e-05 0.00052074772584422891 -0.0015380854715610225 3.1999999989173293 -3.0000000000000000 -1.2596359612117614 
1000.0000000000000 1.7699195909999999e-30 -4500.0000000000000 -45127556.746559091 -22176737.040887430 -110221248.07247806 6.7796697613452478e-05 0.00043643414264635895 -0.0012810052545969483 3.5999999993915823 -3.0000000000000000 -1.2596359609774062 
1000.0000000000000 1000.0000000000000 -4500.0000000000000 -45127556.745893449 -22176737.041752554 -110221248.06864503 9.8902937695968612e-05 0.00076472725565789686 -0.0011817721615096618 3.5999999993949925 -2.6999999995170154 -1.2596359609173382 
2000.0000000000000 1000.0000000000000 -4333.3333333330002 -43977485.854382575 -21026666.156038206 -106143724.02337132 3.6989113016666597e-05 0.0011788142912148314 -0.0021288189336417010 3.1999999989449881 -2.6999999995254358 -1.6497552816600010 
2000.0000000000000 0.0000000000000000 -4333.3333333330002 -43977485.854928553 -21026666.155121185 -106143724.02702783 1.6847769979501457e-05 0.00070388126875225499 -0.0021346718341067267 3.1999999989444037 -3.0000000000000000 -1.6497552817520498 
1000.0000000000000 0.0000000000000000 -4333.3333333330002 -43977485.858023480 -21026666.153189205 -106143724.01472215 5.2435366312987154e-05 0.00060143164789103990 -0.0017292002969722870 3.5999999994089129 -3.0000000000000000 -1.6497552814558429 
1000.0000000000000 1000.0000000000000 -4333.3333333330002 -43977485.857430570 -21026666.154090744 -106143724.01118176 7.9948936978403219e-05 0.0010573606842778230 -0.0016069938270173697 3.5999999994114229 -2.6999999995292887 -1.6497552813789933 
2000.0000000000000 1000.0000000000000 -4166.6666666669998 -42827312.033768550 -19876492.336204022 -102065835.02415833 3.6829131404477186e-05 0.0014972214223404761 -0.0027426108056721548 3.1999999989766716 -2.6999999995406152 -2.0249927159875192 
2000.0000000000000 0.0000000000000000 -4166.6666666669998 -42827312.034267649 -19876492.335271485 -102065835.02752961 1.6964945184835969e-05 0.00088587475391352800 -0.0027498500005274356 3.1999999989760961 -3.0000000000000000 -2.0249927160963459 
1000.0000000000000 0.0000000000000000 -4166.6666666669998 -42827312.037391603 -19876492.333538499 -102065835.01618025 3.8970555667210237e-05 0.00077055956350225330 -0.0021701950073359697 3.5999999994282974 -3.0000000000000000 -2.0249927157439647 
1000.0000000000000 1000.0000000000000 -4166.6666666669998 -42827312.036855496 -19876492.334458653 -102065835.01287824 6.2461216250018594e-05 0.0013582464077581975 -0.0020311124473409623 3.5999999994300507 -2.6999999995435688 -2.0249927156514249 
2000.0000000000000 1000.0000000000000 -4000.0000000000000 -41677035.271872938 -18726215.575206727 -97987581.051552609 3.7019186157740623e-05 0.0018139003250665555 -0.0033638663571175899 3.1999999990121277 -2.6999999995572761 -2.3853469321884764 
2000.0000000000000 6.0354824430000000e-30 -4000.0000000000000 -41677035.272338197 -18726215.574271936 -97987581.054695576 1.7352580787385987e-05 0.0010652487410851661 -0.0033722470052411193 3.1999999990115522 -3.0000000000000000 -2.3853469323126610 
1000.0000000000000 -1.5088706100000000e-30 -4000.0000000000000 -41677035.275442556 -18726215.572687410 -97987581.044108629 2.7806772508686724e-05 0.00094144357281412928 -0.0025992267693697342 3.5999999994491971 -3.0000000000000000 -2.3853469319086082 
1000.0000000000000 1000.0000000000000 -4000.0000000000000 -41677035.274950318 -18726215.573612809 -97987581.041000232 4.7159475800260533e-05 0.0016626440686957488 -0.0024486812500134967 3.5999999994503473 -2.6999999995594752 -2.3853469318012586 
2000.0000000000000 1000.0000000000000 -3833.3333333330002 -40526655.559466228 -17575835.863800693 -93908962.072807312 3.7494621585298651e-05 0.0021259939885049993 -0.0039836081287713144 3.1999999990507422 -2.6999999995751440 -2.7308165982040951 
2000.0000000000000 1.8821719040000001e-29 -3833.3333333330002 -40526655.559907563 -17575835.862873547 -93908962.075769052 1.7952141256181828e-05 0.0012411770537705175 -0.0039929085227605951 3.1999999990501586 -3.0000000000000000 -2.7308165983425647 
1000.0000000000000 -4.7054297600000003e-30 -3833.3333333330002 -40526655.562957421 -17575835.861397512 -93908962.065784723 1.8893875264096362e-05 0.0011122793706769417 -0.0030137874109019188 3.5999999994712861 -3.0000000000000000 -2.7308165978903749 
1000.0000000000000 1000.0000000000000 -3833.3333333330002 -40526655.562498346 -17575835.862317652 -93908962.062832370 3.4234822230683494e-05 0.0019668578123974577 -0.0028563357750396754 3.5999999994719731 -2.6999999995767281 -2.7308165977689169 
2000.0000000000000 1000.0000000000000 -3666.6666666669998 -39376172.887319408 -16425353.192743851 -89829978.055177599 3.8155828001132776e-05 0.0024313847539158481 -0.0045946434292754310 3.1999999990920931 -2.6999999995940396 -3.0614003818563913 
2000.0000000000000 2.6904576700000000e-29 -3666.6666666669998 -39376172.887744576 -16425353.191832256 -89829978.057997018 1.8693308970815362e-05 0.0014131018721735646 -0.0046047209898796033 3.1999999990914940 -3.0000000000000000 -3.0614003820083466 
1000.0000000000000 -6.7261441700000003e-30 -3666.6666666669998 -39376172.890713535 -16425353.190432705 -89829978.048484385 1.1987335241617045e-05 0.0012816268066793541 -0.0034126114577664318 3.5999999994943876 -3.0000000000000000 -3.0614003815107655 
1000.0000000000000 1000.0000000000000 -3666.6666666669998 -39376172.890278734 -16425353.191338979 -89829978.045656681 2.3597782479063987e-05 0.0022679099986806467 -0.0032519530940237442 3.5999999994947314 -2.6999999995951351 -3.0614003813757509 
2000.0000000000000 1000.0000000000000 -3500.0000000000000 -38225587.246198282 -15274767.552791903 -85750628.965902090 3.8894850361826138e-05 0.0027282989412504444 -0.0051910121043536898 3.1999999991359158 -2.6999999996138611 -3.3770969508537396 
2000.0000000000000 1.0097419590000000e-28 -3500.0000000000000 -38225587.246613488 -15274767.551902656 -85750628.968611062 1.9495490829223249e-05 0.0015805092139247561 -0.0052017874604198605 3.1999999991352954 -3.0000000000000000 -3.3770969510185949 
1000.0000000000000 0.0000000000000000 -3500.0000000000000 -38225587.249480061 -15274767.550553679 -85750628.959463894 6.7656964948727544e-06 0.0014482657090321678 -0.0037950301705085227 3.5999999995184333 -3.0000000000000000 -3.3770969504777302 
1000.0000000000000 1000.0000000000000 -3500.0000000000000 -38225587.249062054 -15274767.551438661 -85750628.956734657 1.5016936035583329e-05 0.0025632641110129397 -0.0036340380618988311 3.5999999995185297 -2.6999999996145756 -3.3770969503295900 
2000.0000000000000 1000.0000000000000 -3333.3333333330002 -37074898.626873516 -14124078.934708223 -81670914.772239685 3.9606469123807915e-05 0.0030151438855666943 -0.0057674518854494523 3.1999999991820789 -2.6999999996345663 -3.6779049727789825 
2000.0000000000000 0.0000000000000000 -3333.3333333330002 -37074898.627283894 -14124078.933847660 -81670914.774864286 2.0281773462637584e-05 0.0017428846245378161 -0.0057788770477011338 3.1999999991814341 -3.0000000000000000 -3.6779049729563189 
1000.0000000000000 0.0000000000000000 -3333.3333333330002 -37074898.630028844 -14124078.932528039 -81670914.765997276 2.9022125930136429e-06 0.0016110971010865711 -0.0041604135510164408 3.5999999995434306 -3.0000000000000000 -3.6779049723737742 
1000.0000000000000 1000.0000000000000 -3333.3333333330002 -37074898.629621297 -14124078.933384866 -81670914.763344660 8.2051595598013357e-06 0.0028506462269613955 -0.0040012722649396433 3.5999999995433538 -2.6999999996349899 -3.6779049722128394 
2000.0000000000000 1000.0000000000000 -3166.6666666669998 -35924107.020115271 -12973287.329258153 -77590835.441450328 4.0192893639028300e-05 0.0032903673017882539 -0.0063191252771433405 3.1999999992305597 -2.6999999996561641 -3.9638231150957881 
2000.0000000000000 -4.6309918600000000e-29 -3166.6666666669998 -35924107.020525150 -12973287.328432614 -77590835.444011614 2.0986865905189696e-05 0.0018996479281012339 -0.0063312114028096006 3.1999999992298926 -3.0000000000000000 -3.9638231152853129 
1000.0000000000000 1.1577479659999999e-29 -3166.6666666669998 -35924107.023129612 -12973287.327124793 -77590835.435357600 9.2993108979705398e-08 0.0017690838534846886 -0.0045079226200988223 3.5999999995694529 -3.0000000000000000 -3.9638231146622989 
1000.0000000000000 1000.0000000000000 -3166.6666666669998 -35924107.022727124 -12973287.327946765 -77590835.432763666 2.8605344062729272e-06 0.0031279620367352496 -0.0043522687769526613 3.5999999995692593 -2.6999999996563671 -3.9638231144888207 
2000.0000000000000 1000.0000000000000 -3000.0000000000000 -34773212.416687980 -11822392.727203654 -73510390.940776855 4.0566744127506410e-05 0.0035522195947623168 -0.0068412986566383002 3.1999999992814363 -2.6999999996787096 -4.2348500451533999 
2000.0000000000000 0.0000000000000000 -3000.0000000000000 -34773212.417101070 -11822392.726419814 -73510390.943291396 2.1555842930275248e-05 0.0020499973871017539 -0.0068540802727260798 3.1999999992807497 -3.0000000000000000 -4.2348500453549143 
1000.0000000000000 0.0000000000000000 -3000.0000000000000 -34773212.419545114 -11822392.725109089 -73510390.934798941 -1.9285621059308466e-06 0.0019211237680753516 -0.0048364023580744764 3.5999999995966219 -3.0000000000000000 -4.2348500446923465 
1000.0000000000000 1000.0000000000000 -3000.0000000000000 -34773212.419143051 -11822392.725889318 -73510390.932249397 -1.3035351055732961e-06 0.0033930304721526794 -0.0046854375643522409 3.5999999995963519 -2.6999999996787452 -4.2348500445065094 
2000.0000000000000 1000.0000000000000 -2833.3333333330002 -33622214.807360753 -10671395.119313408 -69429581.237481415 4.0654085721575746e-05 0.0037987539078598712 -0.0073290542895004356 3.1999999993348704 -2.6999999997022943 -4.4909844301763462 
2000.0000000000000 0.0000000000000000 -2833.3333333330002 -33622214.807780281 -10671395.118578624 -69429581.239961907 2.1949949309110849e-05 0.0021929664397460570 -0.0073425876959291540 3.1999999993341683 -3.0000000000000000 -4.4909844303897195 
1000.0000000000000 0.0000000000000000 -2833.3333333330002 -33622214.810041755 -10671395.117252558 -69429581.231593534 -3.3836536230255697e-06 0.0020660335537170324 -0.0051441758063372730 3.5999999996251040 -3.0000000000000000 -4.4909844296883072 
1000.0000000000000 1000.0000000000000 -2833.3333333330002 -33622214.809636079 -10671395.117983563 -69429581.229077131 -4.5435125006441082e-06 0.0036435707095450916 -0.0049987465395547760 3.5999999996247842 -2.6999999997022011 -4.4909844294902497 
2000.0000000000000 1000.0000000000000 -2666.6666666669998 -32471114.182902172 -9520294.4963574633 -65348406.298826791 4.0379907405153242e-05 0.0040277209936897332 -0.0077771116126500216 3.1999999993911028 -2.6999999997270479 -4.7322249372700043 
2000.0000000000000 -9.6621616699999999e-29 -2666.6666666669998 -32471114.183331028 -9520294.4956800696 -65348406.301282361 2.2128610774944410e-05 0.0023273604918627941 -0.0077914489505461872 3.1999999993903914 -3.0000000000000000 -4.7322249374951486 
1000.0000000000000 2.4155404169999999e-29 -2666.6666666669998 -32471114.185384531 -9520294.4943279848 -65348406.293013126 -4.4601144698046116e-06 0.0022024866734996146 -0.0054289620301323296 3.5999999996551040 -3.0000000000000000 -4.7322249367554639 
1000.0000000000000 1000.0000000000000 -2666.6666666669998 -32471114.184971731 -9520294.4950014278 -65348406.290521696 -7.0881799894142943e-06 0.0038771043443946059 -0.0052896644765123646 3.5999999996547523 -2.6999999997268542 -4.7322249365452871 
2000.0000000000000 1000.0000000000000 -2500.0000000000000 -31319910.534075234 -8369090.8491020212 -61266866.092058115 3.9670163224284239e-05 0.0042364761237890696 -0.0081796247657155464 3.1999999994504460 -2.6999999997531359 -4.9585702334245321 
2000.0000000000000 -1.0352316099999999e-28 -2500.0000000000000 -31319910.534516007 -8369090.8484915812 -61266866.094494492 2.2048531446963832e-05 0.0024517121491284561 -0.0081948047903079423 3.1999999994497337 -3.0000000000000000 -4.9585702336613799 
1000.0000000000000 2.5880790180000000e-29 -2500.0000000000000 -31319910.536332082 -8369090.8471042374 -61266866.086311132 -5.3179922159409723e-06 0.0023289661330719242 -0.0056877753216352904 3.5999999996868697 -3.0000000000000000 -4.9585702328839307 
1000.0000000000000 1000.0000000000000 -2500.0000000000000 -31319910.535909049 -8369090.8477106234 -61266866.083839446 -9.1313935590704202e-06 0.0040908188385143304 -0.0055550460988905946 3.5999999996864926 -2.6999999997528583 -4.9585702326617183 
2000.0000000000000 1000.0000000000000 -2333.3333333330002 -30168603.851647772 -7217784.1683196453 -57184960.584439173 3.8452570719838702e-05 0.0044218794858802684 -0.0085300004511784776 3.1999999995132851 -2.6999999997807604 -5.1700189855061929 
2000.0000000000000 -1.1042470500000000e-28 -2333.3333333330002 -30168603.852102797 -7217784.1677872911 -57184960.586858861 2.1671122725817955e-05 0.0025642307005778317 -0.0085460576339309001 3.1999999995125816 -3.0000000000000000 -5.1700189857546786 
1000.0000000000000 2.7606176200000001e-29 -2333.3333333330002 -30168603.853646986 -7217784.1663565673 -57184960.578759082 -6.0827241094513994e-06 0.0024436639753225103 -0.0059168721007065838 3.5999999997206849 -3.0000000000000000 -5.1700189849399711 
1000.0000000000000 1000.0000000000000 -2333.3333333330002 -30168603.853210952 -7217784.1668848991 -57184960.576304853 -1.0834585886441037e-05 0.0042814752628860383 -0.0057910245068842478 3.5999999997202856 -2.6999999997804065 -5.1700189847057993 
2000.0000000000000 1000.0000000000000 -2166.6666666669998 -29017194.126387324 -6066374.4447840825 -53102689.743233941 3.6646515961074268e-05 0.0045802405157547828 -0.0088207301663065577 3.1999999995800765 -2.6999999998101569 -5.3665698602620973 
2000.0000000000000 -6.0107537800000003e-29 -2166.6666666669998 -29017194.126858741 -6066374.4443428526 -53102689.745636217 2.0955018854951534e-05 0.0026627655712151989 -0.0088376754422754954 3.1999999995793922 -3.0000000000000000 -5.3665698605221381 
1000.0000000000000 1.5026884460000000e-29 -2166.6666666669998 -29017194.128090587 -6066374.4428614248 -53102689.737628199 -6.8473032593156008e-06 0.0025444396230215882 -0.0061116858322123454 3.5999999997568781 -3.0000000000000000 -5.3665698596707374 
1000.0000000000000 1000.0000000000000 -2166.6666666669998 -29017194.127639093 -6066374.4432988688 -53102689.735192165 -1.2328797134202189e-05 0.0044453288431925584 -0.0059929398112200409 3.5999999997564522 -2.6999999998097306 -5.3665698594246924 
2000.0000000000000 1000.0000000000000 -2000.0000000000000 -27865681.349056054 -4914861.6692650635 -49020053.535688013 3.4161873253824463e-05 0.0047071737767000309 -0.0090431939206255148 3.1999999996513493 -2.6999999998416055 -5.5482215243233437 
2000.0000000000000 0.0000000000000000 -2000.0000000000000 -27865681.349545833 -4914861.6689302912 -49020053.538068846 1.9849217342311045e-05 0.0027447136760500013 -0.0090609988170067338 3.1999999996506965 -3.0000000000000000 -5.5482215245948181 
1000.0000000000000 0.0000000000000000 -2000.0000000000000 -27865681.350417867 -4914861.6673914501 -49020053.530171260 -7.6872961130574778e-06 0.0026287614196618893 -0.0062665598635013777 3.5999999997958216 -3.0000000000000000 -5.5482215237074026 
1000.0000000000000 1000.0000000000000 -2000.0000000000000 -27865681.349948663 -4914861.6677229153 -49020053.527757309 -1.3720489623773528e-05 0.0045779757440548305 -0.0061551074349310893 3.5999999997953620 -2.6999999998411033 -5.5482215234495991 
2000.0000000000000 1000.0000000000000 -1833.3333333329999 -26714065.510421257 -3763245.8325387347 -44937051.929065228 3.0899997974199227e-05 0.0047974855820565251 -0.0091874568646969981 3.1999999997277082 -2.6999999998754265 -5.7149726441979345 
2000.0000000000000 -3.2286888400000000e-30 -1833.3333333329999 -26714065.510931239 -3763245.8323285268 -44937051.931417204 1.8301118830450599e-05 0.0028069441035934654 -0.0092060580137059943 3.1999999997271020 -3.0000000000000000 -5.7149726444806648 
1000.0000000000000 8.0717220889999996e-31 -1833.3333333329999 -26714065.511387769 -3763245.8307259935 -44937051.923659444 -8.6616894896923748e-06 0.0026936089846113648 -0.0063747631847722855 3.5999999998379408 -3.0000000000000000 -5.7149726435580916 
1000.0000000000000 1000.0000000000000 -1833.3333333329999 -26714065.510898802 -3763245.8309336482 -44937051.921274886 -1.5097980425692337e-05 0.0046742361507136031 -0.0062707607581177485 3.5999999998374372 -2.6999999998748399 -5.7149726432886903 
2000.0000000000000 1000.0000000000000 -1666.6666666670001 -25562346.601250280 -2611526.9253825201 -40853684.890629172 2.6748547170399188e-05 0.0048450320963705357 -0.0092420104798958472 3.1999999998098430 -2.6999999999119852 -5.8668218862747192 
2000.0000000000000 0.0000000000000000 -1666.6666666670001 -25562346.601782151 -2611526.9253182486 -40853684.892940976 1.6250570094329114e-05 0.0028457067751581615 -0.0092612997529168805 3.1999999998092998 -3.0000000000000000 -5.8668218865684487 
1000.0000000000000 0.0000000000000000 -1666.6666666670001 -25562346.601757865 -2611526.9236459760 -40853684.885363676 -9.8119255175986610e-06 0.0027353147207515474 -0.0064282587030763706 3.5999999998837180 -3.0000000000000000 -5.8668218856118086 
1000.0000000000000 1000.0000000000000 -1666.6666666670001 -25562346.601247244 -2611526.9237087499 -40853684.883019686 -1.6534124787762004e-05 0.0047279961654698071 -0.0063318302784067491 3.5999999998831602 -2.6999999999113053 -5.8668218853310368 
2000.0000000000000 2000.0000000000000 -4833.3333333330002 -47427389.758596629 -24476570.062931702 -118375201.49518409 8.4398126806056148e-05 0.00037584325151570084 -0.00045728100684971955 3.1999999988845746 -2.3999999990918099 -0.43475698860575385 
1000.0000000000000 2000.0000000000000 -4833.3333333330002 -47427389.760910116 -24476570.059940368 -118375201.47939794 0.00012669053740560745 0.00035420537483306261 -0.00031101147036562279 3.5999999993804019 -2.3999999990978647 -0.43475698853165273 
2000.0000000000000 2000.0000000000000 -5000.0000000000000 -48002296.557279535 -25051476.861529045 -120413507.41761908 8.4720929673676165e-05 0.00018074705535070924 -0.00021959921559913843 3.1999999988795507 -2.3999999990875573 0.0000000000000000 
1000.0000000000000 2000.0000000000000 -5000.0000000000000 -48002296.559394754 -25051476.858303212 -120413507.40098655 0.00012938883028801613 0.00016998777555330425 -0.00014991972690192536 3.5999999993773781 -2.3999999990937555 0.0000000000000000 
2000.0000000000000 2000.0000000000000 -4666.6666666669998 -46277524.706718363 -23326705.011307336 -114298407.22084387 8.3531494071833844e-05 0.00078993709110778537 -0.00096334497134028087 3.1999999988986243 -2.3999999991037182 -0.85463608611714137 
1000.0000000000000 2000.0000000000000 -4666.6666666669998 -46277524.709358379 -23326705.008738570 -114298407.20659991 0.00011924715206689416 0.00074670693345663076 -0.00065122752068252259 3.5999999993887104 -2.3999999991093830 -0.85463608597581608 
2000.0000000000000 2000.0000000000000 -4500.0000000000000 -45127556.741199598 -22176737.046202105 -110221248.07118939 8.2347015695600814e-05 0.0012432114949948551 -0.0015208887240072523 3.1999999989198709 -2.3999999991217460 -1.2596359609599947 
1000.0000000000000 2000.0000000000000 -4500.0000000000000 -45127556.744046032 -22176737.043970414 -110221248.05821019 0.00010848559847202827 0.0011795067406492118 -0.0010202296533208567 3.5999999994009673 -2.3999999991268623 -1.2596359607571570 
2000.0000000000000 2000.0000000000000 -4333.3333333330002 -43977485.852815747 -21026666.158377688 -106143724.01349169 8.1066357422496411e-05 0.0017204860983827579 -0.0021120707872340043 3.1999999989468715 -2.3999999991446725 -1.6497552814330751 
1000.0000000000000 2000.0000000000000 -4333.3333333330002 -43977485.855781548 -21026666.156410828 -106143724.00154166 9.5793372131756422e-05 0.0016386606189243034 -0.0014057563660047870 3.5999999994162009 -2.3999999991491556 -1.6497552811734431 
2000.0000000000000 2000.0000000000000 -4166.6666666669998 -42827312.032344043 -19876492.338595290 -102065835.01502195 7.9847275667500176e-05 0.0022101592853939552 -0.0027225994440064809 3.1999999989785093 -2.3999999991715448 -2.0249927157160283 
1000.0000000000000 2000.0000000000000 -4166.6666666669998 -42827312.035364985 -19876492.336832482 -102065835.00390084 8.2253279697069027e-05 0.0021132398662735406 -0.0017994332904575118 3.5999999994337104 -2.3999999991753680 -2.0249927154034535 
2000.0000000000000 2000.0000000000000 -4000.0000000000000 -41677035.270556949 -18726215.577611350 -97987581.043033302 7.8763351210735060e-05 0.0027033069703117714 -0.0033410674273797354 3.1999999990139405 -2.3999999992016323 -2.3853469318757425 
1000.0000000000000 2000.0000000000000 -4000.0000000000000 -41677035.273585305 -18726215.576002546 -97987581.032574356 6.8684506171356140e-05 0.0025946309699418292 -0.0021953791263101480 3.5999999994530150 -2.3999999992048093 -2.3853469315133329 
2000.0000000000000 2000.0000000000000 -3833.3333333330002 -40526655.558231592 -17575835.866188288 -93908962.064797342 7.7806759411778531e-05 0.0031929265547174833 -0.0039584357224576447 3.1999999990525505 -2.3999999992343857 -2.7308165978528480 
1000.0000000000000 2000.0000000000000 -3833.3333333330002 -40526655.561231136 -17575835.864692755 -93908962.054863691 5.5679217842357698e-05 0.0030758537153975120 -0.0025893927133806651 3.5999999994737917 -2.3999999992369587 -2.7308165974430931 
2000.0000000000000 2000.0000000000000 -3666.6666666669998 -39376172.886144079 -16425353.195089424 -89829978.047585517 7.6921644696362841e-05 0.0036733835615601696 -0.0045673835102632522 3.1999999990939085 -2.3999999992694145 -3.0614003814688600 
1000.0000000000000 2000.0000000000000 -3666.6666666669998 -39376172.889085978 -16425353.193673994 -89829978.038065344 4.3627369238889119e-05 0.0035510920828232344 -0.0029783270951545433 3.5999999994958425 -2.3999999992714365 -3.0614003810137373 
2000.0000000000000 2000.0000000000000 -3500.0000000000000 -38225587.245064147 -15274767.555073855 -85750628.958651006 7.6032333002122438e-05 0.0041399550531551199 -0.0051618201136031643 3.1999999991377481 -2.3999999993064520 -3.3770969504317270 
1000.0000000000000 2000.0000000000000 -3500.0000000000000 -38225587.247923985 -15274767.553711440 -85750628.949453399 3.2750889936024060e-05 0.0040153315399707483 -0.0033595592987241967 3.5999999995190635 -2.3999999993079850 -3.3770969499327985 
2000.0000000000000 2000.0000000000000 -3333.3333333330002 -37074898.625765525 -14124078.936906792 -81670914.765265226 7.5051177247695522e-05 0.0045885011143152717 -0.0057364382184308905 3.1999999991839294 -2.3999999993453436 -3.6779049723239443 
1000.0000000000000 2000.0000000000000 -3333.3333333330002 -37074898.628521010 -14124078.935575146 -81670914.756317049 2.3147233851501305e-05 0.0044640910673193939 -0.0037307547693720250 3.5999999995434271 -2.3999999993464503 -3.6779049717824330 
2000.0000000000000 2000.0000000000000 -3166.6666666669998 -35924107.019020744 -12973287.331354273 -77590835.434699520 7.3881275475337616e-05 0.0050152677227899671 -0.0062863133452919695 3.1999999992324279 -2.3999999993860288 -3.9638231146088994 
1000.0000000000000 2000.0000000000000 -3166.6666666669998 -35924107.021650150 -12973287.330035098 -77590835.425943181 1.4818129765680433e-05 0.0048932772045792421 -0.0040896081576598763 3.5999999995689680 -2.3999999993867687 -3.9638231140257605 
2000.0000000000000 2000.0000000000000 -3000.0000000000000 -34773212.415596187 -11822392.729178013 -73510390.934207097 7.2419327851395242e-05 0.0054165625647616218 -0.0068066580431398443 3.1999999992833148 -2.3999999994285264 -4.2348500446356079 
1000.0000000000000 2000.0000000000000 -3000.0000000000000 -34773212.418076962 -11822392.727856144 -73510390.925598547 7.7056010504790850e-06 0.0052988169729947399 -0.0044336969285299239 3.5999999995957763 -2.3999999994289545 -4.2348500440115942 
2000.0000000000000 2000.0000000000000 -2833.3333333330002 -33622214.806262478 -10671395.121145565 -69429581.231059372 7.0561735997815499e-05 0.0057886031243466612 -0.0072925359775302427 3.1999999993367498 -2.3999999994729304 -4.4909844296284360 
1000.0000000000000 2000.0000000000000 -2833.3333333330002 -33622214.808570109 -10671395.119808324 -69429581.222566694 1.7176370162785073e-06 0.0056765820589530450 -0.0047602974336544857 3.5999999996239889 -2.3999999994730956 -4.4909844289641532 
2000.0000000000000 2000.0000000000000 -2666.6666666669998 -32471114.181789424 -9520294.4980250932 -65348406.292527847 6.8199371522262772e-05 0.0061273921142091341 -0.0077386744030809680 3.1999999993929653 -2.3999999995194012 -4.7322249366926377 
1000.0000000000000 2000.0000000000000 -2666.6666666669998 -32471114.183896516 -9520294.4966618214 -65348406.284130223 -3.2612122333427566e-06 0.0060222802687946988 -0.0050662994374801734 3.5999999996537886 -2.3999999995193448 -4.7322249359885973 
2000.0000000000000 2000.0000000000000 -2500.0000000000000 -31319910.532941107 -8369090.8505802238 -61266866.085866019 6.5216774113976080e-05 0.0064285515265319736 -0.0081392425810414872 3.1999999994522748 -2.3999999995681605 -4.9585702328182952 
1000.0000000000000 2000.0000000000000 -2500.0000000000000 -31319910.534816414 -8369090.8491818551 -61266866.077553108 -7.3505831592913649e-06 0.0063312342865849630 -0.0053480665997928519 3.5999999996853980 -2.3999999995679180 -4.9585702320749752 
2000.0000000000000 2000.0000000000000 -2333.3333333330002 -30168603.850486178 -7217784.1695801765 -57184960.578345589 6.1491623883900309e-05 0.0066871686118784648 -0.0084876799010335582 3.1999999995150574 -2.3999999996194892 -5.1700189848716471 
1000.0000000000000 2000.0000000000000 -2333.3333333330002 -30168603.852093726 -7217784.1681389315 -57184960.570117295 -1.0673493411369989e-05 0.0065982862371065003 -0.0056013316727476520 3.5999999997190888 -2.3999999996190926 -5.1700189840895314 
2000.0000000000000 2000.0000000000000 -2166.6666666669998 -29017194.125192914 -6066374.4457945870 -53102689.737238459 5.6887263868914097e-05 0.0068977033859715531 -0.0087765469004530139 3.1999999995817650 -2.3999999996737293 -5.3665698595998217 
1000.0000000000000 2000.0000000000000 -2166.6666666669998 -29017194.126490951 -6066374.4443036327 -53102689.729104578 -1.3356466800351478e-05 0.0068176686035925256 -0.0058210932045067547 3.5999999997551764 -2.3999999996732022 -5.3665698587794575 
2000.0000000000000 2000.0000000000000 -2000.0000000000000 -27865681.347824086 -4914861.6699882122 -49020053.529798210 5.1255501489159488e-05 0.0070537928956541096 -0.0089972904905426341 3.1999999996529209 -2.3999999997312815 -5.5482215236339707 
1000.0000000000000 2000.0000000000000 -2000.0000000000000 -27865681.348764036 -4914861.6684414707 -49020053.521778807 -1.5523437437915860e-05 0.0069828258648053721 -0.0060013830425811642 3.5999999997940226 -2.3999999997306429 -5.5482215227760241 
2000.0000000000000 2000.0000000000000 -1833.3333333329999 -26714065.509147495 -3763245.8329312662 -44937051.923297010 4.4430464087727862e-05 0.0071481306763804733 -0.0091400587616639745 3.1999999997291280 -2.3999999997926085 -5.7149726434822066 
1000.0000000000000 2000.0000000000000 -1833.3333333329999 -26714065.509672727 -3763245.8313231813 -44937051.915422752 -1.7304608868131453e-05 0.0070862624734511432 -0.0061351485615365724 3.5999999998360472 -2.3999999997918731 -5.7149726425875054 
2000.0000000000000 2000.0000000000000 -1666.6666666670001 -25562346.599930912 -2611526.9253941607 -40853684.885007255 3.6225189970191860e-05 0.0071723315463179827 -0.0091934602454251287 3.1999999998110678 -2.3999999998582404 -5.8668218855335272 
1000.0000000000000 2000.0000000000000 -1666.6666666670001 -25562346.599975236 -2611526.9237194397 -40853684.877319947 -1.8844108606998667e-05 0.0071194432534365778 -0.0062140537629944018 3.5999999998817285 -2.3999999998574162 -5.8668218846031461 
4000.0000000000000 8000.0000000000000 -4833.3333333330002 -47427389.737734757 -24476570.073069599 -118375201.45749228 0.00020298388065969678 -0.00017311045450668958 -0.00019940289092436320 2.3999999985404421 -0.59999999949180827 -0.43475698844818528 
4000.0000000000000 9000.0000000000000 -4833.3333333330002 -47427389.736917451 -24476570.072240788 -118375201.45448583 0.00011174784085712143 -0.00010270133197585633 -0.00019838470698578921 2.3999999985456877 -0.29999999974703173 -0.43475698843704180 
4000.0000000000000 8000.0000000000000 -5000.0000000000000 -48002296.535919309 -25051476.871264052 -120413507.37817539 0.00020577234696866133 -8.8923035824879212e-05 -9.3232423558877117e-05 2.3999999985346161 -0.59999999948954075 0.0000000000000000 
4000.0000000000000 9000.0000000000000 -5000.0000000000000 -48002296.535060614 -25051476.870393328 -120413507.37501869 0.00011330955177859017 -5.2487132523271817e-05 -9.2991432271043753e-05 2.3999999985399221 -0.29999999974589908 0.0000000000000000 
4000.0000000000000 8000.0000000000000 -4666.6666666669998 -46277524.686839834 -23326705.022141322 -114298407.18656382 0.00019514127116213769 -0.00033235216432371062 -0.00043580178134739763 2.3999999985571852 -0.59999999949838401 -0.85463608581591965 
4000.0000000000000 9000.0000000000000 -4666.6666666669998 -46277524.686103329 -23326705.021394290 -114298407.18385358 0.00010734064251425630 -0.00019867821171276750 -0.00043221949849824097 2.3999999985622491 -0.29999999975031871 -0.85463608579479966 
4000.0000000000000 8000.0000000000000 -4500.0000000000000 -45127556.722285062 -22176737.057523429 -110221248.04014006 0.00018341904508294843 -0.00047405780484114670 -0.00071665146725247869 2.3999999985834894 -0.59999999950882776 -1.2596359605284315 
4000.0000000000000 9000.0000000000000 -4500.0000000000000 -45127556.721625626 -22176737.056853678 -110221248.03771704 0.00010071750791301016 -0.00028597477764948618 -0.00070882834385201478 2.3999999985882643 -0.29999999975554587 -1.2596359604984506 
4000.0000000000000 8000.0000000000000 -4333.3333333330002 -43977485.834855802 -21026666.169998169 -106143723.98549733 0.00016902826600356013 -0.00059969890661101756 -0.0010344344947825369 2.3999999986181932 -0.59999999952272642 -1.6497552808838678 
4000.0000000000000 9000.0000000000000 -4333.3333333330002 -43977485.834269851 -21026666.169400502 -106143723.98335201 9.2543335352575311e-05 -0.00036505634594700802 -0.0010213344429068410 2.3999999986225951 -0.29999999976251024 -1.6497552808460925 
4000.0000000000000 8000.0000000000000 -4166.6666666669998 -42827312.015331857 -19876492.350345749 -102065834.98991147 0.00015298746674292037 -0.00071077700563321037 -0.0013812544192476103 2.3999999986602805 -0.59999999953969063 -2.0249927150612481 
4000.0000000000000 9000.0000000000000 -4166.6666666669998 -42827312.014815859 -19876492.349814545 -102065834.98803365 8.3396539853223227e-05 -0.00043643226806524616 -0.0013624152088516305 2.3999999986642551 -0.29999999977101971 -2.0249927150167011 
4000.0000000000000 8000.0000000000000 -4000.0000000000000 -41677035.254484929 -18726215.589339904 -97987581.020640254 0.00013611898090639947 -0.00080879813690228259 -0.0017488804444554583 2.3999999987088660 -0.59999999955935313 -2.3853469311268376 
4000.0000000000000 9000.0000000000000 -4000.0000000000000 -41677035.254035309 -18726215.588869408 -97987581.019019023 7.3758070367423661e-05 -0.00050064492280616369 -0.0017242999510139329 2.3999999987123819 -0.29999999978089159 -2.3853469310764948 
4000.0000000000000 8000.0000000000000 -3833.3333333330002 -40526655.543090418 -17575835.877758570 -93908962.044959664 0.00011906241209823010 -0.00089520185721221862 -0.0021288812495779152 2.3999999987631822 -0.59999999958137018 -2.7308165970206542 
4000.0000000000000 9000.0000000000000 -3833.3333333330002 -40526655.542703606 -17575835.877343126 -93908962.043583572 6.4009555159549519e-05 -0.00055823309602459127 -0.0020989025492060545 2.3999999987662317 -0.29999999979195263 -2.7308165969654463 
4000.0000000000000 8000.0000000000000 -3666.6666666669998 -39376172.871923193 -16425353.206378872 -89829978.030145630 0.00010229930202037276 -0.00097133985757451118 -0.0025128422426875250 2.3999999988225791 -0.59999999960541917 -3.0614003805636085 
4000.0000000000000 9000.0000000000000 -3666.6666666669998 -39376172.871595576 -16425353.206013162 -89829978.029002517 5.4443908810673188e-05 -0.00060972227446379787 -0.0024780543530710888 2.3999999988251655 -0.29999999980403858 -3.0614003805044225 
4000.0000000000000 8000.0000000000000 -3500.0000000000000 -38225587.231752910 -15274767.565972185 -85750628.943455741 8.6177729142451412e-05 -0.0010384362811131605 -0.0028925969777959114 2.3999999988865093 -0.59999999963119943 -3.3770969494630658 
4000.0000000000000 9000.0000000000000 -3500.0000000000000 -38225587.231480919 -15274767.565651357 -85750628.942532733 4.5276916435554178e-05 -0.00065559634999502801 -0.0028537132707773666 2.3999999988886525 -0.29999999981699471 -3.3770969494007379 
4000.0000000000000 8000.0000000000000 -3333.3333333330002 -37074898.613354698 -14124078.947314512 -81670914.752165675 7.0936566302069664e-05 -0.0010975627494785179 -0.0032603551609722095 2.3999999989545362 -0.59999999965843098 -3.6779049713009471 
4000.0000000000000 9000.0000000000000 -3333.3333333330002 -37074898.613134734 -14124078.947034359 -81670914.751449332 3.6657826801649638e-05 -0.00069627864121945778 -0.0032181490435898826 2.3999999989562615 -0.29999999983067521 -3.6779049712362659 
4000.0000000000000 8000.0000000000000 -3166.6666666669998 -35924107.007504046 -12973287.341181371 -77590835.423550978 5.6726840515156917e-05 -0.0011496080015761503 -0.0036087126376946610 2.3999999990263183 -0.59999999968685458 -3.9638231135400721 
4000.0000000000000 9000.0000000000000 -3166.6666666669998 -35924107.007332616 -12973287.340938492 -77590835.423027262 2.8684378485311802e-05 -0.00073211439043491711 -0.0035639709549563003 2.3999999990276577 -0.29999999984494319 -3.9638231134737696 
4000.0000000000000 8000.0000000000000 -3000.0000000000000 -34773212.404971726 -11822392.738342695 -73510390.924868688 4.3629317588240135e-05 -0.0011952596754155821 -0.0039307525994020246 2.3999999991016092 -0.59999999971622886 -4.2348500435289038 
4000.0000000000000 9000.0000000000000 -3000.0000000000000 -34773212.404845394 -11822392.738134578 -73510390.924522981 2.1409755782722672e-05 -0.00076335501021164724 -0.0038842216706488778 2.3999999991025973 -0.29999999985967002 -4.2348500434616598 
4000.0000000000000 8000.0000000000000 -2833.3333333330002 -33622214.796534143 -10671395.129573217 -69429581.223393962 3.1666469930270354e-05 -0.0012349825143691357 -0.0042200645341200467 2.3999999991802485 -0.59999999974633089 -4.4909844284912550 
4000.0000000000000 9000.0000000000000 -2833.3333333330002 -33622214.796449602 -10671395.129398361 -69429581.223211110 1.4847908701663155e-05 -0.00079014708584977428 -0.0041724259153873610 2.3999999991809209 -0.29999999987473513 -4.4909844284236868 
4000.0000000000000 8000.0000000000000 -2666.6666666669998 -32471114.172968123 -9520294.5056472532 -65348406.286401480 2.0810910431906889e-05 -0.0012689961707429767 -0.0044706306615604936 2.3999999992621537 -0.59999999977695284 -4.7322249355318329 
4000.0000000000000 9000.0000000000000 -2666.6666666669998 -32471114.172922205 -9520294.5055052862 -65348406.286365986 8.9815459670911466e-06 -0.00081252496731246690 -0.0044225150660780017 2.3999999992625458 -0.29999999989002507 -4.7322249354644947 
4000.0000000000000 8000.0000000000000 -2500.0000000000000 -31319910.525045749 -8369090.8573336387 -61266866.081147313 1.0995891855472148e-05 -0.0012972607090165099 -0.0046768689443433525 2.3999999993473176 -0.59999999980790142 -4.9585702316401736 
4000.0000000000000 9000.0000000000000 -2500.0000000000000 -31319910.525035452 -8369090.8572253613 -61266866.081243202 3.7687338070169914e-06 -0.00083039702229777514 -0.0046288096834947454 2.3999999993474614 -0.29999999990543275 -4.9585702315735576 
4000.0000000000000 8000.0000000000000 -2333.3333333330002 -30168603.843544789 -7217784.1754060742 -57184960.574905321 2.1219442406694609e-06 -0.0013194542705555657 -0.0048335857582951737 2.3999999994357952 -0.59999999983899477 -5.1700189836819588 
4000.0000000000000 9000.0000000000000 -2333.3333333330002 -30168603.843567289 -7217784.1753335614 -57184960.575116262 -8.5194200654338229e-07 -0.00084352733477265605 -0.0047860238377015708 2.3999999994357206 -0.29999999992085663 -5.1700189836164840 
4000.0000000000000 8000.0000000000000 -2166.6666666669998 -29017194.119243458 -6066374.4506379459 -53102689.734948613 -5.9395477697933798e-06 -0.0013349787112415215 -0.0049359312982472708 2.3999999995276990 -0.59999999987006136 -5.3665698584037491 
4000.0000000000000 9000.0000000000000 -2166.6666666669998 -29017194.119296145 -6066374.4506046176 -53102689.735257976 -4.9603021788059220e-06 -0.00085155161808375365 -0.0048892539577663234 2.3999999995274313 -0.29999999993619936 -5.3665698583397674 
4000.0000000000000 8000.0000000000000 -2000.0000000000000 -27865681.342915379 -4914861.6737972768 -49020053.528531395 -1.3344625696322441e-05 -0.0013429295040301051 -0.0049793973354812799 2.3999999996231942 -0.59999999990093678 -5.5482215224361227 
4000.0000000000000 9000.0000000000000 -2000.0000000000000 -27865681.342995826 -4914861.6738079293 -49020053.528922245 -8.6568181823840328e-06 -0.00085394932535617517 -0.0049339363273696963 2.3999999996227555 -0.29999999995136756 -5.5482215223739111 
4000.0000000000000 8000.0000000000000 -1833.3333333329999 -26714065.505339958 -3763245.8356570844 -44937051.922925435 -2.0274044286993888e-05 -0.0013420866715331220 -0.0049598097124618100 2.3999999997224890 -0.59999999993146169 -5.7149726422865896 
4000.0000000000000 9000.0000000000000 -1833.3333333329999 -26714065.505445968 -3763245.8357179640 -44937051.923380584 -1.2055600369279006e-05 -0.00085004706539685366 -0.0049158447311645108 2.3999999997218939 -0.29999999996626903 -5.7149726422263480 
4000.0000000000000 8000.0000000000000 -1666.6666666670001 -25562346.597297344 -2611526.9269902962 -40853684.885401748 -2.6930505642551011e-05 -0.0013309074820950085 -0.0048734101717734660 2.3999999998258281 -0.59999999996147901 -5.8668218843435289 
4000.0000000000000 9000.0000000000000 -1666.6666666670001 -25562346.597426977 -2611526.9271091903 -40853684.885903895 -1.5281795687793599e-05 -0.00083901870336649577 -0.0048311857459822725 2.3999999998250856 -0.29999999998081317 -5.8668218842853737 
3000.0000000000000 6000.0000000000000 -4833.3333333330002 -47427389.742853448 -24476570.071101613 -118375201.45274135 0.00035683160222174789 -0.00012559982279947829 -0.00028876759888809146 2.7999999986260748 -1.1999999990204608 -0.43475698842607724 
3000.0000000000000 7000.0000000000000 -4833.3333333330002 -47427389.740707055 -24476570.070255693 -118375201.44426455 0.00028941188460579784 -0.00019177693787463646 -0.00025928155492203940 2.7999999986376376 -0.89999999924978369 -0.43475698839312005 
4000.0000000000000 7000.0000000000000 -4833.3333333330002 -47427389.739144206 -24476570.074161358 -118375201.46318050 0.00026469362680971620 -0.00017928036746656407 -0.00020490276784421778 2.3999999985326181 -0.89999999923909157 -0.43475698847006050 
4000.0000000000000 6000.0000000000000 -4833.3333333330002 -47427389.741202176 -24476570.075104311 -118375201.47233373 0.00030299786782755998 -0.00010408751875127050 -0.00021865295656070443 2.3999999985229059 -1.1999999990071315 -0.43475698850693945 
3000.0000000000000 6000.0000000000000 -5000.0000000000000 -48002296.541042559 -25051476.869298302 -120413507.37347499 0.00036314814387482979 -6.7401070741047623e-05 -0.00013526490960135603 2.7999999986210029 -1.1999999990162671 0.0000000000000000 
3000.0000000000000 7000.0000000000000 -5000.0000000000000 -48002296.538797110 -25051476.868360423 -120413507.36465085 0.00029423602537047104 -9.9188141326491444e-05 -0.00012072327707836354 2.7999999986328112 -0.89999999924657936 0.0000000000000000 
4000.0000000000000 7000.0000000000000 -5000.0000000000000 -48002296.537401445 -25051476.872429073 -120413507.38413271 0.00026835532246912450 -9.3321504347645525e-05 -9.5640604185404695e-05 2.3999999985266891 -0.89999999923569651 0.0000000000000000 
4000.0000000000000 6000.0000000000000 -5000.0000000000000 -48002296.539569102 -25051476.873480625 -120413507.39369972 0.00030741485131026148 -5.7132011261866034e-05 -0.00010220917111903653 2.3999999985168148 -1.1999999990026846 0.0000000000000000 
3000.0000000000000 6000.0000000000000 -4666.6666666669998 -46277524.691945434 -23326705.020175967 -114298407.18170109 0.00033967063139565964 -0.00022461780423262722 -0.00063053900737935543 2.7999999986408288 -1.1999999990326009 -0.85463608577070882 
3000.0000000000000 7000.0000000000000 -4666.6666666669998 -46277524.689994417 -23326705.019504327 -114298407.17390791 0.00027621320372772130 -0.00036417826091076516 -0.00057106978834689775 2.7999999986517468 -0.89999999925909457 -0.85463608570733640 
4000.0000000000000 7000.0000000000000 -4666.6666666669998 -46277524.688108876 -23326705.023092244 -114298407.19172291 0.00025451050472449267 -0.00033738656713175363 -0.00044858659116596151 2.3999999985496561 -0.89999999924891594 -0.85463608585763562 
4000.0000000000000 6000.0000000000000 -4666.6666666669998 -46277524.689957976 -23326705.023831204 -114298407.20006669 0.00029087675171625107 -0.00017944279471281634 -0.00047745878792512586 2.3999999985403764 -1.1999999990199477 -0.85463608592828044 
3000.0000000000000 6000.0000000000000 -4500.0000000000000 -45127556.727359496 -22176737.055573221 -110221248.03514463 0.00031535685786774064 -0.00029100902424243646 -0.0010372448216580058 2.7999999986642803 -1.1999999990518397 -1.2596359604590150 
3000.0000000000000 7000.0000000000000 -4500.0000000000000 -45127556.725597516 -22176737.055055983 -110221248.02801287 0.00025728830761765503 -0.00051196798634468269 -0.00094872582402041341 2.7999999986743198 -0.89999999927392094 -1.2596359603676872 
4000.0000000000000 7000.0000000000000 -4500.0000000000000 -45127556.723423138 -22176737.058345474 -110221248.04478861 0.00023953339485893952 -0.00046965043552954115 -0.00073838887377786601 2.3999999985764053 -0.89999999926447305 -1.2596359605880247 
4000.0000000000000 6000.0000000000000 -4500.0000000000000 -45127556.725082524 -22176737.058906797 -110221248.05235922 0.00027341425798961940 -0.00022108749240909900 -0.00078314086844806963 2.3999999985677376 -1.1999999990401358 -1.2596359606894130 
3000.0000000000000 6000.0000000000000 -4333.3333333330002 -43977485.839865535 -21026666.168073054 -106143723.98035061 0.00028709997586947417 -0.00032919785181404718 -0.0014981256091829911 2.7999999986953981 -1.1999999990773873 -1.6497552807891080 
3000.0000000000000 7000.0000000000000 -4333.3333333330002 -43977485.838284567 -21026666.167689469 -106143723.97385743 0.00023498363982961753 -0.00063719880132355748 -0.0013832045286219987 2.7999999987044335 -0.89999999929369778 -1.6497552806722096 
4000.0000000000000 7000.0000000000000 -4333.3333333330002 -43977485.835871205 -21026666.170704104 -106143723.98965470 0.00022141138878236817 -0.00057951653107616164 -0.0010658485619124498 2.3999999986116625 -0.89999999928511520 -1.6497552809594449 
4000.0000000000000 6000.0000000000000 -4333.3333333330002 -43977485.837357044 -21026666.171113789 -106143723.99648844 0.00025272624370688745 -0.00023549739395156095 -0.0011259637121282570 2.3999999986037150 -1.1999999990667938 -1.6497552810886575 
3000.0000000000000 6000.0000000000000 -4166.6666666669998 -42827312.020235948 -19876492.348454200 -102065834.98459771 0.00025709499317612324 -0.00034381173555315112 -0.0020003724587505239 2.7999999987331958 -1.1999999991085148 -2.0249927149400127 
3000.0000000000000 7000.0000000000000 -4166.6666666669998 -42827312.018826753 -19876492.348183252 -102065834.97871952 0.00021095562015649246 -0.00074219977567951186 -0.0018626278254816162 2.7999999987411814 -0.89999999931788832 -2.0249927147998541 
4000.0000000000000 7000.0000000000000 -4166.6666666669998 -42827312.016232193 -19876492.350948643 -102065834.99359787 0.00020142414672701274 -0.00067023403744281775 -0.0014222683516424627 2.3999999986543723 -0.89999999931024355 -2.0249927151509870 
4000.0000000000000 6000.0000000000000 -4166.6666666669998 -42827312.017558433 -19876492.351231974 -102065834.99973084 0.00023032644700240798 -0.00022856848045635600 -0.0014963742227637898 2.3999999986472003 -1.1999999990991090 -2.0249927153052201 
3000.0000000000000 6000.0000000000000 -4000.0000000000000 -41677035.259239852 -18726215.587489042 -97987581.015145212 0.00022681031950929972 -0.00033947991880328346 -0.0025308835654044241 2.7999999987767907 -1.1999999991445520 -2.3853469309780260 
3000.0000000000000 7000.0000000000000 -4000.0000000000000 -41677035.257992327 -18726215.587309986 -97987581.009857610 0.00018636187707151875 -0.00082944773789371193 -0.0023743073276788285 2.7999999987837265 -0.89999999934598685 -2.3853469308168447 
4000.0000000000000 7000.0000000000000 -4000.0000000000000 -41677035.255277306 -18726215.589852683 -97987581.023876444 0.00018054275378098872 -0.00074485364098954765 -0.0017988487821807629 2.3999999987036151 -0.89999999933930575 -2.3853469312289892 
4000.0000000000000 6000.0000000000000 -4000.0000000000000 -41677035.256456368 -18726215.590033863 -97987581.029344544 0.00020727920990321047 -0.00020566475121995781 -0.0018850652734948904 2.3999999986972393 -1.1999999991363521 -2.3853469314055551 
3000.0000000000000 6000.0000000000000 -3833.3333333330002 -40526655.547653288 -17575835.875954255 -93908962.039271072 0.00019719730304801401 -0.00032075039570252643 -0.0030771731948568836 2.7999999988254243 -1.1999999991848880 -2.7308165968432165 
3000.0000000000000 7000.0000000000000 -3833.3333333330002 -40526655.546556823 -17575835.875847105 -93908962.034548849 0.00016200383045059645 -0.00090146554782798312 -0.0029058074008417915 2.7999999988313453 -0.89999999937751951 -2.7308165966631779 
4000.0000000000000 7000.0000000000000 -3833.3333333330002 -40526655.543781616 -17575835.878193658 -93908962.047767103 0.00015948974814125982 -0.00080620931955686004 -0.0021868032856925284 2.3999999987585983 -0.89999999937179365 -2.7308165971335439 
4000.0000000000000 6000.0000000000000 -3833.3333333330002 -40526655.544824786 -17575835.878295451 -93908962.052605987 0.00018431169630872679 -0.00017168271972377861 -0.0022830097530155032 2.3999999987530107 -1.1999999991778709 -2.7308165973298775 
3000.0000000000000 6000.0000000000000 -3666.6666666669998 -39376172.876253664 -16425353.204625851 -89829978.024254337 0.00016884781327132988 -0.00029197529790569581 -0.0036277567571635001 2.7999999988784769 -1.1999999992289707 -3.0614003803565648 
3000.0000000000000 7000.0000000000000 -3666.6666666669998 -39376172.875297442 -16425353.204571804 -89829978.020071387 0.00013842552278642634 -0.00096073212377428808 -0.0034454986471065870 2.7999999988834343 -0.89999999941204412 -3.0614003801597538 
4000.0000000000000 7000.0000000000000 -3666.6666666669998 -39376172.872519702 -16425353.206747878 -89829978.032546416 0.00013879004723386836 -0.00085691353798377076 -0.0025774771016952910 2.3999999988186480 -0.89999999940724174 -3.0614003806856407 
4000.0000000000000 6000.0000000000000 -3666.6666666669998 -39376172.873437420 -16425353.206791323 -89829978.036791563 0.00016190701180756809 -0.00013106735104507467 -0.0026814713704505400 2.3999999988138256 -1.1999999992230850 -3.0614003808993036 
3000.0000000000000 6000.0000000000000 -3500.0000000000000 -38225587.235814050 -15274767.564273940 -85750628.937356576 0.00014210014611261974 -0.00025716954769699097 -0.0041723475092965952 2.7999999989354696 -1.1999999992763033 -3.3770969492255074 
3000.0000000000000 7000.0000000000000 -3500.0000000000000 -38225587.234987289 -15274767.564255754 -85750628.933686137 0.00011598307589018464 -0.0010095895048888917 -0.0039828336837704828 2.7999999989395263 -0.89999999944915188 -3.3770969490139326 
4000.0000000000000 7000.0000000000000 -3500.0000000000000 -38225587.232261047 -15274767.566285659 -85750628.945472598 0.00011880941654838195 -0.00089930824516893553 -0.0029626245310769620 2.3999999988832079 -0.89999999944522469 -3.3770969495927257 
4000.0000000000000 6000.0000000000000 -3500.0000000000000 -38225587.233063087 -15274767.566289758 -85750628.949159235 0.00014036690147285416 -8.7757417817508666e-05 -0.0030722353711620598 2.3999999988791143 -1.1999999992714823 -3.3770969498214032 
3000.0000000000000 6000.0000000000000 -3333.3333333330002 -37074898.617113069 -14124078.945673043 -81670914.745858550 0.00011711580714908878 -0.00021999843021150634 -0.0047017836825401782 2.7999999989960527 -1.1999999993264432 -3.6779049710320555 
3000.0000000000000 7000.0000000000000 -3333.3333333330002 -37074898.616405219 -14124078.945675360 -81670914.742673129 9.4897973256069239e-05 -0.0010501868151028761 -0.0045083010355394552 2.7999999989992768 -0.89999999948846565 -3.6779049708076390 
4000.0000000000000 7000.0000000000000 -3333.3333333330002 -37074898.613780558 -14124078.947581705 -81670914.753821999 9.9791034383932205e-05 -0.00093545284897995689 -0.0033344245888481255 2.3999999989518277 -0.89999999948535536 -3.6779049714368055 
4000.0000000000000 6000.0000000000000 -3333.3333333330002 -37074898.614476137 -14124078.947563205 -81670914.756985202 0.00011985890599153932 -4.5217867998363382e-05 -0.0034476125740415531 2.3999999989484224 -1.1999999993226107 -3.6779049716783132 
3000.0000000000000 6000.0000000000000 -3166.6666666669998 -35924107.010929435 -12973287.339596944 -77590835.417041540 9.3938120033121118e-05 -0.00018370678286942007 -0.0052078185571768883 2.7999999990600015 -1.1999999993789998 -3.9638231132391235 
3000.0000000000000 7000.0000000000000 -3166.6666666669998 -35924107.010330282 -12973287.339606509 -77590835.414313018 7.5289893002344763e-05 -0.0010844112299369369 -0.0050132811389271498 2.7999999990624640 -0.89999999952963994 -3.9638231130037012 
4000.0000000000000 7000.0000000000000 -3166.6666666669998 -35924107.007853508 -12973287.341410022 -77590835.424870670 8.1881675234479724e-05 -0.00096709145274126895 -0.0036855261746039612 2.3999999990241627 -0.89999999952728182 -3.9638231136807889 
4000.0000000000000 6000.0000000000000 -3166.6666666669998 -35924107.008451343 -12973287.341383236 -77590835.427545428 0.00010045610625544982 -6.4232730116056891e-06 -0.0038004354418324968 2.3999999990213987 -1.1999999993760753 -3.9638231139330737 
3000.0000000000000 6000.0000000000000 -3000.0000000000000 -34773212.408036530 -11822392.736813471 -73510390.918168843 7.2532174162937845e-05 -0.00015105634270946866 -0.0056829762967860811 2.7999999991272051 -1.1999999994336299 -4.2348500431952951 
3000.0000000000000 7000.0000000000000 -3000.0000000000000 -34773212.407536335 -11822392.736819386 -73510390.915868655 5.7206948509710872e-05 -0.0011138531370642611 -0.0054899385781410296 2.7999999991289752 -0.89999999957235843 -4.2348500429506037 
4000.0000000000000 7000.0000000000000 -3000.0000000000000 -34773212.405250467 -11822392.738538887 -73510390.925876260 6.5153845467454135e-05 -0.00099563290135962473 -0.0040091305714504387 2.3999999990999616 -0.89999999957068577 -4.2348500436732337 
4000.0000000000000 6000.0000000000000 -3000.0000000000000 -34773212.405758739 -11822392.738515517 -73510390.928097352 8.2164228415595894e-05 2.6164070136668231e-05 -0.0041240975827201397 2.3999999990977936 -1.1999999994315329 -4.2348500439343768 
3000.0000000000000 6000.0000000000000 -2833.3333333330002 -33622214.799212642 -10671395.128094919 -69429581.216522262 5.2806333765142750e-05 -0.00012432753765534416 -0.0061203617199182435 2.7999999991976563 -1.1999999994900337 -4.4909844281245199 
3000.0000000000000 7000.0000000000000 -2833.3333333330002 -33622214.798802197 -10671395.128088804 -69429581.214621425 4.0638588316515173e-05 -0.0011397571750290151 -0.0059309988884293187 2.7999999991988003 -0.89999999961633226 -4.4909844278721955 
4000.0000000000000 7000.0000000000000 -2833.3333333330002 -33622214.796747588 -10671395.129741214 -69429581.224114478 4.9620207183982924e-05 -0.0010221206977686832 -0.0042989441510171318 2.3999999991790655 -0.89999999961527721 -4.4909844286380496 
4000.0000000000000 6000.0000000000000 -2833.3333333330002 -33622214.797174022 -10671395.129730241 -69429581.225916594 6.4939761361482130e-05 5.0596485556070165e-05 -0.0044125252775272664 2.3999999991774463 -1.1999999994886865 -4.4909844289062670 
3000.0000000000000 6000.0000000000000 -2666.6666666669998 -32471114.175235830 -9520294.5042129196 -65348406.279383779 3.4638466408791962e-05 -0.00010530067821852898 -0.0065133550696895789 2.7999999992714439 -1.1999999995479504 -4.7322249351316650 
3000.0000000000000 7000.0000000000000 -2666.6666666669998 -32471114.174906489 -9520294.5041889921 -65348406.277852759 2.5529821238669729e-05 -0.0011629968916868603 -0.0063294672994851668 2.7999999992720244 -0.89999999966129729 -4.7322249348732406 
4000.0000000000000 7000.0000000000000 -2666.6666666669998 -32471114.173121415 -9520294.5057893805 -65348406.286860481 3.5245514787699392e-05 -0.0010472187838841249 -0.0045490672941119513 2.3999999992613907 -0.89999999966079525 -4.7322249356800468 
4000.0000000000000 6000.0000000000000 -2666.6666666669998 -32471114.173473269 -9520294.5057970174 -65348406.288278297 4.8710420898255193e-05 6.5433267403822658e-05 -0.0046600532574724513 2.3999999992602787 -1.1999999995472808 -4.7322249359536990 
3000.0000000000000 6000.0000000000000 -2500.0000000000000 -31319910.526878595 -8369090.8559332080 -61266866.074016504 1.7887096763015006e-05 -9.5212217272330887e-05 -0.0068554738016108523 2.7999999993487426 -1.1999999996071569 -4.9585702312064583 
3000.0000000000000 7000.0000000000000 -2500.0000000000000 -31319910.526622377 -8369090.8558884980 -61266866.072825633 1.1791147310240652e-05 -0.0011840364819215698 -0.0066785131571066953 2.7999999993488167 -0.89999999970701261 -4.9585702309433515 
4000.0000000000000 7000.0000000000000 -2500.0000000000000 -31319910.525143765 -8369090.8574501472 -61266866.081370763 2.1956654408035530e-05 -0.0010711828109123741 -0.0047540665412653020 2.3999999993469339 -0.89999999970700184 -4.9585702317888680 
4000.0000000000000 6000.0000000000000 -2500.0000000000000 -31319910.525427733 -8369090.8574796952 -61266866.082438715 3.3381273378339048e-05 6.9767632195424982e-05 -0.0048614572802240736 2.3999999993462882 -1.1999999996070960 -4.9585702320664558 
3000.0000000000000 6000.0000000000000 -2333.3333333330002 -30168603.844918530 -7217784.1740261586 -57184960.567701809 2.3886832472314509e-06 -9.4773843007661733e-05 -0.0071401682820176702 2.7999999994298097 -1.1999999996674564 -5.1700189832148018 
3000.0000000000000 7000.0000000000000 -2333.3333333330002 -30168603.844728105 -7217784.1739605516 -57184960.566821061 -7.0393037583451763e-07 -0.0012029090425041246 -0.0069712898453809964 2.7999999994294309 -0.89999999975325484 -5.1700189829483127 
4000.0000000000000 7000.0000000000000 -2333.3333333330002 -30168603.843592074 -7217784.1754950779 -57184960.574919589 9.6449680336571768e-06 -0.0010938589451730027 -0.0049088862583023148 2.3999999994357530 -0.89999999975367928 -5.1700189838303023 
4000.0000000000000 6000.0000000000000 -2333.3333333330002 -30168603.843814339 -7217784.1755468864 -57184960.575672038 1.8835909050353525e-05 6.3191365593444731e-05 -0.0050118745504606245 2.3999999994355381 -1.1999999996679438 -5.1700189841104764 
3000.0000000000000 6000.0000000000000 -2166.6666666669998 -29017194.120133135 -6066374.4492615853 -53102689.727720544 -1.2033691202523440e-05 -0.00010416319628508261 -0.0073606357324235931 2.7999999995149798 -1.1999999997286801 -5.3665698579035146 
3000.0000000000000 7000.0000000000000 -2166.6666666669998 -29017194.120001793 -6066374.4491778985 -53102689.727119438 -1.2113173441705138e-05 -0.0012192203281978287 -0.0072007120100761098 2.7999999995141924 -0.89999999979981760 -5.3665698576348202 
4000.0000000000000 7000.0000000000000 -2166.6666666669998 -29017194.119244210 -6066374.4506953051 -53102689.734780416 -1.8278207283516668e-06 -0.0011146720929521819 -0.0050087870598247396 2.3999999995279677 -0.89999999980062750 -5.3665698585510295 
4000.0000000000000 6000.0000000000000 -2166.6666666669998 -29017194.119410492 -6066374.4507667739 -53102689.735251874 4.9446902160106798e-06 4.5814109764300261e-05 -0.0051067524882631894 2.3999999995281520 -1.1999999997296618 -5.3665698588325901 
3000.0000000000000 6000.0000000000000 -2000.0000000000000 -27865681.343294822 -4914861.6724036047 -49020053.521334469 -2.5572870646779974e-05 -0.00012298174810291049 -0.0075097271808680080 2.7999999996046583 -1.1999999997906785 -5.5482215219034652 
3000.0000000000000 7000.0000000000000 -2000.0000000000000 -27865681.343216553 -4914861.6723077297 -49020053.520982258 -2.2623753604312126e-05 -0.0012320944097347188 -0.0073593681406751354 2.7999999996035032 -0.89999999984650558 -5.5482215216336082 
4000.0000000000000 7000.0000000000000 -2000.0000000000000 -27865681.342873447 -4914861.6738165179 -49020053.528207779 -1.2625387109261882e-05 -0.0011325892003702337 -0.0050493685610713398 2.3999999996237471 -0.89999999984765899 -5.5482215225817413 
4000.0000000000000 6000.0000000000000 -2000.0000000000000 -27865681.342988923 -4914861.6739019584 -49020053.528432667 -8.4365557694944892e-06 1.8295911660692874e-05 -0.0051418472711079119 2.3999999996243058 -1.1999999997921087 -5.5482215228636456 
3000.0000000000000 6000.0000000000000 -1833.3333333329999 -26714065.505181525 -3763245.8342211125 -44937051.915823087 -3.8444688800548784e-05 -0.00015027462155676216 -0.0075797141529394142 2.7999999996993234 -1.1999999998533168 -5.7149726417224933 
3000.0000000000000 7000.0000000000000 -1833.3333333329999 -26714065.505151026 -3763245.8341221334 -44937051.915688686 -3.2454851920958682e-05 -0.0012401795683317303 -0.0074393119572699427 2.7999999996978291 -0.89999999989313195 -5.7149726414523876 
4000.0000000000000 7000.0000000000000 -1833.3333333329999 -26714065.505258851 -3763245.8356293356 -44937051.922473788 -2.2935696051540807e-05 -0.0011461409013220343 -0.0050265342191076852 2.3999999997233066 -0.89999999989459567 -5.7149726424300757 
4000.0000000000000 6000.0000000000000 -1833.3333333329999 -26714065.505328164 -3763245.8357198923 -44937051.922486536 -2.1466234481638056e-05 -1.8193045757852524e-05 -0.0051132076846968563 2.3999999997242210 -1.1999999998551585 -5.7149726427114365 
3000.0000000000000 6000.0000000000000 -1666.6666666670001 -25562346.596571721 -2611526.9254826084 -40853684.878464930 -5.0893242160562052e-05 -0.00018449310716019246 -0.0075622038573944063 2.7999999997995202 -1.1999999999164712 -5.8668218837493464 
3000.0000000000000 7000.0000000000000 -1666.6666666670001 -25562346.596584387 -2611526.9253929029 -40853684.878516793 -4.1858697619676922e-05 -0.0012416263561487845 -0.0074319753883401920 2.7999999997977087 -0.89999999993951374 -5.8668218834797585 
4000.0000000000000 7000.0000000000000 -1666.6666666670001 -25562346.597180154 -2611526.9269041196 -40853684.884849526 -3.2970681100050523e-05 -0.0011533791380580797 -0.0049365842217917429 2.3999999998268993 -0.89999999994126501 -5.8668218844845361 
4000.0000000000000 6000.0000000000000 -1666.6666666670001 -25562346.597207472 -2611526.9269876918 -40853684.884684682 -3.4318010239009421e-05 -6.1928272839656379e-05 -0.0050172492105693160 2.3999999998281569 -1.1999999999186970 -5.8668218847646250 
5000.0000000000000 0.0000000000000000 -4833.3333333330002 -47427389.756607823 -24476570.072709855 -118375201.57363731 9.1096324495082941e-05 9.3355524523395898e-05 -7.1537724504119475e-05 1.9999999985660897 -3.0000000000000000 -0.43475698895451953 
5000.0000000000000 1000.0000000000000 -4833.3333333330002 -47427389.755734935 -24476570.073373374 -118375201.56947012 0.00013584224586962593 0.00019011016622827453 -5.6983889846661423e-05 1.9999999985698835 -2.6999999995023316 -0.43475698893829634 
6000.0000000000000 1000.0000000000000 -4833.3333333330002 -47427389.756196767 -24476570.076664846 -118375201.58456439 0.00019312311275763243 0.00023975267572032977 0.00019453281164022592 1.5999999987752302 -2.6999999994932433 -0.43475698899735760 
6000.0000000000000 0.0000000000000000 -4833.3333333330002 -47427389.757039011 -24476570.075972240 -118375201.58926213 0.00013651766091600561 0.00013841725032940456 0.00016151857777232188 1.5999999987688809 -3.0000000000000000 -0.43475698901963816 
5000.0000000000000 0.0000000000000000 -5000.0000000000000 -48002296.556168713 -25051476.872227132 -120413507.49951431 9.4119107368113123e-05 4.4027939451117292e-05 -2.9514019485575323e-05 1.9999999985597252 -3.0000000000000000 0.0000000000000000 
5000.0000000000000 1000.0000000000000 -5000.0000000000000 -48002296.555242106 -25051476.872842696 -120413507.49517266 0.00013929468620515090 9.0650017975149548e-05 -2.2407003427424151e-05 1.9999999985636681 -2.6999999995003603 0.0000000000000000 
6000.0000000000000 1000.0000000000000 -5000.0000000000000 -48002296.555835009 -25051476.876267396 -120413507.51075067 0.00019971905898985031 0.00011569686206872882 0.00010329251931568178 1.5999999987703857 -2.6999999994908928 0.0000000000000000 
6000.0000000000000 0.0000000000000000 -5000.0000000000000 -48002296.556742713 -25051476.875633039 -120413507.51569325 0.00014230778374243173 6.7027855527279940e-05 8.6750191499828115e-05 1.5999999987636737 -3.0000000000000000 0.0000000000000000 
5000.0000000000000 0.0000000000000000 -4666.6666666669998 -46277524.703174777 -23326705.019406747 -114298407.29284497 8.3281681838430895e-05 0.00020181900293829343 -0.00017750429385554129 1.9999999985843375 -3.0000000000000000 -0.85463608678756608 
5000.0000000000000 1000.0000000000000 -4666.6666666669998 -46277524.702402219 -23326705.020154487 -114298407.28899306 0.00012669768164251503 0.00040481772142821472 -0.00014793817837226327 1.9999999985877595 -2.6999999995079227 -0.85463608675567670 
6000.0000000000000 1000.0000000000000 -4666.6666666669998 -46277524.702606522 -23326705.023175854 -114298407.30309035 0.00017591848849174202 0.00050171039999620060 0.00035288640741205077 1.5999999987896163 -2.6999999994997701 -0.85463608687153747 
6000.0000000000000 0.0000000000000000 -4666.6666666669998 -46277524.703332901 -23326705.022386491 -114298407.30734296 0.00012174857227510331 0.00028832014245150323 0.00028798379399962013 1.5999999987841207 -3.0000000000000000 -0.85463608691402471 
5000.0000000000000 0.0000000000000000 -4500.0000000000000 -45127556.736473069 -22176737.052917417 -110221248.13754675 7.3115800692275090e-05 0.00032816305873966929 -0.00032169244908351944 1.9999999986129016 -3.0000000000000000 -1.2596359619283777 
5000.0000000000000 1000.0000000000000 -4500.0000000000000 -45127556.735786699 -22176737.053727485 -110221248.13395007 0.00011429160663766191 0.00064759577319211401 -0.00027771126307393339 1.9999999986158534 -2.6999999995165265 -1.2596359618812609 
6000.0000000000000 1000.0000000000000 -4500.0000000000000 -45127556.735753141 -22176737.056476761 -110221248.14700688 0.00015318181220406416 0.00078635740490061445 0.00046431164067041811 1.5999999988130560 -2.6999999995095503 -1.2596359620508817 
6000.0000000000000 0.0000000000000000 -4500.0000000000000 -45127556.736390322 -22176737.055624343 -110221248.15089570 0.00010298352933370571 0.00044970553123576236 0.00037089490933796677 1.5999999988085560 -3.0000000000000000 -1.2596359621118789 
5000.0000000000000 0.0000000000000000 -4333.3333333330002 -43977485.847222857 -21026666.163954467 -106143724.07491013 6.2423648255939971e-05 0.00046877010446740947 -0.00049388009070147078 1.9999999986504340 -3.0000000000000000 -1.6497552826786581 
5000.0000000000000 1000.0000000000000 -4333.3333333330002 -43977485.846608974 -21026666.164808020 -106143724.07152116 0.00010058593314757230 0.00091176081672827850 -0.00043729681098867221 1.9999999986528965 -2.6999999995276287 -1.6497552826166881 
6000.0000000000000 1000.0000000000000 -4333.3333333330002 -43977485.846372671 -21026666.167291753 -106143724.08352147 0.00012882240477611186 0.0010850741061185401 0.00053321189029917565 1.5999999988447906 -2.6999999995218853 -1.6497552828364892 
6000.0000000000000 0.0000000000000000 -4333.3333333330002 -43977485.846941367 -21026666.166400366 -106143724.08711363 8.3799357827063459e-05 0.00061791722102798102 0.00041632920814013968 1.5999999988412577 -3.0000000000000000 -1.6497552829146118 
5000.0000000000000 0.0000000000000000 -4166.6666666669998 -42827312.026156411 -19876492.343240723 -102065835.07211627 5.2163302107486280e-05 0.00062009604665536045 -0.00068527625255185146 1.9999999986957653 -3.0000000000000000 -2.0249927172205822 
5000.0000000000000 1000.0000000000000 -4166.6666666669998 -42827312.025602326 -19876492.344121888 -102065835.06889649 8.6760112893939805e-05 0.0011914115353072760 -0.00061841206184150288 1.9999999986977650 -2.6999999995408070 -2.0249927171440887 
6000.0000000000000 1000.0000000000000 -4166.6666666669998 -42827312.025205374 -19876492.346351877 -102065835.07984532 0.00010501559956008033 0.0013915916787648318 0.00056658322319044730 1.5999999988839502 -2.6999999995362498 -2.0249927174101554 
6000.0000000000000 0.0000000000000000 -4166.6666666669998 -42827312.025721848 -19876492.345439203 -102065835.08319663 6.5931295005236144e-05 0.00078978543402431528 0.00043166196596442120 1.5999999988812825 -3.0000000000000000 -2.0249927175042797 
5000.0000000000000 0.0000000000000000 -4000.0000000000000 -41677035.264009275 -18726215.581502136 -97987581.096338883 4.2785911434722093e-05 0.00077900813394810226 -0.00088802752286343994 1.9999999987478785 -3.0000000000000000 -2.3853469336232118 
5000.0000000000000 1000.0000000000000 -4000.0000000000000 -41677035.263503507 -18726215.582397632 -97987581.093256533 7.3485801346578997e-05 0.0014814981371987059 -0.00081330072104863116 1.9999999987494621 -2.6999999995557245 -2.3853469335324911 
6000.0000000000000 1000.0000000000000 -4000.0000000000000 -41677035.262990005 -18726215.584388852 -97987581.103174955 8.2885964708416900e-05 0.0017012558156521878 0.00057234616111929168 1.5999999989296507 -2.6999999995522579 -2.3853469338407280 
6000.0000000000000 0.0000000000000000 -4000.0000000000000 -41677035.263467215 -18726215.583468281 -97987581.106331900 5.0103026378257398e-05 0.00096308118219538656 0.00042452974720464271 1.5999999989277229 -3.0000000000000000 -2.3853469339499522 
5000.0000000000000 0.0000000000000000 -3833.3333333330002 -40526655.551528186 -17575835.869476620 -93908962.114779055 3.4452009809831111e-05 0.00094275839012084430 -0.0010950230739298224 1.9999999988058863 -3.0000000000000000 -2.7308165998290486 
5000.0000000000000 1000.0000000000000 -3833.3333333330002 -40526655.551060542 -17575835.870375253 -93908962.111807734 6.1110747187695819e-05 0.0017776353592623077 -0.0010147213234287622 1.9999999988071084 -2.6999999995721242 -2.7308165997243630 
6000.0000000000000 1000.0000000000000 -3833.3333333330002 -40526655.550473683 -17575835.872144509 -93908962.120728701 6.2926265109633262e-05 0.0020104732745748343 0.00055834456764331799 1.5999999989810438 -2.6999999995696280 -2.7308166000706176 
6000.0000000000000 0.0000000000000000 -3833.3333333330002 -40526655.550922059 -17575835.871226572 -93908962.123730063 3.6491276344810892e-05 0.0011361347344866870 0.00040219166934757805 1.5999999989797298 -3.0000000000000000 -2.7308166001942227 
5000.0000000000000 0.0000000000000000 -3666.6666666669998 -39376172.879464567 -16425353.197907813 -89829978.094645500 2.7162999697201419e-05 0.0011089571685999502 -0.0012996487101245035 1.9999999988690211 -3.0000000000000000 -3.0614003836612040 
5000.0000000000000 1000.0000000000000 -3666.6666666669998 -39376172.879026070 -16425353.198799938 -89829978.091762796 4.9779563935801410e-05 0.0020759995767449945 -0.0012158198519450392 1.9999999988699337 -2.6999999995898198 -3.0614003835427814 
6000.0000000000000 1000.0000000000000 -3666.6666666669998 -39376172.878406361 -16425353.200364940 -89829978.099728018 4.5261212479426549e-05 0.0023163583531393356 0.00053188899320072002 1.5999999990373404 -2.6999999995881718 -3.0614003839229338 
6000.0000000000000 0.0000000000000000 -3666.6666666669998 -39376172.878834434 -16425353.199458327 -89829978.102606207 2.4994789753234701e-05 0.0013076099172526024 0.00037127411973984878 1.5999999990365261 -3.0000000000000000 -3.0614003840603576 
5000.0000000000000 0.0000000000000000 -3500.0000000000000 -38225587.238568299 -15274767.557539003 -85750629.003134891 2.0833677913810857e-05 0.0012755902389226352 -0.0014958719599976399 1.9999999989366239 -3.0000000000000000 -3.3770969528289854 
5000.0000000000000 1000.0000000000000 -3500.0000000000000 -38225587.238151051 -15274767.558416052 -85750629.000321954 3.9510053168574144e-05 0.0023732673447919256 -0.0014102897227886804 1.9999999989372752 -2.6999999996086865 -3.3770969526970198 
6000.0000000000000 1000.0000000000000 -3500.0000000000000 -38225587.237535313 -15274767.559794746 -85750629.007379189 2.9809491654860384e-05 0.0026164747624168134 0.00049947740244610846 1.5999999990978238 -2.6999999996077695 -3.3770969531070554 
6000.0000000000000 0.0000000000000000 -3500.0000000000000 -38225587.237950154 -15274767.558907064 -85750629.010161161 1.5382826497225141e-05 0.0014763870917947224 0.00033761000331461048 1.5999999990974125 -3.0000000000000000 -3.3770969532578601 
5000.0000000000000 0.0000000000000000 -3333.3333333330002 -37074898.619597360 -14124078.939122729 -81670914.807467490 1.5344529499380432e-05 0.0014409037985429302 -0.0016781754731033938 1.9999999990081341 -3.0000000000000000 -3.6779049749160251 
5000.0000000000000 1000.0000000000000 -3333.3333333330002 -37074898.619194463 -14124078.939976798 -81670914.804708377 3.0245446321315460e-05 0.0026664244064026872 -0.0015923465826773509 1.9999999990085660 -2.6999999996286586 -3.6779049747706760 
6000.0000000000000 1000.0000000000000 -3333.3333333330002 -37074898.618615210 -14124078.941186933 -81670914.810909495 1.6381558185307584e-05 0.0029086377822637212 0.00046669314496627695 1.5999999991618561 -2.6999999996283646 -3.6779049752067299 
6000.0000000000000 0.0000000000000000 -3333.3333333330002 -37074898.619022742 -14124078.940325219 -81670914.813617542 7.3788928055407872e-06 0.0016414639265349392 0.00030618022094636876 1.5999999991617673 -3.0000000000000000 -3.6779049753705881 
5000.0000000000000 0.0000000000000000 -3166.6666666669998 -35924107.013312086 -12973287.333415020 -77590835.474867761 1.0564986407958806e-05 0.0016032491880866139 -0.0018416369465842665 1.9999999990830843 -3.0000000000000000 -3.9638231173866392 
5000.0000000000000 1000.0000000000000 -3166.6666666669998 -35924107.012917496 -12973287.334238475 -77590835.472149178 2.1890171000292331e-05 0.0029526235228111218 -0.0017568105404799782 1.9999999990833319 -2.6999999996497150 -3.9638231172280349 
6000.0000000000000 1000.0000000000000 -3166.6666666669998 -35924107.012402646 -12973287.335297255 -77590835.477548584 4.7413710656511019e-06 0.0031907237622234327 0.00043815975704670622 1.5999999992288740 -2.6999999996499509 -3.9638231176864376 
6000.0000000000000 0.0000000000000000 -3166.6666666669998 -35924107.012807921 -12973287.334468445 -77590835.480200887 7.0352334873178936e-07 0.0018017882676949020 0.00028108294020651626 1.5999999992290446 -3.0000000000000000 -3.9638231178631047 
5000.0000000000000 0.0000000000000000 -3000.0000000000000 -34773212.410469659 -11822392.731169838 -73510390.972545534 6.3623005251894001e-06 0.0017610908340208167 -0.0019819252926941561 1.9999999991610908 -3.0000000000000000 -4.2348500475905961 
5000.0000000000000 1000.0000000000000 -3000.0000000000000 -34773212.410078049 -11822392.731954969 -73510390.969856620 1.4329002953106128e-05 0.0032291035610101837 -0.0018991291412497201 1.9999999991611794 -2.6999999996718844 -4.2348500474188322 
6000.0000000000000 1000.0000000000000 -3000.0000000000000 -34773212.409650870 -11822392.732878864 -73510390.974510223 -5.3569835030867096e-06 0.0034605829604473885 0.00041752865192225632 1.5999999992983882 -2.6999999996725705 -4.2348500478961304 
6000.0000000000000 0.0000000000000000 -3000.0000000000000 -34773212.410058230 -11822392.732090140 -73510390.977121353 -4.9051053115125610e-06 0.0019562815229596780 0.00026554044105584065 1.5999999992987688 -3.0000000000000000 -4.2348500480854296 
5000.0000000000000 0.0000000000000000 -2833.3333333330002 -33622214.801834211 -10671395.123149145 -69429581.267732203 2.6171374060114996e-06 0.0019129247946332228 -0.0020952641886100541 1.9999999992418453 -3.0000000000000000 -4.4909844327528274 
5000.0000000000000 1000.0000000000000 -2833.3333333330002 -33622214.801440857 -10671395.123887794 -69429581.265064448 7.4467248702512317e-06 0.0034930886274022891 -0.0020153441861382711 1.9999999992417972 -2.6999999996952373 -4.4909844325679762 
6000.0000000000000 1000.0000000000000 -2833.3333333330002 -33622214.801119864 -10671395.124692341 -69429581.269028589 -1.4144634429218110e-05 0.0037159429541675378 0.00040752722013994206 1.5999999993699772 -2.6999999996963058 -4.4909844330609525 
6000.0000000000000 0.0000000000000000 -2833.3333333330002 -33622214.801533103 -10671395.123951469 -69429581.271609768 -9.6744006928510128e-06 0.0021037760088112264 0.00026192824822359579 1.5999999993705307 -3.0000000000000000 -4.4909844332627609 
5000.0000000000000 0.0000000000000000 -2666.6666666669998 -32471114.178171255 -9520294.5001173001 -65348406.327661321 -7.7566000710860945e-07 0.0020571493722779327 -0.0021785643246581060 1.9999999993251083 -3.0000000000000000 -4.7322249399789964 
5000.0000000000000 1000.0000000000000 -2666.6666666669998 -32471114.177771963 -9520294.5008005798 -65348406.325008534 1.1375652481625254e-06 0.0037416414338989363 -0.0021021983058035695 1.9999999993249384 -2.6999999997198865 -4.7322249397811085 
6000.0000000000000 1000.0000000000000 -2666.6666666669998 -32471114.177570995 -9520294.5015003197 -65348406.328339681 -2.1828462567216950e-05 0.0039542661576459802 0.00040996832049367790 1.5999999994432796 -2.6999999997212800 -4.7322249402867973 
6000.0000000000000 0.0000000000000000 -2666.6666666669998 -32471114.177993454 -9520294.5008159354 -65348406.330898985 -1.3801138268980953e-05 0.0022429093907830695 0.00027177874151186653 1.5999999994439800 -3.0000000000000000 -4.7322249405010242 
5000.0000000000000 0.0000000000000000 -2500.0000000000000 -31319910.530242436 -8369090.8528358014 -61266866.119550020 -3.9035582803144521e-06 0.0021920207344033405 -0.0022293174418804881 1.9999999994106992 -3.0000000000000000 -4.9585702362594297 
5000.0000000000000 1000.0000000000000 -2500.0000000000000 -31319910.529833443 -8369090.8534537479 -61266866.116908498 -4.6905352030298199e-06 0.0039715393672804730 -0.0021570472508424003 1.9999999994104196 -2.6999999997459834 -4.9585702360485469 
6000.0000000000000 1000.0000000000000 -2500.0000000000000 -31319910.529761717 -8369090.8540621391 -61266866.119662695 -2.8576607428559710e-05 0.0041726639247026461 0.00042579353424773215 1.5999999995179905 -2.6999999997476531 -4.9585702365642419 
6000.0000000000000 0.0000000000000000 -2500.0000000000000 -31319910.530196361 -8369090.8534440789 -61266866.122205183 -1.7440699985472474e-05 0.0023720988003551506 0.00029581385682164805 1.5999999995188188 -3.0000000000000000 -4.9585702367908189 
5000.0000000000000 0.0000000000000000 -2333.3333333330002 -30168603.848815829 -7217784.1720735924 -57184960.610635549 -6.8363890315034383e-06 0.0023156128391736775 -0.0022456486259055598 1.9999999994984905 -3.0000000000000000 -5.1700189884604537 
5000.0000000000000 1000.0000000000000 -2333.3333333330002 -30168603.848393694 -7217784.1726147858 -57184960.608004078 -1.0110980219677004e-05 0.0041792291798763113 -0.0021779274669680593 1.9999999994981086 -2.6999999997737194 -5.1700189882366123 
6000.0000000000000 1000.0000000000000 -2333.3333333330002 -30168603.848455779 -7217784.1731441366 -57184960.610236697 -3.4514586104532761e-05 0.0043678308828331977 0.00045512170984465464 1.5999999995938508 -2.6999999997756245 -5.1700189887598746 
6000.0000000000000 0.0000000000000000 -2333.3333333330002 -30168603.848905321 -7217784.1726037916 -57184960.612764508 -2.0707206174735569e-05 0.0024895114804021892 0.00033398871529252195 1.5999999995947947 -3.0000000000000000 -5.1700189889987378 
5000.0000000000000 0.0000000000000000 -2166.6666666669998 -29017194.124660499 -6066374.4486016743 -53102689.768156111 -9.6236550878388660e-06 0.0024256919079633887 -0.0022264324615479262 1.9999999995883992 -3.0000000000000000 -5.3665698633291292 
5000.0000000000000 1000.0000000000000 -2166.6666666669998 -29017194.124222081 -6066374.4490528908 -53102689.765536308 -1.5172960198756870e-05 0.0043606338938245266 -0.0021636067989580115 1.9999999995879207 -2.6999999998033277 -5.3665698630923790 
6000.0000000000000 1000.0000000000000 -2166.6666666669998 -29017194.124417897 -6066374.4495143285 -53102689.767301962 -3.9725511967362198e-05 0.0045359317223956147 0.00049723428562945384 1.5999999996706427 -2.6999999998054340 -5.3665698636210388 
6000.0000000000000 0.0000000000000000 -2166.6666666669998 -29017194.124884754 -6066374.4490649356 -53102689.769814014 -2.3682666289007679e-05 0.0025929680845798303 0.00038543975989186965 1.5999999996716936 -3.0000000000000000 -5.3665698638721162 
5000.0000000000000 0.0000000000000000 -2000.0000000000000 -27865681.348541416 -4914861.6731880615 -49020053.559332468 -1.2294030597453205e-05 0.0025196132261954248 -0.0021712246591980731 1.9999999996803768 -3.0000000000000000 -5.5482215274963949 
5000.0000000000000 1000.0000000000000 -2000.0000000000000 -27865681.348083775 -4914861.6735338187 -49020053.556729048 -1.9901893071580051e-05 0.0045110244130943094 -0.0021135492554718643 1.9999999996798050 -2.6999999998350863 -5.5482215272468043 
6000.0000000000000 1000.0000000000000 -2000.0000000000000 -27865681.348408520 -4914861.6739372360 -49020053.558081508 -4.4250598029957015e-05 0.0046724066150906777 0.00055063276311793430 1.5999999997481797 -2.6999999998373587 -5.5482215277789724 
6000.0000000000000 0.0000000000000000 -2000.0000000000000 -27865681.348894931 -4914861.6735943500 -49020053.560573503 -2.6415291777352202e-05 0.0026798251202601936 0.00044855501749213578 1.5999999997493322 -3.0000000000000000 -5.5482215280421610 
5000.0000000000000 0.0000000000000000 -1833.3333333329999 -26714065.511229768 -3763245.8366081854 -44937051.951404437 -1.4859998881978929e-05 0.0025942710711968553 -0.0020803204167810126 1.9999999997744033 -3.0000000000000000 -5.7149726474699918 
5000.0000000000000 1000.0000000000000 -1833.3333333329999 -26714065.510750115 -3763245.8368302369 -44937051.948825613 -2.4303034608155332e-05 0.0046249205039458540 -0.0020279843060665007 1.9999999997737423 -2.6999999998693203 -5.7149726472076772 
6000.0000000000000 1000.0000000000000 -1833.3333333329999 -26714065.511194088 -3763245.8371842476 -44937051.949817777 -4.8089184717481253e-05 0.0047719221277083895 0.00061303431908831549 1.5999999998263006 -2.6999999998717246 -5.7149726477417371 
6000.0000000000000 0.0000000000000000 -1833.3333333329999 -26714065.511702146 -3763245.8369662203 -44937051.952281952 -2.8917718705047835e-05 0.0027469462327263878 0.00052094864622505353 1.5999999998275505 -3.0000000000000000 -5.7149726480168868 
5000.0000000000000 0.0000000000000000 -1666.6666666670001 -25562346.603497729 -2611526.9296397809 -40853684.911611952 -1.7309215477643771e-05 0.0026459350820964003 -0.0019548827521906828 1.9999999998704781 -3.0000000000000000 -5.8668218896383992 
5000.0000000000000 1000.0000000000000 -1666.6666666670001 -25562346.602993421 -2611526.9297165573 -40853684.909070030 -2.8354250865565941e-05 0.0046958462384669667 -0.0019079931327559462 1.9999999998697322 -2.6999999999064035 -5.8668218893635347 
6000.0000000000000 1000.0000000000000 -1666.6666666670001 -25562346.603541642 -2611526.9300283361 -40853684.909753688 -5.1193588240740314e-05 0.0048282014128507326 0.00068133011350870489 1.5999999999048600 -2.6999999999089050 -5.8668218898981488 
6000.0000000000000 0.0000000000000000 -1666.6666666670001 -25562346.604073260 -2611526.9299568175 -40853684.912178203 -3.1161515925217487e-05 0.0027905875363515484 0.00059939808841411469 1.5999999999062022 -3.0000000000000000 -5.8668218901850437 
5000.0000000000000 7000.0000000000000 -4833.3333333330002 -47427389.738255009 -24476570.078171141 -118375201.48224929 0.00013667493132847450 -0.00017801076922202504 -8.7943133262640650e-05 1.9999999985892800 -0.89999999923270479 -0.43475698855496414 
5000.0000000000000 6000.0000000000000 -4833.3333333330002 -47427389.740320817 -24476570.079134017 -118375201.49155274 9.9217941959014812e-05 -0.00010495105842665676 -7.6060564540825492e-05 1.9999999985863810 -1.1999999990005863 -0.43475698859267681 
5000.0000000000000 7000.0000000000000 -5000.0000000000000 -48002296.536697604 -25051476.876651645 -120413507.40398706 0.00013679799757852822 -9.2830468239493379e-05 -3.6687560608827795e-05 1.9999999985828243 -0.89999999922925222 0.0000000000000000 
5000.0000000000000 6000.0000000000000 -5000.0000000000000 -48002296.538875170 -25051476.877726153 -120413507.41371417 9.7397933721022961e-05 -5.7661417268239474e-05 -3.0900414547779837e-05 1.9999999985799919 -1.1999999989960728 0.0000000000000000 
5000.0000000000000 7000.0000000000000 -4666.6666666669998 -46277524.686894365 -23326705.026700377 -114298407.20928149 0.00013613589032232605 -0.00033406629170757243 -0.00021515289231843711 1.9999999986077042 -0.89999999924269303 -0.85463608602082342 
5000.0000000000000 6000.0000000000000 -4666.6666666669998 -46277524.688747838 -23326705.027453326 -114298407.21775630 0.00010386958133967780 -0.00018062373742078384 -0.00019088394123993087 1.9999999986046417 -1.1999999990135775 -0.85463608609295594 
5000.0000000000000 7000.0000000000000 -4500.0000000000000 -45127556.721964851 -22176737.061596248 -110221248.06095299 0.00013485574929475086 -0.00046345782278096951 -0.00038408205459930674 1.9999999986363635 -0.89999999925850105 -1.2596359608233232 
5000.0000000000000 6000.0000000000000 -4500.0000000000000 -45127556.723626375 -22176737.062165983 -110221248.06863667 0.00010971352720844286 -0.00022194986567845951 -0.00034766974151242508 1.9999999986331021 -1.1999999990340096 -1.2596359609267120 
5000.0000000000000 7000.0000000000000 -4333.3333333330002 -43977485.834235996 -21026666.173635822 -106143724.00453070 0.00013260934675397913 -0.00056993887612596234 -0.00058115566827261940 1.9999999986738006 -0.89999999927946306 -1.6497552812611114 
5000.0000000000000 6000.0000000000000 -4333.3333333330002 -43977485.835722595 -21026666.174048960 -106143724.01146071 0.00011538775926474136 -0.00023552043394201556 -0.00053383628028909954 1.9999999986703485 -1.1999999990609596 -1.6497552813927301 
5000.0000000000000 7000.0000000000000 -4166.6666666669998 -42827312.014477827 -19876492.353595346 -102065835.00728260 0.00012931671966548810 -0.00065702173981582463 -0.00079574095739092540 1.9999999987187902 -0.89999999930496255 -2.0249927155136906 
5000.0000000000000 6000.0000000000000 -4166.6666666669998 -42827312.015804127 -19876492.353877909 -102065835.01349628 0.00012005084400453175 -0.00022733576980238056 -0.00073930206208116882 1.9999999987151820 -1.1999999990936006 -2.0249927156706460 
5000.0000000000000 7000.0000000000000 -4000.0000000000000 -41677035.253455527 -18726215.592245091 -97987581.036459118 0.00012499504127513872 -0.00072797882149887804 -0.0010192697792692296 1.9999999987702952 -0.89999999933443064 -2.3853469316477809 
5000.0000000000000 6000.0000000000000 -4000.0000000000000 -41677035.254634432 -18726215.592422064 -97987581.041993633 0.00012323049460223625 -0.00020288147038421018 -0.00095574220408176167 1.9999999987665797 -1.1999999991311938 -2.3853469318273173 
5000.0000000000000 7000.0000000000000 -3833.3333333330002 -40526655.541939713 -17575835.880359717 -93908962.059329644 0.00011972070423472315 -0.00078581292587351576 -0.0012445266177888625 1.9999999988274337 -0.89999999936734565 -2.7308165976038241 
5000.0000000000000 6000.0000000000000 -3833.3333333330002 -40526655.542982861 -17575835.880454648 -93908962.064221978 0.00012470713685923491 -0.00016715354429720075 -0.0011759807056477775 1.9999999988236683 -1.1999999991730801 -2.7308165978033192 
5000.0000000000000 7000.0000000000000 -3666.6666666669998 -39376172.870701276 -16425353.208713129 -89829978.043163791 0.00011360078010452267 -0.00083325458861728628 -0.0014652478656487764 1.9999999988894628 -0.89999999940323072 -3.0614003812031316 
5000.0000000000000 6000.0000000000000 -3666.6666666669998 -39376172.871619374 -16425353.208747791 -89829978.047450870 0.00012443010501378516 -0.00012467784826507104 -0.0013936488857353502 1.9999999988857025 -1.1999999992186741 -3.0614003814200981 
5000.0000000000000 7000.0000000000000 -3500.0000000000000 -38225587.230506420 -15274767.568073461 -85750628.955213472 0.00010675212124534681 -0.00087273936271240989 -0.0016759337448653414 1.9999999989557540 -0.89999999944165210 -3.3770969501534305 
5000.0000000000000 6000.0000000000000 -3500.0000000000000 -38225587.231309377 -15274767.568067513 -85750628.958931923 0.00012244837076173508 -7.9493320038943053e-05 -0.0016030611328865375 1.9999999989520529 -1.1999999992674579 -3.3770969503855151 
5000.0000000000000 7000.0000000000000 -3333.3333333330002 -37074898.612126909 -14124078.949213376 -81670914.762748957 9.9287211202578375e-05 -0.00090637772794747301 -0.0018716548222299373 1.9999999990257806 -0.89999999948221476 -3.6779049720369836 
5000.0000000000000 6000.0000000000000 -3333.3333333330002 -37074898.612824015 -14124078.949184157 -81670914.765935302 0.00011886787570752853 -3.5130455429009715e-05 -0.0017990736173565610 1.9999999990221897 -1.1999999993189758 -3.6779049722819659 
5000.0000000000000 7000.0000000000000 -3166.6666666669998 -35924107.006334968 -12973287.342904963 -77590835.433040649 9.1307803280452841e-05 -0.00093593964992337293 -0.0020480112267554098 1.9999999990991102 -0.89999999952456311 -3.9638231143169209 
5000.0000000000000 6000.0000000000000 -3166.6666666669998 -35924107.006934971 -12973287.342867298 -77590835.435731232 0.00011382486371215273 5.3878654911964735e-06 -0.0019770472021793462 1.9999999990956725 -1.1999999993728310 -3.9638231145727221 
5000.0000000000000 7000.0000000000000 -3000.0000000000000 -34773212.403898165 -11822392.739914645 -73510390.933340698 8.2898531344765514e-05 -0.00096284508217567896 -0.0022010961092301575 1.9999999991753881 -0.89999999956837473 -4.2348500443419965 
5000.0000000000000 6000.0000000000000 -3000.0000000000000 -34773212.404409245 -11822392.739880664 -73510390.935571581 0.00010745983463001029 3.9544927320164788e-05 -0.0021328245732779457 1.9999999991721444 -1.1999999994286785 -4.2348500446066746 
5000.0000000000000 7000.0000000000000 -2833.3333333330002 -33622214.795589730 -10671395.131013568 -69429581.230919614 7.4121452708965520e-05 -0.00098813420893519152 -0.0023274907127640945 1.9999999992543314 -0.89999999961335864 -4.4909844293362928 
5000.0000000000000 6000.0000000000000 -2833.3333333330002 -33622214.796019591 -10671395.130992638 -69429581.232726723 9.9903335678373507e-05 6.5353382476846414e-05 -0.0022627426603001356 1.9999999992513187 -1.1999999994862203 -4.4909844296080479 
5000.0000000000000 7000.0000000000000 -2666.6666666669998 -32471114.172183353 -9520294.5069724582 -65348406.293047719 6.5018715940795045e-05 -0.0010124528581097268 -0.0024242441967415639 1.9999999993357238 -0.89999999965925348 -4.7322249364047684 
5000.0000000000000 6000.0000000000000 -2666.6666666669998 -32471114.172539204 -9520294.5069711041 -65348406.294466898 9.1270983383096076e-05 8.1351863068865196e-05 -0.0023636320395296153 1.9999999993329731 -1.1999999995452004 -4.7322249366819458 
5000.0000000000000 7000.0000000000000 -2500.0000000000000 -31319910.524447992 -8369090.8585564801 -61266866.086976893 5.5613433931085296e-05 -0.0010360422882884994 -0.0024889629154825539 1.9999999994194009 -0.89999999970582212 -4.9585702325371974 
5000.0000000000000 6000.0000000000000 -2500.0000000000000 -31319910.524736512 -8369090.8585782759 -61266866.088043667 8.1657562119554362e-05 8.6601606646515093e-05 -0.0024328738308942279 1.9999999994169433 -1.1999999996054000 -4.9585702328182952 
5000.0000000000000 7000.0000000000000 -2333.3333333330002 -30168603.843158234 -7217784.1765356939 -57184960.579977274 4.5908158193017566e-05 -0.0010587329401384122 -0.0025197750928030662 1.9999999995052491 -0.89999999975284861 -5.1700189845994871 
5000.0000000000000 6000.0000000000000 -2333.3333333330002 -30168603.843385566 -7217784.1765812133 -57184960.580726907 7.1136576296048214e-05 8.0672237157874789e-05 -0.0024684052522803671 1.9999999995031124 -1.1999999996666315 -5.1700189848831490 
5000.0000000000000 7000.0000000000000 -2166.6666666669998 -29017194.119089045 -6066374.4516798276 -53102689.739318632 3.5889468114402962e-05 -0.0010799199279917303 -0.0025153746108413275 1.9999999995931961 -0.89999999980013534 -5.3665698593384183 
5000.0000000000000 6000.0000000000000 -2166.6666666669998 -29017194.119260848 -6066374.4517466445 -53102689.739786372 5.9764364017909558e-05 6.3669592063993010e-05 -0.0024687443362320966 1.9999999995914057 -1.1999999997287345 -5.3665698596234455 
5000.0000000000000 7000.0000000000000 -2000.0000000000000 -27865681.343010630 -4914861.6747532468 -49020053.532252297 2.5533277063665597e-05 -0.0010985629148740070 -0.0024750523572197318 1.9999999996832005 -0.89999999984749823 -5.5482215233847816 
5000.0000000000000 6000.0000000000000 -2000.0000000000000 -27865681.343132049 -4914861.6748358263 -49020053.532473221 4.7580423403473884e-05 3.6228418415441732e-05 -0.0024330124804676431 1.9999999996817817 -1.1999999997915693 -5.5482215236701284 
5000.0000000000000 7000.0000000000000 -1833.3333333329999 -26714065.505698815 -3763245.8365253606 -44937051.926047876 1.4808706524142228e-05 -0.0011131737888689913 -0.0023987490257461851 1.9999999997752500 -0.89999999989476342 -5.7149726432463019 
5000.0000000000000 6000.0000000000000 -1833.3333333329999 -26714065.505774468 -3763245.8366149836 -44937051.926056981 3.4618052567618491e-05 -4.8053151102758231e-07 -0.0023610325509576362 1.9999999997742270 -1.1999999998550128 -5.7149726435310875 
5000.0000000000000 7000.0000000000000 -1666.6666666670001 -25562346.597929761 -2611526.9277653988 -40853684.887974620 3.6831544059798264e-06 -0.0011217895858358854 -0.0022871555037041417 1.9999999998693541 -0.89999999994176227 -5.8668218853115794 
5000.0000000000000 6000.0000000000000 -1666.6666666670001 -25562346.597963754 -2611526.9278500588 -40853684.887806825 2.0917105451945651e-05 -4.4738516779147555e-05 -0.0022533906320155381 1.9999999998687485 -1.1999999999189519 -5.8668218855950851 
2000.0000000000000 10000.000000000000 -4833.3333333330002 -47427389.740365654 -24476570.064524993 -118375201.41725339 2.7082291169541778e-05 -5.8163308589613198e-05 -0.00043938113169211910 3.1999999989156178 0.0000000000000000 -0.43475698829063897 
2000.0000000000000 9000.0000000000000 -4833.3333333330002 -47427389.740638271 -24476570.064811461 -118375201.41803159 5.2842084890906736e-05 -0.00010766393138438703 -0.00043924216274562531 3.1999999989147905 -0.29999999975396263 -0.43475698829295972 
1000.0000000000000 9000.0000000000000 -4833.3333333330002 -47427389.743345991 -24476570.061549280 -118375201.40062228 1.9772712736369141e-06 -0.00010482986675771581 -0.00048912627363223720 3.5999999993716081 -0.29999999975424901 -0.43475698820031361 
1000.0000000000000 10000.000000000000 -4833.3333333330002 -47427389.743085548 -24476570.061254531 -118375201.39980650 1.2751534268088935e-06 -5.6511920658438790e-05 -0.00049318510537541839 3.5999999993714513 0.0000000000000000 -0.43475698819755604 
2000.0000000000000 10000.000000000000 -5000.0000000000000 -48002296.538152173 -25051476.862338834 -120413507.33661911 2.7222918599603398e-05 -2.9560054337680021e-05 -0.00020978576090935425 3.1999999989107626 0.0000000000000000 0.0000000000000000 
2000.0000000000000 9000.0000000000000 -5000.0000000000000 -48002296.538435578 -25051476.862635363 -120413507.33743092 5.3112205520295554e-05 -5.4776145334170919e-05 -0.00020970919121379036 3.1999999989099299 -0.29999999975296032 0.0000000000000000 
1000.0000000000000 9000.0000000000000 -5000.0000000000000 -48002296.540899418 -25051476.859060701 -120413507.31884259 9.8808736523605170e-07 -5.3413498437508090e-05 -0.00023954853036570189 3.5999999993670810 -0.29999999975320507 0.0000000000000000 
1000.0000000000000 10000.000000000000 -5000.0000000000000 -48002296.540627494 -25051476.858754322 -120413507.31798658 7.5458659109915506e-07 -2.8749888152310315e-05 -0.00024159761415139827 3.5999999993668927 0.0000000000000000 0.0000000000000000 
2000.0000000000000 10000.000000000000 -4666.6666666669998 -46277524.690238059 -23326705.014332466 -114298407.14886378 2.6670857933337393e-05 -0.00011339469247557525 -0.00093182559180560295 3.1999999989292283 0.0000000000000000 -0.85463608550675729 
2000.0000000000000 9000.0000000000000 -4666.6666666669998 -46277524.690488175 -23326705.014598433 -114298407.14957441 5.2041913433956144e-05 -0.00020952767795465280 -0.00093156152407712677 3.1999999989284138 -0.29999999975690633 -0.85463608551123749 
1000.0000000000000 9000.0000000000000 -4666.6666666669998 -46277524.693565093 -23326705.011885561 -114298407.13429917 4.5401434618108688e-06 -0.00020368245285785059 -0.00099910742096278389 3.5999999993834599 -0.29999999975729447 -0.85463608533795443 
1000.0000000000000 10000.000000000000 -4666.6666666669998 -46277524.693327516 -23326705.011613984 -114298407.13356313 2.6241045991473171e-06 -0.00011006182611491988 -0.0010070217279807370 3.5999999993833818 0.0000000000000000 -0.85463608533271829 
2000.0000000000000 10000.000000000000 -4500.0000000000000 -45127556.726368405 -22176737.050392933 -110221248.00478873 2.5999978331816695e-05 -0.00016456367857493363 -0.0014792052537249535 3.1999999989498398 0.0000000000000000 -1.2596359600735372 
2000.0000000000000 9000.0000000000000 -4500.0000000000000 -45127556.726594739 -22176737.050638016 -110221248.00543150 5.0735730482561058e-05 -0.00030340818759729785 -0.0014788319447821302 3.1999999989490444 -0.29999999976165587 -1.2596359600800042 
1000.0000000000000 9000.0000000000000 -4500.0000000000000 -45127556.729846768 -22176737.048340600 -110221247.99187745 7.8654034492426574e-06 -0.00029464581574461688 -0.0015167243333866042 3.5999999993998242 -0.29999999976216912 -1.2596359598360014 
1000.0000000000000 10000.000000000000 -4500.0000000000000 -45127556.729631767 -22176737.048091829 -110221247.99121954 4.3658898651772077e-06 -0.00015967173004567556 -0.0015280092578780944 3.5999999993998415 0.0000000000000000 -1.2596359598285616 
2000.0000000000000 10000.000000000000 -4333.3333333330002 -43977485.839507416 -21026666.163480442 -106143723.95231251 2.5081420568632104e-05 -0.00021153245393288077 -0.0020607899962570551 3.1999999989760246 0.0000000000000000 -1.6497552802890851 
2000.0000000000000 9000.0000000000000 -4333.3333333330002 -43977485.839709572 -21026666.163704850 -106143723.95288752 4.8954132064425333e-05 -0.00038914024896597290 -0.0020603492128085116 3.1999999989752550 -0.29999999976806319 -1.6497552802973576 
1000.0000000000000 9000.0000000000000 -4333.3333333330002 -43977485.843013249 -21026666.161718987 -106143723.94070534 1.1300188875704068e-05 -0.00037791426442897018 -0.0020210498885928616 3.5999999994189413 -0.29999999976870240 -1.6497552799906996 
1000.0000000000000 10000.000000000000 -4333.3333333330002 -43977485.842820391 -21026666.161492292 -106143723.94012368 6.1486390678293819e-06 -0.00020538229350362049 -0.0020350008909431928 3.5999999994190550 0.0000000000000000 -1.6497552799813249 
2000.0000000000000 10000.000000000000 -4166.6666666669998 -42827312.020422846 -19876492.344373435 -102065834.95872207 2.3938278441659073e-05 -0.00025431408854550850 -0.0026603258177827077 3.1999999990066716 0.0000000000000000 -2.0249927143323947 
2000.0000000000000 9000.0000000000000 -4166.6666666669998 -42827312.020601027 -19876492.344577778 -102065834.95922984 4.6740215320048686e-05 -0.00046682771211860227 -0.0026599028289689495 3.1999999990059340 -0.29999999977597475 -2.0249927143422823 
1000.0000000000000 9000.0000000000000 -4166.6666666669998 -42827312.023878694 -19876492.342822094 -102065834.94812557 1.4459892107859195e-05 -0.00045377866967785300 -0.0025023759182606887 3.5999999994397389 -0.29999999977672731 -2.0249927139794042 
1000.0000000000000 10000.000000000000 -4166.6666666669998 -42827312.023707405 -19876492.342616495 -102065834.94761810 7.7726798112979132e-06 -0.00024728833905004262 -0.0025182099286601869 3.5999999994399388 0.0000000000000000 -2.0249927139683570 
2000.0000000000000 10000.000000000000 -4000.0000000000000 -41677035.259885691 -18726215.583846379 -97987580.991283149 2.2602897153709245e-05 -0.00029301870363885295 -0.0032653940627749242 3.1999999990409442 0.0000000000000000 -2.3853469302696690 
2000.0000000000000 9000.0000000000000 -4000.0000000000000 -41677035.260040499 -18726215.584031537 -97987580.991724730 4.4153367152656160e-05 -0.00053675993253572902 -0.0032650918421136326 3.1999999990402439 -0.29999999978523517 -2.3853469302809756 
1000.0000000000000 9000.0000000000000 -4000.0000000000000 -41677035.263244681 -18726215.582442991 -97987580.981457025 1.7138856843988879e-05 -0.00052259471590018194 -0.0029573443602706950 3.5999999994616014 -0.29999999978608144 -2.3853469298669219 
1000.0000000000000 10000.000000000000 -4000.0000000000000 -41677035.263094306 -18726215.582257353 -97987580.981021360 9.1385898676755747e-06 -0.00028552226765464809 -0.0029743035949260301 3.5999999994618745 0.0000000000000000 -2.3853469298544581 
2000.0000000000000 10000.000000000000 -3833.3333333330002 -40526655.548676819 -17575835.872679751 -93908962.017279640 2.1110275828447444e-05 -0.00032781730961065032 -0.0038666383080978297 3.1999999990782397 0.0000000000000000 -2.7308165960408002 
2000.0000000000000 9000.0000000000000 -3833.3333333330002 -40526655.548809111 -17575835.872846726 -93908962.017656446 4.1256943196689831e-05 -0.00059933742488643726 -0.0038665605581104539 3.1999999990775807 -0.29999999979569103 -2.7308165960533262 
1000.0000000000000 9000.0000000000000 -3833.3333333330002 -40526655.551911302 -17575835.871376857 -93908962.008031040 1.9238948328908478e-05 -0.00058475555482700363 -0.0033859156835258030 3.5999999994842087 -0.29999999979660780 -2.7308165955919956 
1000.0000000000000 10000.000000000000 -3833.3333333330002 -40526655.551781118 -17575835.871209994 -93908962.007664591 1.0198484971732084e-05 -0.00032023934323382574 -0.0034032998996051901 3.5999999994845417 0.0000000000000000 -2.7308165955783616 
2000.0000000000000 10000.000000000000 -3666.6666666669998 -39376172.877579540 -16425353.201654796 -89829978.003997386 1.9491378900837904e-05 -0.00035891438854583938 -0.0044569126019492738 3.1999999991181500 0.0000000000000000 -3.0614003794665257 
2000.0000000000000 9000.0000000000000 -3666.6666666669998 -39376172.877690345 -16425353.201804629 -89829978.004311204 3.8115111405073985e-05 -0.00065501603175421007 -0.0044571756681654334 3.1999999991175376 -0.29999999980719250 -3.0614003794800704 
1000.0000000000000 9000.0000000000000 -3666.6666666669998 -39376172.880672798 -16425353.200415956 -89829977.995172977 2.0729960638715145e-05 -0.00064066467268561087 -0.0037895438513229946 3.5999999995074390 -0.29999999980815573 -3.0614003789744300 
1000.0000000000000 10000.000000000000 -3666.6666666669998 -39376172.880561993 -16425353.200266698 -89829977.994872928 1.0934414273589360e-05 -0.00035160280708803330 -0.0038067399566591616 3.5999999995078151 0.0000000000000000 -3.0614003789598669 
2000.0000000000000 10000.000000000000 -3500.0000000000000 -38225587.237372600 -15274767.561547806 -85750628.918705285 1.7779889816320006e-05 -0.00038651870629434633 -0.0050306459947493786 3.1999999991604273 0.0000000000000000 -3.3770969482540028 
2000.0000000000000 9000.0000000000000 -3500.0000000000000 -38225587.237463042 -15274767.561681487 -85750628.918958277 3.4791861819099489e-05 -0.00070426294388115573 -0.0050313383747548285 3.1999999991598647 -0.29999999981959485 -3.3770969482683673 
1000.0000000000000 9000.0000000000000 -3500.0000000000000 -38225587.240313269 -15274767.560344806 -85750628.910184577 2.1625132134656228e-05 -0.00069070906633239646 -0.0041700710179932406 3.5999999995312875 -0.29999999982058095 -3.3770969477206445 
1000.0000000000000 10000.000000000000 -3500.0000000000000 -38225587.240220994 -15274767.560212057 -85750628.909947872 1.1358021004825646e-05 -0.00037976870768056985 -0.0041865744551938967 3.5999999995316920 0.0000000000000000 -3.3770969477053785 
2000.0000000000000 10000.000000000000 -3333.3333333330002 -37074898.618839405 -14124078.943140123 -81670914.728691623 1.6007699886074844e-05 -0.00041082645512685568 -0.0055831829851332422 3.1999999992049566 0.0000000000000000 -3.6779049699849296 
2000.0000000000000 9000.0000000000000 -3333.3333333330002 -37074898.618910700 -14124078.943258526 -81670914.728886336 3.1347799819714714e-05 -0.00074752392277010636 -0.0055843795510862057 3.1999999992044468 -0.29999999983275932 -3.6779049699999180 
1000.0000000000000 9000.0000000000000 -3333.3333333330002 -37074898.621617883 -14124078.941950923 -81670914.720381662 2.1962078543199804e-05 -0.00073523993159594584 -0.0045290578486847487 3.5999999995558309 -0.29999999983374614 -3.6779049694117587 
1000.0000000000000 10000.000000000000 -3333.3333333330002 -37074898.621543258 -14124078.941833727 -81670914.720204994 1.1491476426407645e-05 -0.00040488096424064543 -0.0045444518462968283 3.5999999995562519 0.0000000000000000 -3.6779049693960064 
2000.0000000000000 10000.000000000000 -3166.6666666669998 -35924107.012762375 -12973287.337212775 -77590835.401245505 1.4202841040631430e-05 -0.00043201394286847045 -0.0061102713288477897 3.1999999992517321 0.0000000000000000 -3.9638231121219047 
2000.0000000000000 9000.0000000000000 -3166.6666666669998 -35924107.012815744 -12973287.337316582 -77590835.401384756 2.7837945230441266e-05 -0.00078519609495835687 -0.0061120458420436084 3.1999999992512760 -0.29999999984655307 -3.9638231121373271 
1000.0000000000000 9000.0000000000000 -3166.6666666669998 -35924107.015368395 -12973287.336019957 -77590835.393076494 2.1789740317175355e-05 -0.00077455213314240614 -0.0048674421442565447 3.5999999995812066 -0.29999999984752046 -3.9638231115099321 
1000.0000000000000 10000.000000000000 -3166.6666666669998 -35924107.015310496 -12973287.335917559 -77590835.392956287 1.1358113866019659e-05 -0.00042705753652050489 -0.0048814080234908745 3.5999999995816307 0.0000000000000000 -3.9638231114938991 
2000.0000000000000 10000.000000000000 -3000.0000000000000 -34773212.409917437 -11822392.734541127 -73510390.903637916 1.2391137370541502e-05 -0.00045022114518517096 -0.0066078412130966798 3.1999999993008417 0.0000000000000000 -4.2348500420131856 
2000.0000000000000 9000.0000000000000 -3000.0000000000000 -34773212.409954131 -11822392.734630791 -73510390.903724954 2.4305570933758151e-05 -0.00081759983677242036 -0.0066102269299928729 3.1999999993004398 -0.29999999986085008 -4.2348500420288593 
1000.0000000000000 9000.0000000000000 -3000.0000000000000 -34773212.412338413 -11822392.733330699 -73510390.895559624 2.1158082853992991e-05 -0.00080886354589733260 -0.0051854125708832889 3.5999999996075869 -0.29999999986177966 -4.2348500413631074 
1000.0000000000000 10000.000000000000 -3000.0000000000000 -34773212.412296325 -11822392.733242625 -73510390.895492136 1.0985152935708498e-05 -0.00044638289175651124 -0.0051977283813361159 3.5999999996080043 0.0000000000000000 -4.2348500413469816 
2000.0000000000000 10000.000000000000 -2833.3333333330002 -33622214.801084355 -10671395.125905259 -69429581.203158647 1.0589446220034028e-05 -0.00046554334634063029 -0.0070716208979832666 3.1999999993524515 0.0000000000000000 -4.4909844268824033 
2000.0000000000000 9000.0000000000000 -2833.3333333330002 -33622214.801105589 -10671395.125980940 -69429581.203196943 2.0783597524735258e-05 -0.00084495910858357589 -0.0070746400011230011 3.1999999993521051 -0.29999999987553011 -4.4909844268981578 
1000.0000000000000 9000.0000000000000 -2833.3333333330002 -33622214.803304255 -10671395.124665761 -69429581.195137560 2.0116846774901610e-05 -0.00083830091931552078 -0.0054822846704004578 3.5999999996351830 -0.29999999987640552 -4.4909844261946974 
1000.0000000000000 10000.000000000000 -2833.3333333330002 -33622214.803277060 -10671395.124591827 -69429581.195118815 1.0401274726499631e-05 -0.00046289704878397559 -0.0054928035559988287 3.5999999996355836 0.0000000000000000 -4.4909844261786569 
2000.0000000000000 10000.000000000000 -2666.6666666669998 -32471114.177041553 -9520294.5020847283 -65348406.267097354 8.8034338576670204e-06 -0.00047802352284258211 -0.0074969259997077252 3.1999999994068031 0.0000000000000000 -4.7322249338341233 
2000.0000000000000 9000.0000000000000 -2666.6666666669998 -32471114.177048478 -9520294.5021462347 -65348406.267090626 1.7292089964172288e-05 -0.00086739006499188557 -0.0075005730180913114 3.1999999994065118 -0.29999999989047871 -4.7322249338497935 
1000.0000000000000 9000.0000000000000 -2666.6666666669998 -32471114.179039963 -9520294.5008065142 -65348406.259114601 1.8712036556848972e-05 -0.00086288702261459835 -0.0057564255299151750 3.5999999996642309 -0.29999999989128540 -4.7322249331091450 
1000.0000000000000 10000.000000000000 -2666.6666666669998 -32471114.179026801 -9520294.5007468667 -65348406.259140365 9.6271820774880909e-06 -0.00047659215519090350 -0.0057650844353047707 3.5999999996646066 0.0000000000000000 -4.7322249330933488 
2000.0000000000000 10000.000000000000 -2500.0000000000000 -31319910.528560992 -8369090.8538533850 -61266866.062725246 7.0408988880142784e-06 -0.00048764325519587014 -0.0078784884454548600 3.1999999994642034 0.0000000000000000 -4.9585702298577852 
2000.0000000000000 9000.0000000000000 -2500.0000000000000 -31319910.528554730 -8369090.8539001625 -61266866.062677518 1.3844430678346561e-05 -0.00088488449949781112 -0.0078827270955234233 3.1999999994639667 -0.29999999990558607 -4.9585702298732253 
1000.0000000000000 9000.0000000000000 -2500.0000000000000 -31319910.530312490 -8369090.8525281064 -61266866.054774940 1.6986681647127909e-05 -0.00088252191632112850 -0.0060053045135254456 3.5999999996949978 -0.29999999990631127 -4.9585702290958418 
1000.0000000000000 10000.000000000000 -2500.0000000000000 -31319910.530312482 -8369090.8524832837 -61266866.054840803 8.6849542563081971e-06 -0.00048740024005472428 -0.0060121251630184946 3.5999999996953407 0.0000000000000000 -4.9585702290804310 
2000.0000000000000 10000.000000000000 -2333.3333333330002 -30168603.846418716 -7217784.1719898144 -57184960.557331651 5.3043928242570828e-06 -0.00049430916148950619 -0.0082102535742887665 3.1999999995250255 0.0000000000000000 -5.1700189818190250 
2000.0000000000000 9000.0000000000000 -2333.3333333330002 -30168603.846400313 -7217784.1720208963 -57184960.557247169 1.0442472985761012e-05 -0.00089728920675274113 -0.0082150476210836858 3.1999999995248443 -0.29999999992074700 -5.1700189818341009 
1000.0000000000000 9000.0000000000000 -2333.3333333330002 -30168603.847892113 -7217784.1706099892 -57184960.549419738 1.4979424452510405e-05 -0.00089697274968933254 -0.0062254335812118337 3.5999999997277792 -0.29999999992137921 -5.1700189810204504 
1000.0000000000000 10000.000000000000 -2333.3333333330002 -30168603.847904447 -7217784.1705809273 -57184960.549521059 7.5975652959309755e-06 -0.00049517880743929499 -0.0062304828695824909 3.5999999997280829 0.0000000000000000 -5.1700189810055486 
2000.0000000000000 10000.000000000000 -2166.6666666669998 -29017194.121389788 -6066374.4472721796 -53102689.718205601 3.5852544073651035e-06 -0.00049784966895141994 -0.0084852710643036414 3.1999999995897062 0.0000000000000000 -5.3665698564644222 
2000.0000000000000 9000.0000000000000 -2166.6666666669998 -29017194.121360209 -6066374.4472861756 -53102689.718088932 7.0728448744778352e-06 -0.00090429623820865123 -0.0084905440874015539 3.1999999995895791 -0.29999999993585919 -5.3665698564790176 
1000.0000000000000 9000.0000000000000 -2166.6666666669998 -29017194.122547381 -6066374.4458308117 -53102689.710349008 1.2723673306300301e-05 -0.00090586366226320578 -0.0064122704424228651 3.5999999997629066 -0.29999999993638854 -5.3665698556296419 
1000.0000000000000 10000.000000000000 -2166.6666666669998 -29017194.122571304 -6066374.4458189048 -53102689.710481003 6.3818794834783932e-06 -0.00049972331971653242 -0.0064156940385093775 3.5999999997631638 0.0000000000000000 -5.3665698556153494 
2000.0000000000000 10000.000000000000 -2000.0000000000000 -27865681.344243284 -4914861.6704731071 -49020053.512617312 1.8711409092893162e-06 -0.00049802298438963565 -0.0086954436970973128 3.1999999996587505 0.0000000000000000 -5.5482215204246357 
2000.0000000000000 9000.0000000000000 -2000.0000000000000 -27865681.344203398 -4914861.6704681497 -49020053.512473240 3.7150005883563595e-06 -0.00090543575440974974 -0.0087011158046283506 3.1999999996586790 -0.29999999995082277 -5.5482215204386529 
1000.0000000000000 9000.0000000000000 -2000.0000000000000 -27865681.345039956 -4914861.6689633895 -49020053.504843593 1.0247544321604360e-05 -0.00090866358521349906 -0.0065602044481164294 3.5999999998007439 -0.29999999995124038 -5.5482215195542253 
1000.0000000000000 10000.000000000000 -2000.0000000000000 -27865681.345074780 -4914861.6689704843 -49020053.505001217 5.0525654161579230e-06 -0.00050075836620650524 -0.0065621864982701103 3.5999999998009518 0.0000000000000000 -5.5482215195406255 
2000.0000000000000 10000.000000000000 -1833.3333333329999 -26714065.505752839 -3763245.8323701071 -44937051.907854885 1.4635271321022180e-07 -0.00049448928790576496 -0.0088314054822273436 3.1999999997327344 0.0000000000000000 -5.7149726402073302 
2000.0000000000000 9000.0000000000000 -1833.3333333329999 -26714065.505703419 -3763245.8323438461 -44937051.907688424 3.3782642023263367e-07 -0.00090006895018450005 -0.0088373913252077288 3.1999999997327184 -0.29999999996553878 -5.7149726402206928 
1000.0000000000000 9000.0000000000000 -1833.3333333329999 -26714065.506134965 -3763245.8307851157 -44937051.900201909 7.5769405643823079e-06 -0.00090467969071816260 -0.0066624443033511229 3.5999999998417063 -0.29999999996583654 -5.7149726393020837 
1000.0000000000000 10000.000000000000 -1833.3333333329999 -26714065.506180052 -3763245.8308135355 -44937051.900379889 3.6231383030757034e-06 -0.00049791368936786791 -0.0066631895673726340 3.5999999998418595 0.0000000000000000 -5.7149726392892326 
2000.0000000000000 10000.000000000000 -1666.6666666670001 -25562346.596691724 -2611526.9237405243 -40853684.871205971 -1.6050276309598763e-06 -0.00048682057097440302 -0.0088823173556412983 3.1999999998123125 0.0000000000000000 -5.8668218822011147 
2000.0000000000000 9000.0000000000000 -1666.6666666670001 -25562346.596633434 -2611526.9236901104 -40853684.871022411 -3.0964721358564326e-06 -0.00088737820615188579 -0.0088884992936918671 3.1999999998123529 -0.29999999997990767 -5.8668218822137668 
1000.0000000000000 9000.0000000000000 -1666.6666666670001 -25562346.596595757 -2611526.9220729042 -40853684.863721997 4.7376097533627803e-06 -0.00089305582286852681 -0.0067108190770296897 3.5999999998862577 -0.29999999998007870 -5.8668218812620987 
1000.0000000000000 10000.000000000000 -1666.6666666670001 -25562346.596650563 -2611526.9221254974 -40853684.863914922 2.1098722854478340e-06 -0.00049074781840566857 -0.0067105754509139597 3.5999999998863523 0.0000000000000000 -5.8668218812500301 
8000.0000000000000 8000.0000000000000 -4833.3333333330002 -47427389.739050284 -24476570.085527316 -118375201.51208103 7.9048173850003979e-05 -0.00016693337648122846 0.00022180020380886830 0.79999999936854427 -0.59999999947811122 -0.43475698867787493 
8000.0000000000000 9000.0000000000000 -4833.3333333330002 -47427389.738149859 -24476570.084745020 -118375201.50877498 2.1581081214229249e-05 -9.7996058746688952e-05 0.00021542789770698942 0.79999999936914368 -0.29999999973878239 -0.43475698866566553 
9000.0000000000000 9000.0000000000000 -4833.3333333330002 -47427389.739116095 -24476570.085880473 -118375201.51278767 1.8663849841841926e-05 -0.00010156940088537165 0.00012664260974729584 0.39999999968465227 -0.29999999973822328 -0.43475698868042445 
9000.0000000000000 8000.0000000000000 -4833.3333333330002 -47427389.739985175 -24476570.086704969 -118375201.51603782 6.4744036868214172e-05 -0.00017145910476142672 0.00012480295225422326 0.39999999968364952 -0.59999999947544247 -0.43475698869223278 
8000.0000000000000 8000.0000000000000 -5000.0000000000000 -48002296.537836470 -25051476.884393550 -120413507.43522140 7.8718894131066984e-05 -8.5856648112297946e-05 0.00011416080253334821 0.79999999936568822 -0.59999999947577531 0.0000000000000000 
8000.0000000000000 9000.0000000000000 -5000.0000000000000 -48002296.536887556 -25051476.883566581 -120413507.43174395 2.0775296862210656e-05 -5.0286082695366470e-05 0.00011100500424458056 0.79999999936620780 -0.29999999973758057 0.0000000000000000 
9000.0000000000000 9000.0000000000000 -5000.0000000000000 -48002296.537911020 -25051476.884759605 -120413507.43596216 1.8491391416982234e-05 -5.2016175261705408e-05 6.4889776003254610e-05 0.39999999968318717 -0.29999999973704156 0.0000000000000000 
9000.0000000000000 8000.0000000000000 -5000.0000000000000 -48002296.538825542 -25051476.885627992 -120413507.43937227 6.5259991887241822e-05 -8.8235470715731541e-05 6.3877469223613820e-05 0.39999999968218025 -0.59999999947309191 0.0000000000000000 
8000.0000000000000 8000.0000000000000 -4666.6666666669998 -46277524.687070757 -23326705.033313662 -114298407.23638129 7.9698732471545191e-05 -0.00031996145914825892 0.00042419790035101512 0.79999999937685906 -0.59999999948489358 -0.85463608625605159 
8000.0000000000000 9000.0000000000000 -4666.6666666669998 -46277524.686265528 -23326705.032616034 -114298407.23341246 2.3643826877646544e-05 -0.00018853559446536589 0.00041156020956747741 0.79999999937764721 -0.29999999974226688 -0.85463608623282528 
9000.0000000000000 9000.0000000000000 -4666.6666666669998 -46277524.687120348 -23326705.033638425 -114298407.23702042 1.9111199965380931e-05 -0.00019587726815720180 0.00024402978941616933 0.39999999968890426 -0.29999999974165598 -0.85463608626085896 
9000.0000000000000 8000.0000000000000 -4666.6666666669998 -46277524.687899753 -23326705.034377791 -114298407.23995474 6.3281027849502848e-05 -0.00032825287026792702 0.00024085763887863923 0.39999999968790684 -0.59999999948226568 -0.85463608628334620 
8000.0000000000000 8000.0000000000000 -4500.0000000000000 -45127556.721652836 -22176737.067521464 -110221248.08546755 8.0041129051101851e-05 -0.00045553744680666388 0.00060136053530938211 0.79999999939011623 -0.59999999949567873 -1.2596359611606827 
8000.0000000000000 9000.0000000000000 -4500.0000000000000 -45127556.720938846 -22176737.066899654 -110221248.08282422 2.6252859757860983e-05 -0.00026981868644324091 0.00058318068972686534 0.79999999939112498 -0.29999999974779740 -1.2596359611276193 
9000.0000000000000 9000.0000000000000 -4500.0000000000000 -45127556.721688986 -22176737.067813180 -110221248.08604036 1.9678180040864403e-05 -0.00028084512529223514 0.00034946391524552574 0.39999999969565886 -0.29999999974711894 -1.2596359611674848 
9000.0000000000000 8000.0000000000000 -4500.0000000000000 -45127556.722381637 -22176737.068473067 -110221248.08866760 6.1046986261874264e-05 -0.00046645869388365919 0.00034550163224040707 0.39999999969466188 -0.59999999949311222 -1.2596359611995516 
8000.0000000000000 8000.0000000000000 -4333.3333333330002 -43977485.833553709 -21026666.178923484 -106143724.02660578 7.9659148434908724e-05 -0.00057527060832717077 0.00075466551790689528 0.79999999940779631 -0.59999999951003680 -1.6497552816908505 
8000.0000000000000 9000.0000000000000 -4333.3333333330002 -43977485.832926430 -21026666.178369526 -106143724.02427529 2.8833717510378077e-05 -0.00034281101472622121 0.00073221673909222812 0.79999999940901456 -0.29999999975514774 -1.6497552816491088 
9000.0000000000000 9000.0000000000000 -4333.3333333330002 -43977485.833579749 -21026666.179178588 -106143724.02711354 2.0212301573384275e-05 -0.00035704167507128322 0.00044356875843994928 0.39999999970464190 -0.29999999975439823 -1.6497552816994090 
9000.0000000000000 8000.0000000000000 -4333.3333333330002 -43977485.834189326 -21026666.179765198 -106143724.02944340 5.8201746181041361e-05 -0.00058761538452963610 0.00043915448094979852 0.39999999970364242 -0.59999999950755190 -1.6497552817399834 
8000.0000000000000 8000.0000000000000 -4166.6666666669998 -42827312.013531186 -19876492.358292252 -102065835.02706201 7.8401591770434383e-05 -0.00068074876424827513 0.00088603116340726365 0.79999999942938937 -0.59999999952755878 -2.0249927160265071 
8000.0000000000000 9000.0000000000000 -4166.6666666669998 -42827312.012985781 -19876492.357798934 -102065835.02503084 3.1047853389815360e-05 -0.00040838005387430645 0.00086078279490116793 0.79999999943078504 -0.29999999976410358 -2.0249927159772141 
9000.0000000000000 9000.0000000000000 -4166.6666666669998 -42827312.013550863 -19876492.358508211 -102065835.02750617 2.0600647954606215e-05 -0.00042510995088772588 0.00052707185434364774 0.39999999971559042 -0.29999999976328873 -2.0249927160365999 
9000.0000000000000 8000.0000000000000 -4166.6666666669998 -42827312.014081575 -19876492.359027971 -102065835.02954933 5.4873204374869772e-05 -0.00069337667857059262 0.00052235131195702748 0.39999999971459022 -0.59999999952517580 -2.0249927160846428 
8000.0000000000000 8000.0000000000000 -4000.0000000000000 -41677035.252338640 -18726215.596394900 -97987581.054083899 7.6263692761627304e-05 -0.00077351180658229916 0.00099767269555447319 0.79999999945440503 -0.59999999954785854 -2.3853469322348331 
8000.0000000000000 9000.0000000000000 -4000.0000000000000 -41677035.251870155 -18726215.595955685 -97987581.052337840 3.2716172867387773e-05 -0.00046729740924508724 0.00097106902226107305 0.79999999945593803 -0.29999999977446268 -2.3853469321790750 
9000.0000000000000 9000.0000000000000 -4000.0000000000000 -41677035.252355874 -18726215.596570123 -97987581.054466158 2.0770391708298883e-05 -0.00048572507965788278 0.00060073426205972918 0.39999999972825556 -0.29999999977359471 -2.3853469322462537 
9000.0000000000000 8000.0000000000000 -4000.0000000000000 -41677035.252812251 -18726215.597029421 -97987581.056234255 5.1173245564220189e-05 -0.00078542284637262609 0.00059571389778135294 0.39999999972726030 -0.59999999954559591 -2.3853469323007563 
8000.0000000000000 8000.0000000000000 -3833.3333333330002 -40526655.540735446 -17575835.884003449 -93908962.074937418 7.3311590275165027e-05 -0.00085503622831404171 0.0010919042118318692 0.79999999948237754 -0.59999999957057459 -2.7308165982567383 
8000.0000000000000 9000.0000000000000 -3833.3333333330002 -40526655.540338874 -17575835.883612428 -93908962.073461607 3.3760593130785991e-05 -0.00052024632399681238 0.0010652547744591917 0.79999999948400502 -0.29999999978603609 -2.7308165981955557 
9000.0000000000000 9000.0000000000000 -3833.3333333330002 -40526655.540754080 -17575835.884137236 -93908962.075259820 2.0682643087126820e-05 -0.00053955839747849000 0.00066534397390901191 0.39999999974240097 -0.29999999978513059 -2.7308165982692909 
9000.0000000000000 8000.0000000000000 -3833.3333333330002 -40526655.541140795 -17575835.884542231 -93908962.076765478 4.7200851971155302e-05 -0.00086539281684540391 0.00065994402084108459 0.39999999974141914 -0.59999999956844896 -2.7308165983292843 
8000.0000000000000 8000.0000000000000 -3666.6666666669998 -39376172.869481839 -16425353.211889647 -89829978.056888700 6.9643361353434043e-05 -0.00092668674532228308 0.0011710251289755269 0.79999999951287049 -0.59999999959536965 -3.0614003819140017 
8000.0000000000000 9000.0000000000000 -3666.6666666669998 -39376172.869152181 -16425353.211541578 -89829978.055667683 3.4167242713706284e-05 -0.00056781025455794024 0.0011454594077728241 0.79999999951455092 -0.29999999979864717 -3.0614003818483813 
9000.0000000000000 9000.0000000000000 -3666.6666666669998 -39376172.869505368 -16425353.211982165 -89829978.057153761 2.0324742159616590e-05 -0.00058724485968690988 0.00072170624398006057 0.39999999975780454 -0.29999999979772146 -3.0614003819274993 
9000.0000000000000 8000.0000000000000 -3666.6666666669998 -39376172.869827151 -16425353.212338582 -89829978.058410376 4.3043556987163864e-05 -0.00093482495456478627 0.00071580295894045989 0.39999999975684636 -0.59999999959339512 -3.0614003819920543 
8000.0000000000000 8000.0000000000000 -3500.0000000000000 -38225587.229333743 -15274767.570819732 -85750628.967185602 6.5368778342096668e-05 -0.00098970396927324411 0.0012371961447191755 0.79999999954547707 -0.59999999962193062 -3.3770969509148228 
8000.0000000000000 9000.0000000000000 -3500.0000000000000 -38225587.229066104 -15274767.570510121 -85750628.966203436 3.3960558863821608e-05 -0.00061048098686906829 0.0012136409152313714 0.79999999954717260 -0.29999999981213171 -3.3770969508456963 
9000.0000000000000 9000.0000000000000 -3500.0000000000000 -38225587.229365073 -15274767.570872026 -85750628.967396319 1.9702302254766997e-05 -0.00062936146929254790 0.00077058823765038581 0.39999999977425882 -0.29999999981120334 -3.3770969509290896 
9000.0000000000000 8000.0000000000000 -3500.0000000000000 -38225587.229626648 -15274767.571184989 -85750628.968418092 3.8777869557495912e-05 -0.00099512484822070440 0.00076405064643391926 0.39999999977333478 -0.59999999962011852 -3.3770969509973225 
8000.0000000000000 8000.0000000000000 -3333.3333333330002 -37074898.611053020 -14124078.951564850 -81670914.773094475 6.0593711680943419e-05 -0.0010451818223896246 0.0012923659763871549 0.79999999957982226 -0.59999999964996775 -3.6779049728419300 
8000.0000000000000 9000.0000000000000 -3333.3333333330002 -37074898.610842571 -14124078.951289983 -81670914.772334814 3.3185125802528268e-05 -0.00064866359360854183 0.0012715487600726714 0.79999999958149892 -0.29999999982633702 -3.6779049727701643 
9000.0000000000000 9000.0000000000000 -3333.3333333330002 -37074898.611094236 -14124078.951578796 -81670914.773254231 1.8832541313312725e-05 -0.00066641239835713148 0.00081270170906838309 0.39999999979157069 -0.29999999982542286 -3.6779049728567967 
9000.0000000000000 8000.0000000000000 -3333.3333333330002 -37074898.611300267 -14124078.951852711 -81670914.774056032 3.4469080648020127e-05 -0.0010475341370275448 0.00080541060567351080 0.39999999979069095 -0.59999999964832629 -3.6779049729278759 
8000.0000000000000 8000.0000000000000 -3166.6666666669998 -35924107.005402297 -12973287.344895801 -77590835.441881761 5.5414369038417773e-05 -0.0010940328507571238 0.0013382185220071601 0.79999999961556234 -0.59999999967921402 -3.9638231151589238 
8000.0000000000000 9000.0000000000000 -3166.6666666669998 -35924107.005244344 -12973287.344652819 -77590835.441327766 3.1895645715992671e-05 -0.00068266484650402002 0.0013206792329409419 0.79999999961718971 -0.29999999984112158 -3.9638231150853231 
9000.0000000000000 9000.0000000000000 -3166.6666666669998 -35924107.005454496 -12973287.344874129 -77590835.441994309 1.7739364583749811e-05 -0.00069881877499909228 0.00084866981759619043 0.39999999980956075 -0.29999999984023723 -3.9638231151742298 
9000.0000000000000 8000.0000000000000 -3166.6666666669998 -35924107.005609550 -12973287.345112555 -77590835.442591682 3.0170251318567605e-05 -0.0010931010312004278 0.00084052921305559868 0.39999999980873491 -0.59999999967774886 -3.9638231152473762 
8000.0000000000000 8000.0000000000000 -3000.0000000000000 -34773212.403139725 -11822392.741577946 -73510390.940795809 4.9915020646293620e-05 -0.0011369633062814270 0.0013761346327413270 0.79999999965238255 -0.59999999970942275 -4.2348500452150191 
8000.0000000000000 9000.0000000000000 -3000.0000000000000 -34773212.403029725 -11822392.741364958 -73510390.940430403 3.0149377510732197e-05 -0.00071268646436902340 0.0013622451045014325 0.79999999965393431 -0.29999999985635406 -4.2348500451403224 
9000.0000000000000 9000.0000000000000 -3000.0000000000000 -34773212.403202936 -11822392.741524272 -73510390.940865323 1.6448672528453092e-05 -0.00072689388337973334 0.00087901584213709923 0.39999999982806361 -0.29999999985551362 -4.2348500452306190 
9000.0000000000000 8000.0000000000000 -3000.0000000000000 -34773212.403311417 -11822392.741729803 -73510390.941274256 2.5922243965950340e-05 -0.0011326505824873377 0.00086995681088042852 0.39999999982729989 -0.59999999970813722 -4.2348500453051114 
8000.0000000000000 8000.0000000000000 -2833.3333333330002 -33622214.795029223 -10671395.132381583 -69429581.237103537 4.4165121470522566e-05 -0.0011744635724387430 0.0014071575893507382 0.79999999968999691 -0.59999999974036722 -4.4909844302347599 
8000.0000000000000 9000.0000000000000 -2833.3333333330002 -33622214.794962823 -10671395.132197686 -69429581.236909315 2.8000767353733499e-05 -0.00073882375576735083 0.0013971322323591106 0.79999999969145008 -0.29999999987191245 -4.4909844301596360 
9000.0000000000000 9000.0000000000000 -2833.3333333330002 -33622214.795102246 -10671395.132300345 -69429581.237134278 1.4986382099168331e-05 -0.00075084053928967109 0.00090412517226777099 0.39999999984692675 -0.29999999987112852 -4.4909844302505171 
9000.0000000000000 8000.0000000000000 -2833.3333333330002 -33622214.795168392 -10671395.132474544 -69429581.237371296 2.1755274060549070e-05 -0.0011667799560589811 0.00089411195839601831 0.39999999984623269 -0.59999999973926321 -4.4909844303256969 
8000.0000000000000 8000.0000000000000 -2666.6666666669998 -32471114.171835262 -9520294.5080767311 -65348406.298072025 3.8217178875218128e-05 -0.0012067818784828684 0.0014319908249265168 0.79999999972814462 -0.59999999977183804 -4.7322249373235650 
8000.0000000000000 9000.0000000000000 -2666.6666666669998 -32471114.171808276 -9520294.5079220869 -65348406.298031226 2.5498765678234742e-05 -0.00076105943983829981 0.0014258976239915129 0.79999999972947977 -0.29999999988768339 -4.7322249372486089 
9000.0000000000000 9000.0000000000000 -2666.6666666669998 -32471114.171915650 -9520294.5079732630 -65348406.298068419 1.3376922298883018e-05 -0.00077073981489058632 0.00092422987418707444 0.39999999986600926 -0.29999999988696713 -4.7322249373393541 
9000.0000000000000 8000.0000000000000 -2666.6666666669998 -32471114.171943519 -9520294.5081165768 -65348406.298150480 1.7687759361796826e-05 -0.0011958229245539343 0.00091326655317843679 0.39999999986539120 -0.59999999977091611 -4.7322249374146317 
8000.0000000000000 8000.0000000000000 -2500.0000000000000 -31319910.524317630 -8369090.8594280286 -61266866.090950117 3.2109509819042418e-05 -0.0012339026862192464 0.0014509845251063148 0.79999999976658942 -0.59999999980364194 -4.9585702334716677 
8000.0000000000000 9000.0000000000000 -2500.0000000000000 -31319910.524326168 -8369090.8593039997 -61266866.091044977 2.2686706117028783e-05 -0.00077924854550436907 0.0014487721583628028 0.79999999976778902 -0.29999999990356119 -4.9585702333973964 
9000.0000000000000 9000.0000000000000 -2500.0000000000000 -31319910.524401672 -8369090.8593085948 -61266866.090916835 1.1640681366852651e-05 -0.00078653782638982627 0.00093942119833784340 0.39999999988518148 -0.29999999990292220 -4.9585702334873796 
9000.0000000000000 8000.0000000000000 -2500.0000000000000 -31319910.524395064 -8369090.8594202492 -61266866.090861097 1.3727081900686788e-05 -0.0012198449247388195 0.00092754380033559757 0.39999999988464502 -0.59999999980290097 -4.9585702335622264 
8000.0000000000000 8000.0000000000000 -2333.3333333330002 -30168603.843241744 -7217784.1772051333 -57184960.583005346 2.5866984612619880e-05 -0.0012555492519324871 0.0014641158130576639 0.79999999980511471 -0.59999999983559871 -5.1700189855454299 
8000.0000000000000 9000.0000000000000 -2333.3333333330002 -30168603.843282115 -7217784.1771142557 -57184960.583217822 1.9602949021859060e-05 -0.00079312397967145308 0.0014656327449228011 0.79999999980616354 -0.29999999991944643 -5.1700189854722929 
9000.0000000000000 9000.0000000000000 -2333.3333333330002 -30168603.843324330 -7217784.1770768557 -57184960.582946859 9.7950191391878121e-06 -0.00079805123281166841 0.00094961986729624032 0.39999999990432350 -0.29999999991889298 -5.1700189855609713 
9000.0000000000000 8000.0000000000000 -2333.3333333330002 -30168603.843286842 -7217784.1771548530 -57184960.582770921 9.8696834445511900e-06 -0.0012386391347737533 0.00093688713264669979 0.39999999990387319 -0.59999999983503782 -5.1700189856349299 
8000.0000000000000 8000.0000000000000 -2166.6666666669998 -29017194.119373322 -6066374.4521775143 -53102689.741505243 1.9498986575853922e-05 -0.0012711474539137840 0.0014709963380600335 0.79999999984352144 -0.59999999986753971 -5.3665698602920955 
8000.0000000000000 9000.0000000000000 -2166.6666666669998 -29017194.119442146 -6066374.4521236150 -53102689.741817281 1.6277298496695447e-05 -0.00080228407862167450 0.0014759884100493930 0.79999999984440617 -0.29999999993524501 -5.3665698602204568 
9000.0000000000000 9000.0000000000000 -2166.6666666669998 -29017194.119448021 -6066374.4520484721 -53102689.741426095 7.8523035119246965e-06 -0.00080494996902240421 0.00095455327183966278 0.39999999992332341 -0.29999999993478466 -5.3665698603073793 
9000.0000000000000 8000.0000000000000 -2166.6666666669998 -29017194.119382970 -6066374.4520894634 -53102689.741147667 6.1001177921654048e-06 -0.0012516928289528196 0.00094105653777182437 0.39999999992296320 -0.59999999986715757 -5.3665698603800740 
8000.0000000000000 8000.0000000000000 -2000.0000000000000 -27865681.343473230 -4914861.6751093837 -49020053.533699259 1.3000466489802806e-05 -0.0012798129342230600 0.0014708526896036512 0.79999999988162473 -0.59999999989930430 -5.5482215243429120 
8000.0000000000000 9000.0000000000000 -2000.0000000000000 -27865681.343567457 -4914861.6750976220 -49020053.534092754 1.2731861580744302e-05 -0.00080617900341453078 0.0014789872191128589 0.79999999988233350 -0.29999999995086696 -5.5482215242730568 
9000.0000000000000 9000.0000000000000 -2000.0000000000000 -27865681.343532234 -4914861.6749885827 -49020053.533603832 5.8181912071434243e-06 -0.00080674819914074614 0.00095376523612576334 0.39999999994207536 -0.29999999995050636 -5.5482215243578725 
9000.0000000000000 8000.0000000000000 -2000.0000000000000 -27865681.343442596 -4914861.6749878014 -49020053.533240631 2.3906532931231193e-06 -0.0012581811777006104 0.00093962400718556683 0.39999999994180951 -0.59999999989910091 -5.5482215244289961 
8000.0000000000000 8000.0000000000000 -1833.3333333329999 -26714065.506307792 -3763245.8367700847 -44937051.926855393 6.3513862973772384e-06 -0.0012803649567034146 0.0014625324863066693 0.79999999991925030 -0.59999999993073849 -5.7149726442060693 
8000.0000000000000 9000.0000000000000 -1833.3333333329999 -26714065.506424706 -3763245.8368070116 -44937051.927312315 8.9843048992011091e-06 -0.00080412068558113078 0.0014734095279838684 0.79999999991977233 -0.29999999996622490 -5.7149726441382054 
9000.0000000000000 9000.0000000000000 -1833.3333333329999 -26714065.506341875 -3763245.8366674781 -44937051.926747948 3.6941415341685964e-06 -0.00080281610557015942 0.00094660621779896529 0.39999999996047902 -0.29999999996596988 -5.7149726442206576 
9000.0000000000000 8000.0000000000000 -1833.3333333329999 -26714065.506230351 -3763245.8366187317 -44937051.926317804 -1.2990152822236031e-06 -0.0012569724408561995 0.00093196317043777171 0.39999999996031155 -0.59999999993071429 -5.7149726442899800 
8000.0000000000000 8000.0000000000000 -1666.6666666670001 -25562346.598643448 -2611526.9279288738 -40853684.888241574 -4.8356815885795038e-07 -0.0012712895263334537 0.0014444843213687088 0.79999999995623061 -0.59999999996169018 -5.8668218862706292 
8000.0000000000000 9000.0000000000000 -1666.6666666670001 -25562346.598780669 -2611526.9280224415 -40853684.888743870 5.0450024360156607e-06 -0.00079526796586170702 0.0014576346328469061 0.79999999995655557 -0.29999999998123289 -5.8668218862048827 
9000.0000000000000 9000.0000000000000 -1666.6666666670001 -25562346.598641917 -2611526.9278553557 -40853684.888126105 1.4772280635963788e-06 -0.00079236021978296416 0.00093221020898541680 0.39999999997843638 -0.29999999998108895 -5.8668218862848107 
9000.0000000000000 8000.0000000000000 -1666.6666666670001 -25562346.598510936 -2611526.9277510149 -40853684.887647077 -5.0224054889212610e-06 -0.0012466033481745259 0.00091723663825957582 0.39999999997837182 -0.59999999996184805 -5.8668218863521879 
8000.0000000000000 7000.0000000000000 -4833.3333333330002 -47427389.740581006 -24476570.086555138 -118375201.51791306 0.00018976781651324572 -0.00018904654452639476 0.00021686179517530865 0.79999999936462440 -0.89999999922407770 -0.43475698869959473 
7000.0000000000000 7000.0000000000000 -4833.3333333330002 -47427389.739361130 -24476570.084553272 -118375201.51053114 0.00011272615957189203 -0.00019423916892324908 0.00023276596090509094 1.1999999990584385 -0.89999999922968221 -0.43475698867417817 
7000.0000000000000 8000.0000000000000 -4833.3333333330002 -47427389.737816572 -24476570.083553128 -118375201.50471777 7.0295857909986789e-05 -0.00015833459307365577 0.00022598915838498661 1.1999999990608343 -0.59999999947953520 -0.43475698865146212 
8000.0000000000000 7000.0000000000000 -5000.0000000000000 -48002296.539442956 -25051476.885492124 -120413507.44131894 0.00019247950483985607 -9.8141448133493971e-05 0.00011168889135615600 0.79999999936175137 -0.89999999922071361 0.0000000000000000 
7000.0000000000000 7000.0000000000000 -5000.0000000000000 -48002296.538129210 -25051476.883393109 -120413507.43360309 0.00011246806620285107 -0.00010068250531789882 0.00012157509367890190 1.1999999990541754 -0.89999999922639218 0.0000000000000000 
7000.0000000000000 8000.0000000000000 -5000.0000000000000 -48002296.536507532 -25051476.882321835 -120413507.42751609 6.9578021787314293e-05 -8.1480921035586814e-05 0.00011812033268138830 1.1999999990565144 -0.59999999947709270 0.0000000000000000 
8000.0000000000000 7000.0000000000000 -4666.6666666669998 -46277524.688451804 -23326705.034206301 -114298407.24168970 0.00018235660714432692 -0.00035691163642092395 0.00041431039710369149 0.79999999937299382 -0.89999999923385132 -0.85463608629768750 
7000.0000000000000 7000.0000000000000 -4666.6666666669998 -46277524.687414877 -23326705.032398351 -114298407.23497009 0.00011326684604368392 -0.00036752424413204025 0.00043520208809577296 1.1999999990708206 -0.89999999923926566 -0.85463608624853449 
7000.0000000000000 8000.0000000000000 -4666.6666666669998 -46277524.686021775 -23326705.031532530 -114298407.22969450 7.2042309667981184e-05 -0.00030344872714958490 0.00042218103419247138 1.1999999990733452 -0.59999999948655869 -0.85463608620529119 
8000.0000000000000 7000.0000000000000 -4500.0000000000000 -45127556.722888783 -22176737.068291768 -110221248.09026778 0.00017173360418665096 -0.00049805413020767976 0.00058646425113280821 0.79999999938634769 -0.89999999924940699 -1.2596359612204477 
7000.0000000000000 7000.0000000000000 -4500.0000000000000 -45127556.722022124 -22176737.066674821 -110221248.08419764 0.00011362372636592164 -0.00051416381164559783 0.00059976318217878346 1.1999999990904977 -0.89999999925456353 -1.2596359611493335 
7000.0000000000000 8000.0000000000000 -4500.0000000000000 -45127556.720774613 -22176737.065928165 -110221248.07944052 7.4027446805467924e-05 -0.00043249994885063655 0.00058150562305907933 1.1999999990931605 -0.59999999949760319 -1.2596359610876589 
8000.0000000000000 7000.0000000000000 -4333.3333333330002 -43977485.834650598 -21026666.179584544 -106143724.03091462 0.00015918766720569060 -0.00061499232600350281 0.00073471538214323322 0.79999999940416489 -0.89999999927013863 -1.6497552817669821 
7000.0000000000000 7000.0000000000000 -4333.3333333330002 -43977485.833936863 -21026666.178152181 -106143724.02547778 0.00011342535923400166 -0.00063642069394666278 0.00073080843399540634 1.1999999991166534 -0.89999999927499619 -1.6497552816757608 
7000.0000000000000 8000.0000000000000 -4333.3333333330002 -43977485.832828499 -21026666.177510679 -106143724.02121916 7.5659136881310542e-05 -0.00054749343337138687 0.00070856827175846591 1.1999999991194334 -0.59999999951218730 -1.6497552815976544 
8000.0000000000000 7000.0000000000000 -4166.6666666669998 -42827312.014495939 -19876492.358857140 -102065835.03089754 0.00014560310206982585 -0.00071050961399470535 0.00086106251364621259 0.79999999942593059 -0.89999999929546814 -2.0249927161172772 
7000.0000000000000 7000.0000000000000 -4166.6666666669998 -42827312.013915598 -19876492.357600760 -102065835.02607441 0.00011245737067616873 -0.00073692950891012334 0.00083312290970845337 1.1999999991485009 -0.89999999930000218 -2.0249927160078545 
7000.0000000000000 8000.0000000000000 -4166.6666666669998 -42827312.012939446 -19876492.357051164 -102065835.02229367 7.6625269083124833e-05 -0.00065004852024887455 0.00080819736489865662 1.1999999991513632 -0.59999999952988137 -2.0249927159152210 
8000.0000000000000 7000.0000000000000 -4000.0000000000000 -41677035.253178753 -18726215.596876360 -97987581.057465315 0.00013158563280112244 -0.00078750064596381294 0.00096782926356713212 0.79999999945114753 -0.89999999932485142 -2.3853469323385581 
7000.0000000000000 7000.0000000000000 -4000.0000000000000 -41677035.252711788 -18726215.595786028 -97987581.053233251 0.00011061295296207598 -0.00081849995507963125 0.00091156143766970231 1.1999999991852999 -0.89999999932904728 -2.3853469322128613 
7000.0000000000000 8000.0000000000000 -4000.0000000000000 -41677035.251860484 -18726215.595315810 -97987581.049909085 7.6781342714411072e-05 -0.00074156534105912519 0.00088518720616161291 1.1999999991882058 -0.59999999955029437 -2.3853469321075136 
8000.0000000000000 7000.0000000000000 -3833.3333333330002 -40526655.541458778 -17575835.884413622 -93908962.077885136 0.00011754561214806001 -0.00084887547303004777 0.0010574398540868194 0.79999999947934419 -0.89999999935777886 -2.7308165983717885 
7000.0000000000000 7000.0000000000000 -3833.3333333330002 -40526655.541085832 -17575835.883478668 -93908962.074218720 0.00010785466133399573 -0.00088399111232537360 0.00097074644850892247 1.1999999992263666 -0.89999999936162900 -2.7308165982317409 
7000.0000000000000 8000.0000000000000 -3833.3333333330002 -40526655.540351696 -17575835.883076090 -93908962.071329102 7.6076656431100064e-05 -0.00082330165294264876 0.00094403379956683293 1.1999999992292756 -0.59999999957306660 -2.7308165981153998 
8000.0000000000000 7000.0000000000000 -3666.6666666669998 -39376172.870096430 -16425353.212239811 -89829978.059424087 0.00010375826420032071 -0.00089742958857796256 0.0011322759960522006 0.79999999951007661 -0.89999999939377950 -3.0614003820388080 
7000.0000000000000 7000.0000000000000 -3666.6666666669998 -39376172.869799562 -16425353.211449215 -89829978.056295440 0.00010419113969372572 -0.00093617861735789383 0.0010149109963229100 1.1999999992710733 -0.89999999939727993 -3.0614003818863051 
7000.0000000000000 8000.0000000000000 -3666.6666666669998 -39376172.869174741 -16425353.211103458 -89829978.053817615 7.4516251641378893e-05 -0.00089638059381593231 0.00098883973878000336 1.1999999992739474 -0.59999999959786632 -3.0614003817605999 
8000.0000000000000 7000.0000000000000 -3500.0000000000000 -38225587.229847632 -15274767.571120080 -85750628.969330952 9.0403923660953625e-05 -0.00093579133584288741 0.0011945716277753705 0.79999999954293366 -0.89999999943241871 -3.3770969510478852 
7000.0000000000000 7000.0000000000000 -3500.0000000000000 -38225587.229610823 -15274767.570462763 -85750628.966710091 9.9662679385127890e-05 -0.00097767801766070390 0.0010478496984577552 1.1999999993188510 -0.89999999943556996 -3.3770969508847695 
7000.0000000000000 8000.0000000000000 -3500.0000000000000 -38225587.229087420 -15274767.570164129 -85750628.964620724 7.2140063865842692e-05 -0.00096180434251343799 0.0010232418847322346 1.1999999993216532 -0.59999999962438644 -3.3770969507512385 
8000.0000000000000 7000.0000000000000 -3333.3333333330002 -37074898.611474186 -14124078.951824274 -81670914.774872974 7.7592102517133168e-05 -0.00096635710989046461 0.0012463228622398037 0.79999999957753609 -0.89999999947329967 -3.6779049729818238 
7000.0000000000000 7000.0000000000000 -3333.3333333330002 -37074898.611283697 -14124078.951289289 -81670914.772728190 9.4323666692736673e-05 -0.0010108786890346130 0.0010728124120452825 1.1999999993691850 -0.89999999947610376 -3.6779049728098672 
7000.0000000000000 8000.0000000000000 -3333.3333333330002 -37074898.610853888 -14124078.951029364 -81670914.771003276 6.9002882076820481e-05 -0.0010204412397210683 0.0010503370731934046 1.1999999993718828 -0.59999999965234319 -3.6779049726699573 
8000.0000000000000 7000.0000000000000 -3166.6666666669998 -35924107.005738571 -12973287.345121734 -77590835.443317443 6.5384651531241430e-05 -0.00099121916541512864 0.0012892414523599520 0.79999999961353585 -0.89999999951606025 -3.9638231153043018 
7000.0000000000000 7000.0000000000000 -3166.6666666669998 -35924107.005583078 -12973287.344698407 -77590835.441615537 8.8235112288879893e-05 -0.0010378880425094966 0.0010925056503532245 1.1999999994216148 -0.89999999951852150 -3.9638231151251939 
7000.0000000000000 8000.0000000000000 -3166.6666666669998 -35924107.005239151 -12973287.344470207 -77590835.440230444 6.5166760116314894e-05 -0.0010730034526893531 0.0010726902240711946 1.1999999994241763 -0.59999999968147499 -3.9638231149802539 
8000.0000000000000 7000.0000000000000 -3000.0000000000000 -34773212.403398640 -11822392.741776140 -73510390.941913232 5.3807977128981367e-05 -0.0010121391434890574 0.0013247232494183008 0.79999999965061630 -0.89999999956037335 -4.2348500453646283 
7000.0000000000000 7000.0000000000000 -3000.0000000000000 -34773212.403269380 -11822392.741454186 -73510390.940619886 8.1459186309018120e-05 -0.0010604818062874511 0.0011090867507550940 1.1999999994757273 -0.89999999956249688 -4.2348500451799529 
7000.0000000000000 8000.0000000000000 -3000.0000000000000 -34773212.403003901 -11822392.741252352 -73510390.939549536 6.0695454570839345e-05 -0.0011200110804765859 0.0010923126101559666 1.1999999994781254 -0.59999999971154072 -4.2348500450312336 
8000.0000000000000 7000.0000000000000 -2833.3333333330002 -33622214.795218013 -10671395.132555988 -69429581.237927869 4.2859899241947775e-05 -0.0010305213275382961 0.0013538195219743405 0.79999999968848912 -0.89999999960594290 -4.4909844303874342 
7000.0000000000000 7000.0000000000000 -2833.3333333330002 -33622214.795108877 -10671395.132325571 -69429581.237007901 7.4054238561732996e-05 -0.0010800721856354457 0.0011241570082089962 1.1999999995311550 -0.89999999960773436 -4.4909844301986688 
7000.0000000000000 8000.0000000000000 -2833.3333333330002 -33622214.794914685 -10671395.132146526 -69429581.236226767 5.5648047724188059e-05 -0.0011617855512575702 0.0011106582745879711 1.1999999995333654 -0.59999999974231744 -4.4909844300473196 
8000.0000000000000 7000.0000000000000 -2666.6666666669998 -32471114.171960853 -9520294.5082294196 -65348406.298629083 3.2517306715032658e-05 -0.0010473644388365876 0.0013772262776951196 0.79999999972689284 -0.89999999965250077 -4.7322249374782386 
7000.0000000000000 7000.0000000000000 -2666.6666666669998 -32471114.171868324 -9520294.5080812164 -65348406.298046544 6.6070555553236372e-05 -0.0010976817159502493 0.0011387776855689108 1.1999999995875716 -0.89999999965396604 -4.7322249372867349 
7000.0000000000000 8000.0000000000000 -2666.6666666669998 -32471114.171738610 -9520294.5079232380 -65348406.297528669 5.0075577650741243e-05 -0.0011984325705783876 0.0011286609739910537 1.1999999995895712 -0.59999999977359952 -4.7322249371338039 
8000.0000000000000 7000.0000000000000 -2500.0000000000000 -31319910.524386473 -8369090.8595589930 -61266866.091265969 2.2738652408600899e-05 -0.0010632443973020279 0.0013952757652541982 0.79999999976558989 -0.89999999969980560 -4.9585702336273743 
7000.0000000000000 7000.0000000000000 -2500.0000000000000 -31319910.524309695 -8369090.8594842302 -61266866.090984493 5.7548801807889464e-05 -0.0011139074166018157 0.0011534612447108195 1.1999999996446855 -0.89999999970095057 -4.9585702334343580 
7000.0000000000000 8000.0000000000000 -2500.0000000000000 -31319910.524238065 -8369090.8593476349 -61266866.090703689 4.4021079872823142e-05 -0.0012298082608671863 0.0011467213688350518 1.1999999996464539 -0.59999999980519625 -4.9585702332807822 
8000.0000000000000 7000.0000000000000 -2333.3333333330002 -30168603.843259837 -7217784.1773122344 -57184960.583106428 1.3464132845846786e-05 -0.0010783163071644666 0.0014079300938129736 0.79999999980436409 -0.89999999974763689 -5.1700189857013124 
7000.0000000000000 7000.0000000000000 -2333.3333333330002 -30168603.843200602 -7217784.1773027685 -57184960.583089486 4.8521162841964690e-05 -0.0011289142021278179 0.0011681960632318230 1.1999999997022377 -0.89999999974846712 -5.1700189855078706 
7000.0000000000000 8000.0000000000000 -2333.3333333330002 -30168603.843181107 -7217784.1771899527 -57184960.583019227 3.7521376023513774e-05 -0.0012555160024178610 0.0011647146050749618 1.1999999997037556 -0.59999999983692998 -5.1700189853544805 
8000.0000000000000 7000.0000000000000 -2166.6666666669998 -29017194.119346216 -6066374.4522564327 -53102689.741418451 4.6172616459225683e-06 -0.0010922621630953537 0.0014147853640420188 0.79999999984301695 -0.89999999979579370 -5.3665698604474024 
7000.0000000000000 7000.0000000000000 -2166.6666666669998 -29017194.119308919 -6066374.4523047330 -53102689.741629317 3.9009741355360271e-05 -0.0011424009662012932 0.0011824458581900213 1.1999999997599948 -0.89999999979631273 -5.3665698602544856 
7000.0000000000000 8000.0000000000000 -2166.6666666669998 -29017194.119336087 -6066374.4522202918 -53102689.741742834 3.0605555088802962e-05 -0.0012748825290094183 0.0011820085947882341 1.1999999997612445 -0.59999999986863350 -5.3665698601019916 
8000.0000000000000 7000.0000000000000 -2000.0000000000000 -27865681.343405928 -4914861.6751534520 -49020053.533451565 -3.8988214915581896e-06 -0.0011042914195249669 0.0014150544844608831 0.79999999988136483 -0.89999999984408796 -5.5482215244970101 
7000.0000000000000 7000.0000000000000 -2000.0000000000000 -27865681.343397632 -4914861.6752526918 -49020053.533853717 2.9024347655899733e-05 -0.0011535950412020206 0.0011951449649372664 1.1999999998177453 -0.89999999984429901 -5.5482215243054185 
7000.0000000000000 8000.0000000000000 -2000.0000000000000 -27865681.343466572 -4914861.6752035618 -49020053.534124263 2.3295306666454830e-05 -0.0012869397722407559 0.0011974566705939696 1.1999999998187099 -0.59999999990014785 -5.5482215241544210 
8000.0000000000000 7000.0000000000000 -1833.3333333329999 -26714065.506204680 -3763245.8367701829 -44937051.926473819 -1.2204548856613450e-05 -0.0011131330340870208 0.0014075782314666590 0.79999999991923532 -0.89999999989234425 -5.7149726443584470 
7000.0000000000000 7000.0000000000000 -1833.3333333329999 -26714065.506235138 -3763245.8369142972 -44937051.927031063 1.8564749156667237e-05 -0.0011612295990997719 0.0012047244493397738 1.1999999998752937 -0.89999999989224677 -5.7149726441688324 
7000.0000000000000 8000.0000000000000 -1833.3333333329999 -26714065.506341528 -3763245.8369097966 -44937051.927431747 1.5605101481226045e-05 -0.0012904281941193065 0.0012094148456849435 1.1999999998759581 -0.59999999993131936 -5.7149726440198041 
8000.0000000000000 7000.0000000000000 -1666.6666666670001 -25562346.598508343 -2611526.9278734429 -40853684.887753427 -2.0445293346677354e-05 -0.0011170026346776218 0.0013908071179688840 0.79999999995646398 -0.89999999994039093 -5.8668218864208947 
7000.0000000000000 7000.0000000000000 -1666.6666666670001 -25562346.598590005 -2611526.9280571258 -40853684.888429940 7.6242936982973058e-06 -0.0011635140330727308 0.0012091042206516635 1.1999999999324567 -0.89999999993998248 -5.8668218862337582 
7000.0000000000000 8000.0000000000000 -1666.6666666670001 -25562346.598730117 -2611526.9281090228 -40853684.888933688 7.5434792915192594e-06 -0.0012837659328445009 0.0012157445076700917 1.1999999999328053 -0.59999999996199715 -5.8668218860870542 
8000.0000000000000 6000.0000000000000 -4833.3333333330002 -47427389.742786340 -24476570.087428413 -118375201.52682899 0.00029814896002779590 -0.00012702969772915968 0.00018930336213884505 0.79999999935532884 -1.1999999989929639 -0.43475698873402902 
8000.0000000000000 5000.0000000000000 -4833.3333333330002 -47427389.745691463 -24476570.087661587 -118375201.53944658 0.00034393427935050584 1.8177337462416801e-05 0.00014608979279481519 0.79999999934292465 -1.4999999988178390 -0.43475698878533903 
7000.0000000000000 5000.0000000000000 -4833.3333333330002 -47427389.744577788 -24476570.085590370 -118375201.53115734 0.00015716913128137791 -1.8148687614409906e-06 0.00023269995048193405 1.1999999990494870 -1.4999999988288990 -0.43475698875120511 
7000.0000000000000 6000.0000000000000 -4833.3333333330002 -47427389.741608500 -24476570.085396405 -118375201.51910105 0.00014615100654676361 -0.00014416506663727250 0.00023409417192028439 1.1999999990542960 -1.1999999990025536 -0.43475698870481289 
8000.0000000000000 6000.0000000000000 -5000.0000000000000 -48002296.541751564 -25051476.886462167 -120413507.45059635 0.00030395946024520720 -6.8286116027533206e-05 9.7977168870531207e-05 0.79999999935222144 -1.1999999989886521 0.0000000000000000 
8000.0000000000000 5000.0000000000000 -5000.0000000000000 -48002296.544795483 -25051476.886821769 -120413507.46370426 0.00035101175166317498 3.0662141402559958e-06 7.6532466035841284e-05 0.79999999933950339 -1.4999999988127726 0.0000000000000000 
7000.0000000000000 5000.0000000000000 -5000.0000000000000 -48002296.543573938 -25051476.884632349 -120413507.45498639 0.00015746000899121340 -6.5472279519647519e-06 0.00012146961204111993 1.1999999990452039 -1.4999999988240913 0.0000000000000000 
7000.0000000000000 6000.0000000000000 -5000.0000000000000 -48002296.540474698 -25051476.884325434 -120413507.44249943 0.00014640595825671736 -7.6640197170958568e-05 0.00012222728648388542 1.1999999990500223 -1.1999999989984698 0.0000000000000000 
8000.0000000000000 6000.0000000000000 -4666.6666666669998 -46277524.690453157 -23326705.034895346 -114298407.24989326 0.00028250000202714715 -0.00022632456520700514 0.00035935850284730481 0.79999999936429045 -1.1999999990054542 -0.85463608636398736 
8000.0000000000000 5000.0000000000000 -4666.6666666669998 -46277524.693086907 -23326705.034893863 -114298407.26155108 0.00032493330128310959 7.0667720995340667e-05 0.00027287562574629685 0.79999999935268917 -1.4999999988324419 -0.85463608646296207 
7000.0000000000000 5000.0000000000000 -4666.6666666669998 -46277524.692172498 -23326705.033050958 -114298407.25409864 0.00015625932937414090 2.9029924534710240e-05 0.00043544706113274767 1.1999999990619223 -1.4999999988428452 -0.85463608639823008 
7000.0000000000000 6000.0000000000000 -4666.6666666669998 -46277524.689464226 -23326705.033069506 -114298407.24289209 0.00014535313101774532 -0.00026135335064649565 0.00043790547879737440 1.1999999990667034 -1.1999999990144714 -0.85463608630811383 
8000.0000000000000 6000.0000000000000 -4500.0000000000000 -45127556.724692360 -22176737.068816360 -110221248.09778057 0.00026064081195118996 -0.00029128950670571230 0.00050557159968625932 0.79999999937841804 -1.1999999990252597 -1.2596359613161168 
8000.0000000000000 5000.0000000000000 -4500.0000000000000 -45127556.727068096 -22176737.068616919 -110221248.10852025 0.00029858121760372298 0.00016394009222487569 0.00037776499743641888 0.79999999936788124 -1.4999999988554458 -1.2596359614592609 
7000.0000000000000 5000.0000000000000 -4500.0000000000000 -45127556.726322554 -22176737.066986695 -110221248.10186419 0.00015464344913354434 9.9983189362331257e-05 0.00060057288319032150 1.1999999990816834 -1.4999999988649888 -1.2596359613672743 
7000.0000000000000 6000.0000000000000 -4500.0000000000000 -45127556.723873049 -22176737.067189164 -110221248.09148309 0.00014393061381893157 -0.00034403133231617329 0.00060376418916966703 1.1999999990864174 -1.1999999990335368 -1.2596359612360837 
8000.0000000000000 6000.0000000000000 -4333.3333333330002 -43977485.836264588 -21026666.179966256 -106143724.03775936 0.00023563264671457100 -0.00032624759092995584 0.00063062030084575123 0.79999999939708555 -1.1999999990515742 -1.6497552818895915 
8000.0000000000000 5000.0000000000000 -4333.3333333330002 -43977485.838397391 -21026666.179605760 -106143724.04762222 0.00026877792074515101 0.00029044047073382458 0.00046558815056494887 0.79999999938772870 -1.4999999988858230 -1.6497552820735495 
7000.0000000000000 5000.0000000000000 -4333.3333333330002 -43977485.837794363 -21026666.178173423 -106143724.04172300 0.00015222555713541864 0.00020522987964481228 0.00073207700642750331 1.1999999991079564 -1.4999999988944237 -1.6497552819574641 
7000.0000000000000 6000.0000000000000 -4333.3333333330002 -43977485.835594222 -21026666.178528491 -106143724.03214081 0.00014178773154866639 -0.00039525146323689193 0.00073584434167550954 1.1999999991126220 -1.1999999990590462 -1.6497552817878367 
8000.0000000000000 6000.0000000000000 -4166.6666666669998 -42827312.015930071 -19876492.359118324 -102065835.03709815 0.00020947614259556076 -0.00033585637434096664 0.00073710504954554881 0.79999999941971633 -1.1999999990836487 -2.0249927162644634 
8000.0000000000000 5000.0000000000000 -4166.6666666669998 -42827312.017836340 -19876492.358633142 -102065835.04612537 0.00023808481403976518 0.00044263949907505091 0.00054002691084171681 0.79999999941156374 -1.4999999989226505 -2.0249927164860089 
7000.0000000000000 5000.0000000000000 -4166.6666666669998 -42827312.017352231 -19876492.357384410 -102065835.04094377 0.00014893085412191753 0.00033823960568146180 0.00083443302320515371 1.1999999991399628 -1.4999999989303008 -2.0249927163488040 
7000.0000000000000 6000.0000000000000 -4166.6666666669998 -42827312.015387595 -19876492.357859593 -102065835.03213190 0.00013884385639042126 -0.00041906067763679798 0.00083879574277181013 1.1999999991445358 -1.1999999990903076 -2.0249927161433621 
8000.0000000000000 6000.0000000000000 -4000.0000000000000 -41677035.254443765 -18726215.597039279 -97987581.063046917 0.00018345256016323233 -0.00032491917943872658 0.00082754733269038423 0.79999999944577660 -1.1999999991207921 -2.3853469325080212 
8000.0000000000000 5000.0000000000000 -4000.0000000000000 -41677035.256140679 -18726215.596464578 -97987581.071279645 0.00020810938029906608 0.00061317688445338856 0.00060400638157799113 0.79999999943879618 -1.4999999989651054 -2.3853469327640542 
7000.0000000000000 5000.0000000000000 -4000.0000000000000 -41677035.255754218 -18726215.595385641 -97987581.066776514 0.00014472220082260582 0.00049217276388131273 0.00091225755295159215 1.1999999991769685 -1.4999999989718378 -2.3853469326085381 
7000.0000000000000 6000.0000000000000 -4000.0000000000000 -41677035.254008681 -18726215.595948476 -97987581.058704436 0.00013505140001978058 -0.00042002868355186330 0.00091738227238335926 1.1999999991814230 -1.1999999991266621 -2.3853469323698797 
8000.0000000000000 6000.0000000000000 -3833.3333333330002 -40526655.542566054 -17575835.884499859 -93908962.082874000 0.00015835592858387632 -0.00029823673208123185 0.00090434284237798283 0.79999999947477463 -1.1999999991623718 -2.7308165985612969 
8000.0000000000000 5000.0000000000000 -3833.3333333330002 -40526655.544071123 -17575835.883868981 -93908962.090353146 0.00017978952799691957 0.00079500811420501105 0.00065991170861701468 0.79999999946890032 -1.4999999990124628 -2.7308165988488331 
7000.0000000000000 5000.0000000000000 -3833.3333333330002 -40526655.543763168 -17575835.882946491 -93908962.086489171 0.00013959835619535782 0.00066016972387850927 0.00097006803760420895 1.1999999992182924 -1.4999999990183333 -2.7308165986776562 
7000.0000000000000 6000.0000000000000 -3833.3333333330002 -40526655.542219050 -17575835.883565500 -93908962.079124972 0.00013039474960608747 -0.00040292624825674476 0.00097620906465771399 1.1999999992226018 -1.1999999991674919 -2.7308165984083428 
8000.0000000000000 6000.0000000000000 -3666.6666666669998 -39376172.871057667 -16425353.212269723 -89829978.063847542 0.00013464699733061074 -0.00026043374884577463 0.00096969335744001594 0.79999999950625622 -1.1999999992078145 -3.0614003822462013 
8000.0000000000000 5000.0000000000000 -3666.6666666669998 -39376172.872388281 -16425353.211613726 -89829978.070613801 0.00015359925711775380 0.00098152915015589756 0.00070968439214584285 0.79999999950140532 -1.4999999990640895 -3.0614003825623790 
7000.0000000000000 5000.0000000000000 -3666.6666666669998 -39376172.872141913 -16425353.210834865 -89829978.067349464 0.00013358803430994087 0.00083562491311967490 0.0010120745815269548 1.1999999992633106 -1.4999999990691626 -3.0614003823780291 
7000.0000000000000 6000.0000000000000 -3666.6666666669998 -39376172.870781161 -16425353.211480228 -89829978.060660005 0.00012488584692531954 -0.00037246883194037904 0.0010195172378619020 1.1999999992674473 -1.1999999992122314 -3.0614003820805751 
8000.0000000000000 6000.0000000000000 -3500.0000000000000 -38225587.230674587 -15274767.571112383 -85750628.973217353 0.00011255988422718879 -0.00021586122275271688 0.0010255724472863536 0.79999999953980516 -1.1999999992566055 -3.3770969512710809 
8000.0000000000000 5000.0000000000000 -3500.0000000000000 -38225587.231847711 -15274767.570459701 -85750628.979310900 0.00012969339070425162 0.0011666265736665978 0.00075488156338014256 0.79999999953588774 -1.4999999991194419 -3.3770969516131535 
7000.0000000000000 5000.0000000000000 -3500.0000000000000 -38225587.231648244 -15274767.569812207 -85750628.976606339 0.00012674104521653398 0.0010122975594788731 0.0010420915823681064 1.1999999993114523 -1.4999999991237836 -3.3770969514179643 
7000.0000000000000 6000.0000000000000 -3500.0000000000000 -38225587.230453022 -15274767.570456268 -85750628.970557868 0.00011856116125873659 -0.00033316351080089207 0.0010511284796818603 1.1999999993153889 -1.1999999992603672 -3.3770969510948268 
8000.0000000000000 6000.0000000000000 -3333.3333333330002 -37074898.612178460 -14124078.951795692 -81670914.778251454 9.2177926554136091e-05 -0.00016850629062843095 0.0010736820614665177 0.79999999957504098 -1.1999999993082857 -3.6779049732188200 
8000.0000000000000 5000.0000000000000 -3333.3333333330002 -37074898.613210350 -14124078.951171869 -81670914.783711806 0.00010802157368913263 0.0013447736266712449 0.00079671639914440486 0.79999999957196699 -1.4999999991780597 -3.6779049735841620 
7000.0000000000000 5000.0000000000000 -3333.3333333330002 -37074898.613045439 -14124078.950644096 -81670914.781526923 0.00011911888732569899 0.0011844538400490969 0.0010634744014616723 1.1999999993622017 -1.4999999991817317 -3.6779049733803069 
7000.0000000000000 6000.0000000000000 -3333.3333333330002 -37074898.611998580 -14124078.951261738 -81670914.776085302 0.00011147103205210965 -0.00028918441460210211 0.0010743653497535710 1.1999999993659125 -1.1999999993114387 -3.6779049730338720 
8000.0000000000000 6000.0000000000000 -3166.6666666669998 -35924107.006331407 -12973287.345086738 -77590835.446217835 7.3486648379526251e-05 -0.00012192803217363310 0.0011154202278599512 0.79999999961161705 -1.1999999993624497 -3.9638231155531929 
8000.0000000000000 5000.0000000000000 -3166.6666666669998 -35924107.007237442 -12973287.344514290 -77590835.451083615 8.8408288001373697e-05 0.0015110053838921500 0.00083607733979979720 0.79999999960930002 -1.4999999992395585 -3.9638231159392943 
7000.0000000000000 5000.0000000000000 -3166.6666666669998 -35924107.007097133 -12973287.344095230 -77590835.449378133 0.00011078602019186651 0.0013469096215916441 0.0010790856699676148 1.1999999994150949 -1.4999999992426163 -3.9638231157287871 
7000.0000000000000 6000.0000000000000 -3166.6666666669998 -35924107.006182387 -12973287.344664101 -77590835.444509268 0.00010366944550576342 -0.00024428581553881645 0.0010920172664302022 1.1999999994185553 -1.1999999993650388 -3.9638231153613677 
8000.0000000000000 6000.0000000000000 -3000.0000000000000 -34773212.403890826 -11822392.741746729 -73510390.944365934 5.6406848651344445e-05 -7.9217381699142492e-05 0.0011518612723738326 0.79999999964921897 -1.1999999994187442 -4.2348500456235962 
8000.0000000000000 5000.0000000000000 -3000.0000000000000 -34773212.404685363 -11822392.741245050 -73510390.948674783 7.0606800580621973e-05 0.0016609311736753964 0.00087351962238613786 0.79999999964757940 -1.4999999993036270 -4.2348500460280727 
7000.0000000000000 5000.0000000000000 -3000.0000000000000 -34773212.404562168 -11822392.740924342 -73510390.947408229 0.00010180106439644571 0.0014950335917808624 0.0010912359965655413 1.1999999994697175 -1.4999999993061179 -4.2348500458127667 
7000.0000000000000 6000.0000000000000 -3000.0000000000000 -34773212.403764367 -11822392.741425015 -73510390.943078279 9.5209110327708723e-05 -0.00020175895038520103 0.0011063270757555813 1.1999999994729043 -1.1999999994208095 -4.2348500454265858 
8000.0000000000000 6000.0000000000000 -2833.3333333330002 -33622214.795619808 -10671395.132541545 -69429581.239963740 4.0820697796589972e-05 -4.2953721158780608e-05 0.0011837499556699286 0.79999999968756241 -1.1999999994768606 -4.4909844306547697 
8000.0000000000000 5000.0000000000000 -2833.3333333330002 -33622214.796316162 -10671395.132126883 -69429581.243752271 5.4341480310092514e-05 0.0017907541361204525 0.00090929085476829888 0.79999999968652702 -1.4999999993700184 -4.4909844310753551 
7000.0000000000000 5000.0000000000000 -2833.3333333330002 -33622214.796205021 -10671395.131894816 -69429581.242884085 9.2214692644072057e-05 0.0016247925824097217 0.0011017192998372342 1.1999999995256976 -1.4999999993719813 -4.4909844308569395 
7000.0000000000000 6000.0000000000000 -2833.3333333330002 -33622214.795510173 -10671395.132310888 -69429581.239059761 8.6140136848247237e-05 -0.00016438170534913415 0.0011190048886499640 1.1999999995285897 -1.1999999994784389 -4.4909844304541302 
8000.0000000000000 6000.0000000000000 -2666.6666666669998 -32471114.172281891 -9520294.5082365777 -65348406.300279357 2.6589530620338218e-05 -1.5186648112326732e-05 0.0012114792732641926 0.79999999972638924 -1.1999999995365347 -4.7322249377523375 
8000.0000000000000 5000.0000000000000 -2666.6666666669998 -32471114.172892250 -9520294.5079219919 -65348406.303582996 3.9333450270518127e-05 0.0018972261220471739 0.00094332006322248290 0.79999999972589375 -1.4999999994385425 -4.7322249381868957 
7000.0000000000000 5000.0000000000000 -2666.6666666669998 -32471114.172790579 -9520294.5077694803 -65348406.303072453 8.2064936366932633e-05 0.0017327395442991193 0.0011117717479973881 1.1999999995827066 -1.4999999994400088 -4.7322249379668868 
7000.0000000000000 6000.0000000000000 -2666.6666666669998 -32471114.172185916 -9520294.5080876332 -65348406.299721144 7.6504480969840098e-05 -0.00013438488055507041 0.0011312019339749565 1.1999999995852837 -1.1999999995376582 -4.7322249375494865 
8000.0000000000000 6000.0000000000000 -2500.0000000000000 -31319910.524635699 -8369090.8595915036 -61266866.092562124 1.3561610195849509e-05 2.5888104025295438e-06 0.0012350917330190801 0.79999999976546643 -1.1999999995975381 -4.9585702339067508 
8000.0000000000000 5000.0000000000000 -2500.0000000000000 -31319910.525171179 -8369090.8593868995 -61266866.095415272 2.5316271735459505e-05 0.0019776480817978140 0.00097522097989606268 0.79999999976545422 -1.4999999995090627 -4.9585702343532638 
7000.0000000000000 5000.0000000000000 -2500.0000000000000 -31319910.525078904 -8369090.8593055150 -61266866.095221788 7.1374717526300865e-05 0.0018159650859046691 0.0011220803750238352 1.1999999996404513 -1.4999999995100557 -4.9585702341330125 
7000.0000000000000 6000.0000000000000 -2500.0000000000000 -31319910.524552822 -8369090.8595155254 -61266866.092311502 6.6332989966131993e-05 -0.00011344192844817065 0.0011435230001977917 1.1999999996426942 -1.1999999995982362 -4.9585702337029538 
8000.0000000000000 6000.0000000000000 -2333.3333333330002 -30168603.843445480 -7217784.1773708947 -57184960.584080122 1.5759221555991526e-06 9.4272961877221517e-06 0.0012542947301801199 0.79999999980458214 -1.1999999996596762 -5.1700189859845986 
8000.0000000000000 5000.0000000000000 -2333.3333333330002 -30168603.843916114 -7217784.1772829704 -57184960.586516142 1.2044956046432617e-05 0.0020298551380170510 0.0010043217826897920 0.79999999980500480 -1.4999999995814859 -5.1700189864411792 
7000.0000000000000 5000.0000000000000 -2333.3333333330002 -30168603.843835630 -7217784.1772649204 -57184960.586599231 6.0149788309035802e-05 0.0018721233008786990 0.0011328143306189853 1.1999999996986699 -1.4999999995820232 -5.1700189862218613 
7000.0000000000000 6000.0000000000000 -2333.3333333330002 -30168603.843377743 -7217784.1773597728 -57184960.584098905 5.5643710151779879e-05 -0.00010265950451691594 0.0011560526031550839 1.1999999997005604 -1.1999999996599737 -5.1700189857809713 
8000.0000000000000 6000.0000000000000 -2166.6666666669998 -29017194.119475774 -6066374.4523389973 -53102689.742101558 -9.5379155663316512e-06 4.9550871982936932e-06 0.0012684481508404427 0.79999999984354375 -1.1999999997227817 -5.3665698607333621 
8000.0000000000000 5000.0000000000000 -2166.6666666669998 -29017194.119890504 -6066374.4523712117 -53102689.744152807 -7.0559406657210547e-07 0.0020522012835157933 0.0010296348103584923 0.79999999984435999 -1.4999999996557585 -5.3665698611982497 
7000.0000000000000 5000.0000000000000 -2166.6666666669998 -29017194.119826671 -6066374.4524092916 -53102689.744472042 4.8380479000897372e-05 0.0018994261582126997 0.0011435896519706905 1.1999999997571285 -1.4999999996558524 -5.3665698609808619 
7000.0000000000000 6000.0000000000000 -2166.6666666669998 -29017194.119427767 -6066374.4523852188 -53102689.742351413 4.4442037890376010e-05 -0.00010255045943929634 0.0011683351016072469 1.1999999997586484 -1.1999999997226996 -5.3665698605308600 
8000.0000000000000 6000.0000000000000 -2000.0000000000000 -27865681.343486115 -4914861.6752545191 -49020053.533876121 -1.9965373678096308e-05 -1.0619099316080873e-05 0.0012765583316238635 0.79999999988217341 -1.1999999997867101 -5.5482215247845357 
8000.0000000000000 5000.0000000000000 -2000.0000000000000 -27865681.343852866 -4914861.6754070688 -49020053.535574228 -1.3145498317617822e-05 0.0020435576316621420 0.0010498697609506687 0.79999999988335013 -1.4999999997318605 -5.5482215252561025 
7000.0000000000000 5000.0000000000000 -2000.0000000000000 -27865681.343813021 -4914861.6754946886 -49020053.536089465 3.6043438916968722e-05 0.0018965970265115123 0.0011534894883995855 1.1999999998156154 -1.4999999997315163 -5.5482215250414662 
7000.0000000000000 6000.0000000000000 -2000.0000000000000 -27865681.343465000 -4914861.6753512248 -49020053.534318849 3.2720455764513490e-05 -0.00011303958779822485 0.0011793817720464732 1.1999999998167461 -1.1999999997862643 -5.5482215245839592 
8000.0000000000000 6000.0000000000000 -1833.3333333329999 -26714065.506241407 -3763245.8368811160 -44937051.926672049 -2.9913765229258550e-05 -3.6487068951646630e-05 0.0012773001346132074 0.79999999992030535 -1.1999999998513322 -5.7149726446465658 
8000.0000000000000 5000.0000000000000 -1833.3333333329999 -26714065.506567094 -3763245.8371508396 -44937051.928048141 -2.5481684425706203e-05 0.0020033298013854861 0.0010634555862216147 0.79999999992181814 -1.4999999998097961 -5.7149726451233214 
7000.0000000000000 5000.0000000000000 -1833.3333333329999 -26714065.506561097 -3763245.8372820322 -44937051.928719640 2.3100909133613453e-05 0.0018629363121038486 0.0011610555268862183 1.1999999998739366 -1.4999999998090170 -5.7149726449120735 
7000.0000000000000 6000.0000000000000 -1833.3333333329999 -26714065.506256994 -3763245.8370221788 -44937051.927269965 2.0458357267737821e-05 -0.00013341856176300639 0.0011876854373723043 1.1999999998746589 -1.1999999998505346 -5.7149726444485491 
8000.0000000000000 6000.0000000000000 -1666.6666666670001 -25562346.598506682 -2611526.9279822232 -40853684.887757771 -3.9618756308712861e-05 -7.1228986202015115e-05 0.0012689955042252475 0.79999999995778281 -1.1999999999165321 -5.8668218867087836 
8000.0000000000000 5000.0000000000000 -1666.6666666670001 -25562346.598797180 -2611526.9283623993 -40853684.888842545 -3.7937163321497236e-05 0.0019314576672323567 0.0010685212008051854 0.79999999995961690 -1.4999999998895908 -5.8668218871893751 
7000.0000000000000 5000.0000000000000 -1666.6666666670001 -25562346.598837405 -2611526.9285318409 -40853684.889631107 9.5010088828122470e-06 0.0017983092812079522 0.0011642972052900765 1.1999999999319089 -1.4999999998883737 -5.8668218869819722 
7000.0000000000000 6000.0000000000000 -1666.6666666670001 -25562346.598571401 -2611526.9281622441 -40853684.888473675 7.6251988779735182e-06 -0.00016233049009528366 0.0011912093443770305 1.1999999999322031 -1.1999999999153879 -5.8668218865137964 
5000.0000000000000 5000.0000000000000 -4833.3333333330002 -47427389.743057594 -24476570.079473577 -118375201.50479783 7.7087013993528222e-05 4.5008185686559865e-05 -5.6898853293071506e-05 1.9999999985847610 -1.4999999988245341 -0.43475698864876172 
6000.0000000000000 6000.0000000000000 -4833.3333333330002 -47427389.740534060 -24476570.082658295 -118375201.50763282 5.9960768046830882e-06 -0.00012918014428135960 0.00013634931658918533 1.5999999987839004 -1.1999999990021408 -0.43475698866087858 
6000.0000000000000 5000.0000000000000 -4833.3333333330002 -47427389.743403591 -24476570.082918677 -118375201.52016395 -2.3241589503234283e-05 1.6596065807753224e-05 0.00018066632773009383 1.5999999987864564 -1.4999999988276327 -0.43475698871183027 
5000.0000000000000 5000.0000000000000 -5000.0000000000000 -48002296.541764215 -25051476.878214184 -120413507.42754164 7.4482835497320426e-05 1.5858713212828839e-05 -2.1627077012560725e-05 1.9999999985784798 -1.4999999988192108 0.0000000000000000 
6000.0000000000000 6000.0000000000000 -5000.0000000000000 -48002296.539263710 -25051476.881446812 -120413507.43052295 1.1225165275627396e-06 -6.9434036600620565e-05 7.4780708171863746e-05 1.5999999987783953 -1.1999999989978567 0.0000000000000000 
6000.0000000000000 5000.0000000000000 -5000.0000000000000 -48002296.542272136 -25051476.881835245 -120413507.44354832 -2.9480224953847802e-05 2.2367744838897422e-06 9.6836633799883526e-05 1.5999999987812490 -1.4999999988225852 0.0000000000000000 
5000.0000000000000 5000.0000000000000 -4666.6666666669998 -46277524.691198327 -23326705.027520310 -114298407.22986946 8.3865023709154713e-05 0.00012689777581907131 -0.00015139164278450725 1.9999999986027439 -1.4999999988397834 -0.85463608620050369 
6000.0000000000000 6000.0000000000000 -4666.6666666669998 -46277524.688648678 -23326705.030604821 -114298407.23242415 1.8761590587848224e-05 -0.00023029611697429254 0.00023531932349949488 1.5999999987997762 -1.1999999990145549 -0.85463608622359810 
6000.0000000000000 5000.0000000000000 -4666.6666666669998 -46277524.691247590 -23326705.030627027 -114298407.24398756 -6.8976722123819395e-06 6.7592182549771888e-05 0.00032353541746869629 1.5999999988015889 -1.4999999988421762 -0.85463608632183341 
5000.0000000000000 5000.0000000000000 -4500.0000000000000 -45127556.725823574 -22176737.062008057 -110221248.07968281 9.2683730195721102e-05 0.00025038645578368088 -0.00028774599644257152 1.9999999986308379 -1.4999999988636097 -1.2596359610813319 
6000.0000000000000 6000.0000000000000 -4500.0000000000000 -45127556.723285280 -22176737.064982209 -110221248.08198097 3.5677772363626490e-05 -0.00029681596622718000 0.00029032937403132054 1.5999999988247939 -1.1999999990342440 -1.2596359611143113 
6000.0000000000000 5000.0000000000000 -4500.0000000000000 -45127556.725628838 -22176737.064802654 -110221248.09261844 1.4738777705742672e-05 0.00015926876800680535 0.00041965630669242674 1.5999999988256610 -1.4999999988650765 -1.2596359612563164 
5000.0000000000000 5000.0000000000000 -4333.3333333330002 -43977485.837693624 -21026666.173711479 -106143724.02150312 0.00010170746031288108 0.00040489950870787591 -0.00045501615877794271 1.9999999986676966 -1.4999999988948345 -1.6497552815902563 
6000.0000000000000 6000.0000000000000 -4333.3333333330002 -43977485.835199587 -21026666.176562905 -106143724.02356675 5.3667915544700091e-05 -0.00033327887043970437 0.00030989785723048414 1.5999999988578222 -1.1999999990604027 -1.6497552816320928 
6000.0000000000000 5000.0000000000000 -4333.3333333330002 -43977485.837304451 -21026666.176218670 -106143724.03332038 3.7664140996760935e-05 0.00028383630411628249 0.00047521384512760949 1.5999999988576961 -1.4999999988953017 -1.6497552818144929 
5000.0000000000000 5000.0000000000000 -4166.6666666669998 -42827312.017572053 -19876492.353403706 -102065835.02259639 0.00010974138383092336 0.00058101743874423135 -0.00064412110518461676 1.9999999987121657 -1.4999999989324324 -2.0249927159071350 
6000.0000000000000 6000.0000000000000 -4166.6666666669998 -42827312.015151002 -19876492.356118873 -102065835.02444537 7.0818232501464057e-05 -0.00034456602533557411 0.00030189301922698520 1.5999999988978362 -1.1999999990922783 -2.0249927159568704 
6000.0000000000000 5000.0000000000000 -4166.6666666669998 -42827312.017034672 -19876492.355646726 -102065835.03335761 5.9371509095539072e-05 0.00043357631596836001 0.00049695736834173864 1.5999999988967610 -1.4999999989319255 -2.0249927161764205 
5000.0000000000000 5000.0000000000000 -4000.0000000000000 -41677035.256219298 -18726215.591851093 -97987581.050210938 0.00011607533652395179 0.00077039194817919915 -0.00084722069696708440 1.9999999987632511 -1.4999999989755162 -2.3853469320990333 
6000.0000000000000 6000.0000000000000 -4000.0000000000000 -41677035.253896415 -18726215.594416350 -97987581.051862970 8.5995479936654769e-05 -0.00033565507210102645 0.00027342069405143993 1.5999999989439126 -1.1999999991291765 -2.3853469321557843 
6000.0000000000000 5000.0000000000000 -4000.0000000000000 -41677035.255576640 -18726215.593851894 -97987581.059976503 7.8401603920497172e-05 0.00060103731239673512 0.00049165587938248319 1.5999999989419853 -1.4999999989741222 -2.3853469324093619 
5000.0000000000000 5000.0000000000000 -3833.3333333330002 -40526655.544402488 -17575835.879823700 -93908962.071613923 0.00012034691326261569 0.00096564467186710772 -0.0010572823719161139 1.9999999988200963 -1.4999999990233250 -2.7308165981067365 
6000.0000000000000 6000.0000000000000 -3833.3333333330002 -40526655.542199805 -17575835.882226080 -93908962.073084667 9.8588221562982315e-05 -0.00031142194548259167 0.00023085483066778565 1.5999999989952274 -1.1999999991704635 -2.7308165981696897 
6000.0000000000000 5000.0000000000000 -3833.3333333330002 -40526655.543694206 -17575835.881603088 -93908962.080442205 9.4011688663181323e-05 0.00077917322900099371 0.00046582505075307601 1.5999999989925735 -1.4999999990211654 -2.7308165984542931 
5000.0000000000000 5000.0000000000000 -3666.6666666669998 -39376172.872889847 -16425353.208090283 -89829978.054072648 0.00012243534589444777 0.0011602649257733517 -0.0012678579979916757 1.9999999988819630 -1.4999999990752111 -3.0614003817518873 
6000.0000000000000 6000.0000000000000 -3666.6666666669998 -39376172.870826580 -16425353.210318126 -89829978.055375934 0.00010833082923676636 -0.00027651757147867579 0.00017982988529826498 1.5999999990510489 -1.1999999992155643 -3.0614003818202948 
6000.0000000000000 5000.0000000000000 -3666.6666666669998 -39376172.872152291 -16425353.209668001 -89829978.062019870 0.00010594000237131796 0.00096143657747068323 0.00042554561395267439 1.5999999990478049 -1.4999999990724238 -3.0614003821330442 
5000.0000000000000 5000.0000000000000 -3500.0000000000000 -38225587.232445300 -15274767.567413306 -85750628.964836240 0.00012237799759818286 0.0013485428955149546 -0.0014730218229523882 1.9999999989482222 -1.4999999991306305 -3.3770969507425432 
6000.0000000000000 6000.0000000000000 -3500.0000000000000 -38225587.230538100 -15274767.569456698 -85750628.965984434 0.00011517848831934873 -0.00023527500961699515 0.00012528963516845798 1.5999999991107325 -1.1999999992639656 -3.3770969508157163 
6000.0000000000000 5000.0000000000000 -3500.0000000000000 -38225587.231711514 -15274767.568808103 -85750628.971956536 0.00011423510537434425 0.0011418195058545753 0.00037636726636565188 1.5999999991070355 -1.4999999991273560 -3.3770969511538564 
5000.0000000000000 5000.0000000000000 -3333.3333333330002 -37074898.613838762 -14124078.948559530 -81670914.771172315 0.00012030765120264256 0.0015255179326363224 -0.0016673376379430240 1.9999999990183406 -1.4999999991891309 -3.6779049726612887 
6000.0000000000000 6000.0000000000000 -3333.3333333330002 -37074898.612101756 -14124078.950410523 -81670914.772176534 0.00011922113357533813 -0.00019160444169779602 7.1504952313387746e-05 1.5999999991737122 -1.1999999993152104 -3.6779049727385944 
6000.0000000000000 5000.0000000000000 -3333.3333333330002 -37074898.613138378 -14124078.949789144 -81670914.777517691 0.00011913029797036138 0.0013149311701603720 0.00032323389630387620 1.5999999991696927 -1.4999999991855046 -3.6779049730994933 
5000.0000000000000 5000.0000000000000 -3166.6666666669998 -35924107.007840827 -12973287.342294997 -77590835.440348774 0.00011640718250971766 0.0016868860683314510 -0.0018458208588843358 1.9999999990918749 -1.4999999992503434 -3.9638231149715795 
6000.0000000000000 6000.0000000000000 -3166.6666666669998 -35924107.006285675 -12973287.343947737 -77590835.441219032 0.00012062689583759480 -0.00014895450682268028 2.2097964845197040e-05 1.5999999992394935 -1.1999999993688955 -3.9638231150524268 
6000.0000000000000 5000.0000000000000 -3166.6666666669998 -35924107.007200018 -12973287.343376167 -77590835.445969135 0.00012095691237105249 0.0014759701432978832 0.00027047912219795088 1.5999999992352736 -1.4999999992464903 -3.9638231154335775 
5000.0000000000000 5000.0000000000000 -3000.0000000000000 -34773212.405217499 -11822392.739379905 -73510390.939614952 0.00011087843877644963 0.0018289500454429335 -0.0020039404149399540 1.9999999991684605 -1.4999999993139719 -4.2348500450224877 
6000.0000000000000 6000.0000000000000 -3000.0000000000000 -34773212.403853334 -11822392.740830703 -73510390.940360516 0.00011959936502930571 -0.00011029327786775709 -1.9924915704802045e-05 1.5999999993076484 -1.1999999994246699 -4.2348500451063309 
6000.0000000000000 5000.0000000000000 -3000.0000000000000 -34773212.404658839 -11822392.740328355 -73510390.944558233 0.00012008223803100100 0.0016207046208910540 0.00022179564666746865 1.5999999993033391 -1.4999999993100035 -4.2348500455053548 
5000.0000000000000 5000.0000000000000 -2833.3333333330002 -33622214.796740554 -10671395.130579194 -69429581.236238852 0.00010391746300132320 0.0019485762725252960 -0.0021376987132866328 1.9999999992478055 -1.4999999993797855 -4.4909844300384103 
6000.0000000000000 6000.0000000000000 -2833.3333333330002 -33622214.795573980 -10671395.131826527 -69429581.236868411 0.00011635052329558403 -7.8070256087304739e-05 -5.2170106142636235e-05 1.5999999993778076 -1.1999999994822284 -4.4909844301247412 
6000.0000000000000 5000.0000000000000 -2833.3333333330002 -33622214.796283014 -10671395.131409617 -69429581.240551129 0.00011686690790611670 0.0017454826134449056 0.00018022667163380268 1.5999999993735088 -1.4999999993758006 -4.4909844305393873 
5000.0000000000000 5000.0000000000000 -2666.6666666669998 -32471114.173182335 -9520294.5066573974 -65348406.297488622 9.5699556289954998e-05 0.0020431594984053605 -0.0022436108243210052 1.9999999993296826 -1.4999999994476101 -4.7322249371246246 
6000.0000000000000 6000.0000000000000 -2666.6666666669998 -32471114.172217254 -9520294.5077018831 -65348406.298010431 0.00011108267959585632 -5.4188648141980452e-05 -7.2873875585331783e-05 1.5999999994496539 -1.1999999995413073 -4.7322249372129699 
6000.0000000000000 5000.0000000000000 -2666.6666666669998 -32471114.172841117 -9520294.5073834043 -65348406.301214173 0.00011163905179868171 0.0018472169219250576 0.00014814739551023519 1.5999999994454546 -1.4999999994436950 -4.7322249376411181 
5000.0000000000000 5000.0000000000000 -2500.0000000000000 -31319910.525310405 -8369090.8583734538 -61266866.090613961 8.6374893418157377e-05 0.0021105984148562071 -0.0023187299343053595 1.9999999994139217 -1.4999999995173212 -4.9585702332712183 
6000.0000000000000 6000.0000000000000 -2500.0000000000000 -31319910.524547964 -8369090.8592178095 -61266866.091035858 0.00010397904646232439 -4.0010795441154613e-05 -8.0889348365199308e-05 1.5999999995229146 -1.1999999996016815 -4.9585702333611401 
6000.0000000000000 5000.0000000000000 -2500.0000000000000 -31319910.525096908 -8369090.8590075858 -61266866.093795545 0.00010467946633788060 0.0019233410087297568 0.00012726002820477573 1.5999999995188949 -1.4999999995135502 -4.9585702338007982 
5000.0000000000000 5000.0000000000000 -2333.3333333330002 -30168603.843898021 -7217784.1764911916 -57184960.582883179 7.6061899312006715e-05 0.0021492671213069019 -0.0023607185516783531 1.9999999995004027 -1.4999999995888353 -5.1700189853444192 
6000.0000000000000 6000.0000000000000 -2333.3333333330002 -30168603.843336485 -7217784.1771402862 -57184960.583212972 9.5200464690187666e-05 -3.6354890154516935e-05 -7.5697550172613160e-05 1.5999999995973584 -1.1999999996631574 -5.1700189854355081 
6000.0000000000000 5000.0000000000000 -2333.3333333330002 -30168603.843819726 -7217784.1770449094 -57184960.585562229 9.6211664078393327e-05 0.0019718161627554657 0.00011858080096733944 1.5999999995935910 -1.4999999995852749 -5.1700189858848171 
5000.0000000000000 5000.0000000000000 -2166.6666666669998 -29017194.119718894 -6066374.4517741445 -53102689.741564661 6.4850251849070316e-05 0.0021579994477900813 -0.0023678387453474376 1.9999999995890465 -1.4999999996621058 -5.3665698600913192 
6000.0000000000000 6000.0000000000000 -2166.6666666669998 -29017194.119353432 -6066374.4522349453 -53102689.741809994 8.4887671927934315e-05 -4.3465106886345794e-05 -5.7413385886893702e-05 1.5999999996727856 -1.1999999997255673 -5.3665698601832101 
6000.0000000000000 5000.0000000000000 -2166.6666666669998 -29017194.119779196 -6066374.4522577943 -53102689.743781522 8.6408722664349955e-05 0.0019911190577325839 0.00012245192899440293 1.5999999996693359 -1.4999999996588143 -5.3665698606404408 
5000.0000000000000 5000.0000000000000 -2000.0000000000000 -27865681.343541991 -4914861.6749803722 -49020053.533908598 5.2806554201995821e-05 0.0021360973974998486 -0.0023389911359760077 1.9999999996798095 -1.4999999997371170 -5.5482215241430364 
6000.0000000000000 6000.0000000000000 -2000.0000000000000 -27865681.343364473 -4914861.6752619846 -49020053.534077063 7.3165171604471201e-05 -6.1034458679298806e-05 -2.6786667124472117e-05 1.5999999997490244 -1.1999999997887671 -5.5482215242353883 
6000.0000000000000 5000.0000000000000 -2000.0000000000000 -27865681.343740042 -4914861.6754031591 -49020053.535702713 7.5400307565610529e-05 0.0019802144249985621 0.00013852227547197105 1.5999999997459520 -1.4999999997341464 -5.5482215246989544 
5000.0000000000000 5000.0000000000000 -1833.3333333329999 -26714065.506141938 -3763245.8368728431 -44937051.927183799 3.9980927115424423e-05 0.0020833544610265060 -0.0022738205807008010 1.9999999997726758 -1.4999999998138767 -5.7149726440076156 
6000.0000000000000 6000.0000000000000 -1833.3333333329999 -26714065.506140787 -3763245.8369866717 -44937051.927283302 6.0149250234827498e-05 -8.8149719044161532e-05 1.4759715735338441e-05 1.5999999998259236 -1.1999999998526272 -5.7149726441001398 
6000.0000000000000 5000.0000000000000 -1833.3333333329999 -26714065.506472472 -3763245.8372428655 -44937051.928594217 6.3280439439320223e-05 0.0019386181505095797 0.00016569437730190893 1.5999999998232823 -1.4999999998112741 -5.7149726445685838 
5000.0000000000000 5000.0000000000000 -1666.6666666670001 -25562346.598293737 -2611526.9282141449 -40853684.888659023 2.6418436907885860e-05 0.0020000196799423321 -0.0021727581637488260 1.9999999998676490 -1.4999999998924114 -5.8668218860739874 
6000.0000000000000 6000.0000000000000 -1666.6666666670001 -25562346.598453645 -2611526.9281740203 -40853684.888697818 4.5964697642246783e-05 -0.00012329378254347150 6.5133806542503237e-05 1.5999999999033465 -1.1999999999170290 -5.8668218861664334 
6000.0000000000000 5000.0000000000000 -1666.6666666670001 -25562346.598746877 -2611526.9285384151 -40853684.889724836 5.0131348174569577e-05 0.0018663617688856895 0.00020215603526513792 1.5999999999011847 -1.4999999998902194 -5.8668218866384416 
0.0000000000000000 4000.0000000000000 -4833.3333333330002 -47427389.754874349 -24476570.062518030 -118375201.43827471 -6.6020858325068784e-05 0.00020509663511360552 -0.00019653226589096151 4.0000000000000000 -1.7999999987784008 -0.43475698834410625 
0.0000000000000000 5000.0000000000000 -4833.3333333330002 -47427389.751574293 -24476570.063181430 -118375201.42211090 -8.4308327427861171e-05 3.0910828887295282e-05 -0.00024938370936771528 4.0000000000000000 -1.4999999988524912 -0.43475698827228193 
1000.0000000000000 5000.0000000000000 -4833.3333333330002 -47427389.750507288 -24476570.064426422 -118375201.42884344 -3.8272782769614219e-05 1.2913270696486693e-05 -0.00037686110132754882 3.5999999993781122 -1.4999999988565038 -0.43475698831013043 
1000.0000000000000 4000.0000000000000 -4833.3333333330002 -47427389.753902592 -24476570.063708656 -118375201.44451684 -2.1810643632306065e-05 0.00018839599718705469 -0.00032906035910017966 3.5999999993814638 -1.7999999987818955 -0.43475698837642962 
0.0000000000000000 4000.0000000000000 -5000.0000000000000 -48002296.552837983 -25051476.860378500 -120413507.35785080 -7.1797261994906581e-05 9.4893399625298728e-05 -9.5727799978720813e-05 4.0000000000000000 -1.7999999987728426 0.0000000000000000 
0.0000000000000000 5000.0000000000000 -5000.0000000000000 -48002296.549353585 -25051476.860865373 -120413507.34097692 -8.9983906405403664e-05 9.1397771023803376e-06 -0.00012251523429287060 4.0000000000000000 -1.4999999988473285 0.0000000000000000 
1000.0000000000000 5000.0000000000000 -5000.0000000000000 -48002296.548395082 -25051476.862254784 -120413507.34825945 -4.3545179271433423e-05 4.9490677100536788e-07 -0.00018309988549843558 3.5999999993743153 -1.4999999988515964 0.0000000000000000 
1000.0000000000000 4000.0000000000000 -5000.0000000000000 -48002296.551965348 -25051476.861695796 -120413507.36456728 -2.7115753310266461e-05 8.6977456688180156e-05 -0.00015905115864690733 3.5999999993779968 -1.7999999987766080 0.0000000000000000 
0.0000000000000000 4000.0000000000000 -4666.6666666669998 -46277524.704254717 -23326705.012186419 -114298407.16921189 -5.1374936606168856e-05 0.00045196321771339906 -0.00040471663637743161 4.0000000000000000 -1.7999999987941939 -0.85463608561794602 
0.0000000000000000 5000.0000000000000 -4666.6666666669998 -46277524.701297119 -23326705.013165429 -114298407.15441301 -6.9627503785798549e-05 9.6821510443183896e-05 -0.00050716228763956811 4.0000000000000000 -1.4999999988672639 -0.85463608548021397 
1000.0000000000000 5000.0000000000000 -4666.6666666669998 -46277524.700073823 -23326705.014163356 -114298407.16017385 -2.4662922938789757e-05 5.9507711299168259e-05 -0.00077910688792255732 3.5999999993881775 -1.4999999988706458 -0.85463608554901982 
1000.0000000000000 4000.0000000000000 -4666.6666666669998 -46277524.703134820 -23326705.013159260 -114298407.17461988 -8.3823491323167193e-06 0.00041691846535570830 -0.00068548057668597439 3.5999999993907323 -1.7999999987970274 -0.85463608567701066 
0.0000000000000000 4000.0000000000000 -4500.0000000000000 -45127556.739683494 -22176737.048044350 -110221248.02401847 -3.3117558001683029e-05 0.00074409937203580366 -0.00062098407738584045 4.0000000000000000 -1.7999999988186017 -1.2596359602435208 
0.0000000000000000 5000.0000000000000 -4500.0000000000000 -45127556.737021640 -22176737.049267247 -110221248.01047625 -5.0600276375653730e-05 0.00020212070982550173 -0.00076637768546983568 4.0000000000000000 -1.4999999988903197 -1.2596359600454090 
1000.0000000000000 5000.0000000000000 -4500.0000000000000 -45127556.735735916 -22176737.050089687 -110221248.01549637 -7.1159585043484274e-06 0.00014551273424226566 -0.0012005007629413717 3.5999999994023417 -1.4999999988929125 -1.2596359601399942 
1000.0000000000000 4000.0000000000000 -4500.0000000000000 -45127556.738493487 -22176737.048860300 -110221248.02879721 8.2778516496189831e-06 0.00069064149809762042 -0.0010660772017936177 3.5999999994039333 -1.7999999988206326 -1.2596359603252749 
0.0000000000000000 4000.0000000000000 -4333.3333333330002 -43977485.852016754 -21026666.160911229 -106143723.97008219 -1.5221959666176931e-05 0.0010675085277879384 -0.00083848030284222749 4.0000000000000000 -1.7999999988502673 -1.6497552805163218 
0.0000000000000000 5000.0000000000000 -4333.3333333330002 -43977485.849613667 -21026666.162312750 -106143723.95769355 -3.0886959221125918e-05 0.00033683207992438050 -0.0010182205553917298 4.0000000000000000 -1.4999999989205215 -1.6497552802629665 
1000.0000000000000 5000.0000000000000 -4333.3333333330002 -43977485.848316677 -21026666.163011894 -106143723.96216038 1.0881952038280425e-05 0.00026287121112357308 -0.0016254274058321169 3.5999999994192216 -1.4999999989222981 -1.6497552803795446 
1000.0000000000000 4000.0000000000000 -4333.3333333330002 -43977485.850800455 -21026666.161614802 -106143723.97439587 2.4438545993930005e-05 0.00099777438810839470 -0.0014574925708415760 3.5999999994198570 -1.7999999988515061 -1.6497552806179274 
0.0000000000000000 4000.0000000000000 -4166.6666666669998 -42827312.032086395 -19876492.341594897 -102065834.97477527 2.6319118823373799e-07 0.0014105539831824375 -0.0010551600440806054 4.0000000000000000 -1.7999999988880688 -2.0249927146131634 
0.0000000000000000 5000.0000000000000 -4166.6666666669998 -42827312.029911682 -19876492.343116283 -102065834.96344322 -1.2557610587695517e-05 0.00049224697646469947 -0.0012605149617570864 4.0000000000000000 -1.4999999989568895 -2.0249927143093100 
1000.0000000000000 5000.0000000000000 -4166.6666666669998 -42827312.028630480 -19876492.343731139 -102065834.96750934 2.7337606513516974e-05 0.00040385316613097543 -0.0020460403754881534 3.5999999994379546 -1.4999999989578987 -2.0249927144452760 
1000.0000000000000 4000.0000000000000 -4166.6666666669998 -42827312.030868426 -19876492.342219673 -102065834.97875598 3.8148565735044025e-05 0.0013276432184601880 -0.0018524272680563204 3.5999999994377352 -1.7999999988886108 -2.0249927147327829 
0.0000000000000000 4000.0000000000000 -4000.0000000000000 -41677035.270703569 -18726215.580890872 -97987581.005444229 1.2517327922449868e-05 0.0017634409894190107 -0.0012710842597016046 4.0000000000000000 -1.7999999989310855 -2.3853469305985460 
0.0000000000000000 5000.0000000000000 -4000.0000000000000 -41677035.268731393 -18726215.582479656 -97987580.995078817 3.3509317682681156e-06 0.00066070241734472301 -0.0014940629059090951 4.0000000000000000 -1.4999999989985822 -2.3853469302485650 
1000.0000000000000 5000.0000000000000 -4000.0000000000000 -41677035.267478943 -18726215.583038714 -97987580.998863429 4.1242308446085787e-05 0.00056117475466424278 -0.0024587298726396018 3.5999999994580283 -1.4999999989989143 -2.3853469304022532 
1000.0000000000000 4000.0000000000000 -4000.0000000000000 -41677035.269497216 -18726215.581461739 -97987581.009194002 4.8610925769971361e-05 0.0016706591804451798 -0.0022468993429525571 3.5999999994571010 -1.7999999989310633 -2.3853469307351181 
0.0000000000000000 4000.0000000000000 -3833.3333333330002 -40526655.558672450 -17575835.869593259 -93908962.029443339 2.1459246459823205e-05 0.0021178654021122081 -0.0014869848347719037 4.0000000000000000 -1.7999999989785711 -2.7308165964111466 
0.0000000000000000 5000.0000000000000 -3833.3333333330002 -40526655.556880251 -17575835.871202834 -93908962.019961923 1.6457746021755901e-05 0.00083547319702161451 -0.0017207143216903453 4.0000000000000000 -1.4999999990448805 -2.7308165960190594 
1000.0000000000000 5000.0000000000000 -3833.3333333330002 -40526655.555661872 -17575835.871726569 -93908962.023555040 5.2223825041580151e-05 0.00072810331451344558 -0.0028621148100659638 3.5999999994791696 -1.4999999990446400 -2.7308165961894910 
1000.0000000000000 4000.0000000000000 -3833.3333333330002 -40526655.557484813 -17575835.870128464 -93908962.033038408 5.5735903092340148e-05 0.0020182768224884557 -0.0026387085302492911 3.5999999994776890 -1.7999999989781215 -2.7308165965641575 
0.0000000000000000 4000.0000000000000 -3666.6666666669998 -39376172.886787347 -16425353.198490039 -89829978.014114201 2.7397086277936054e-05 0.0024666645162590437 -0.0017034443821584604 4.0000000000000000 -1.7999999990299267 -3.0614003798708884 
0.0000000000000000 5000.0000000000000 -3666.6666666669998 -39376172.885155000 -16425353.200079104 -89829978.005441487 2.6768067114097596e-05 0.0010105963285187776 -0.0019423411033140177 4.0000000000000000 -1.4999999990951720 -3.0614003794403963 
1000.0000000000000 5000.0000000000000 -3666.6666666669998 -39376172.883972920 -16425353.200582398 -89829978.008910298 6.0295589062251706e-05 0.00089844075151598000 -0.0032557608542663034 3.5999999995012533 -1.4999999990944668 -3.0614003796270812 
1000.0000000000000 4000.0000000000000 -3666.6666666669998 -39376172.885622986 -16425353.199003192 -89829978.017610893 5.9818688684268503e-05 0.0023628811517647677 -0.0030263389568725698 3.5999999994993668 -1.7999999990291775 -3.0614003800402001 
0.0000000000000000 4000.0000000000000 -3500.0000000000000 -38225587.245830238 -15274767.558359306 -85750628.926769897 3.0825306331194620e-05 0.0028035506396626160 -0.0019206019957798432 4.0000000000000000 -1.7999999990846824 -3.3770969486844415 
0.0000000000000000 5000.0000000000000 -3500.0000000000000 -38225587.244339556 -15274767.559891358 -85750628.918837875 3.4502352727048656e-05 0.0011808125842667108 -0.0021602750226315591 4.0000000000000000 -1.4999999991489408 -3.3770969482189526 
1000.0000000000000 5000.0000000000000 -3500.0000000000000 -38225587.243195370 -15274767.560385162 -85750628.922231585 6.5689149461439834e-05 0.0010665856229058678 -0.0036393524438104075 3.5999999995242606 -1.4999999991478725 -3.3770969484217379 
1000.0000000000000 4000.0000000000000 -3500.0000000000000 -38225587.244693190 -15274767.558860768 -85750628.930209175 6.1342553028076577e-05 0.0026976763118520060 -0.0034083936988629363 3.5999999995220984 -1.7999999990837412 -3.3770969488701548 
0.0000000000000000 4000.0000000000000 -3333.3333333330002 -37074898.626582861 -14124078.939980667 -81670914.734733731 3.2294415549277103e-05 0.0031229559887022609 -0.0021380784548198297 4.0000000000000000 -1.7999999991424784 -3.6779049704332762 
0.0000000000000000 5000.0000000000000 -3333.3333333330002 -37074898.625217319 -14124078.941423479 -81670914.727481514 3.9989119729176551e-05 0.0013415119805070890 -0.0023751113632896701 4.0000000000000000 -1.4999999992057576 -3.6779049699359430 
1000.0000000000000 5000.0000000000000 -3333.3333333330002 -37074898.624113411 -14124078.941915950 -81670914.730835170 6.8744254972879376e-05 0.0012275329915130014 -0.0040122617814836101 3.5999999995482415 -1.4999999992044151 -3.6779049701548949 
1000.0000000000000 4000.0000000000000 -3333.3333333330002 -37074898.625477746 -14124078.940478440 -81670914.738144606 6.0848420389641850e-05 0.0030166012821242691 -0.0037833221756242816 3.5999999995459140 -1.7999999991414302 -3.6779049706356455 
0.0000000000000000 4000.0000000000000 -3166.6666666669998 -35924107.019822672 -12973287.334130812 -77590835.405322462 3.2334968987350156e-05 0.0034198565054805201 -0.0023548831750752858 4.0000000000000000 -1.7999999992030518 -3.9638231125799779 
0.0000000000000000 5000.0000000000000 -3166.6666666669998 -35924107.018567204 -12973287.335455921 -77590835.398695797 4.3589537414876102e-05 0.0014886248016440760 -0.0025867401706917478 4.0000000000000000 -1.4999999992652679 -3.9638231120537220 
1000.0000000000000 5000.0000000000000 -3166.6666666669998 -35924107.017507508 -12973287.335953239 -77590835.402033284 6.9832629824064055e-05 0.0013768192297637127 -0.0043733360762733750 3.5999999995732996 -1.4999999992637287 -3.9638231122890408 
1000.0000000000000 4000.0000000000000 -3166.6666666669998 -35924107.018755354 -12973287.334631201 -77590835.408724576 5.8858337308746890e-05 0.0033142144729842475 -0.0041491046336224312 3.5999999995708913 -1.7999999992019584 -3.9638231127993326 
0.0000000000000000 4000.0000000000000 -3000.0000000000000 -34773212.416318595 -11822392.731578989 -73510390.905829638 3.1424005881257188e-05 0.0036896294174301441 -0.0025695084101285265 4.0000000000000000 -1.7999999992662237 -4.2348500424729618 
0.0000000000000000 5000.0000000000000 -3000.0000000000000 -34773212.415159471 -11822392.732761247 -73510390.899780631 4.5651500267106502e-05 0.0016186216696732537 -0.0027943653588394465 4.0000000000000000 -1.4999999993271869 -4.2348500419205060 
1000.0000000000000 5000.0000000000000 -3000.0000000000000 -34773212.414149828 -11822392.733268134 -73510390.903116748 6.9313718000475649e-05 0.0015105546651637083 -0.0047208258024558289 3.5999999995995813 -1.4999999993255151 -4.2348500421724502 
1000.0000000000000 4000.0000000000000 -3000.0000000000000 -34773212.415296517 -11822392.732087029 -73510390.909235090 5.5841966197411706e-05 0.0035855679761850204 -0.0045032849203116001 3.5999999995971597 -1.7999999992651285 -4.2348500427096534 
0.0000000000000000 4000.0000000000000 -2833.3333333330002 -33622214.806841925 -10671395.123097774 -69429581.203563452 2.9954563404310217e-05 0.0039280060672989801 -0.0027799874883338870 4.0000000000000000 -1.7999999993318889 -4.4909844273361639 
0.0000000000000000 5000.0000000000000 -2833.3333333330002 -33622214.805766657 -10671395.124114960 -69429581.198049918 4.6480932980579745e-05 0.0017284881470789901 -0.0029964918590377186 4.0000000000000000 -1.4999999993912887 -4.4909844267600567 
1000.0000000000000 5000.0000000000000 -2833.3333333330002 -33622214.804815114 -10671395.124635091 -69429581.201392144 6.7502188770572611e-05 0.0016253878243990651 -0.0050522797091676558 3.5999999996272645 -1.4999999993895368 -4.4909844270288977 
1000.0000000000000 4000.0000000000000 -2833.3333333330002 -33622214.805874363 -10671395.123617534 -69429581.206978098 5.2184335601860931e-05 0.0038261450093640325 -0.0048429033220588665 3.5999999996248806 -1.7999999993308167 -4.4909844275905257 
0.0000000000000000 4000.0000000000000 -2666.6666666669998 -32471114.182161450 -9520294.4994581193 -65348406.265829049 2.8227525710895788e-05 0.0041310274230915624 -0.0029838411025973968 4.0000000000000000 -1.7999999994000087 -4.7322249342745728 
0.0000000000000000 5000.0000000000000 -2666.6666666669998 -32471114.181158774 -9520294.5002906024 -65348406.260814033 4.6333417332790293e-05 0.0018156755256087823 -0.0031910085319231422 4.0000000000000000 -1.4999999994573998 -4.7322249336772142 
1000.0000000000000 5000.0000000000000 -2666.6666666669998 -32471114.180275701 -9520294.5008269027 -65348406.264163777 6.4658457901107809e-05 0.0017184716353330571 -0.0053644755928198900 3.5999999996565633 -1.4999999994556104 -4.7322249339631854 
1000.0000000000000 4000.0000000000000 -2666.6666666669998 -32471114.181259718 -9520294.4999929629 -65348406.269253530 4.8177036614186858e-05 0.0040318092606956932 -0.0051643333297865983 3.5999999996542509 -1.7999999993989717 -4.7322249345468856 
0.0000000000000000 4000.0000000000000 -2500.0000000000000 -31319910.533038575 -8369090.8514244901 -61266866.059911296 2.6460427524812038e-05 0.0042949380462070554 -0.0031780874608863582 4.0000000000000000 -1.7999999994706004 -4.9585702302781600 
0.0000000000000000 5000.0000000000000 -2500.0000000000000 -31319910.532098386 -8369090.8520549946 -61266866.055362582 4.5410686023044890e-05 0.0018781067416181033 -0.0033752272420657821 4.0000000000000000 -1.4999999995253930 -4.9585702296618184 
1000.0000000000000 5000.0000000000000 -2500.0000000000000 -31319910.531296633 -8369090.8526097927 -61266866.058715940 6.0980651258469153e-05 0.0017874735219725920 -0.0056534346758293445 3.5999999996877241 -1.4999999995236015 -4.9585702299650869 
1000.0000000000000 4000.0000000000000 -2500.0000000000000 -31319910.532216229 -8369090.8519772189 -61266866.063341632 4.4022211564383816e-05 0.0041987008010393656 -0.0054632838259837521 3.5999999996855085 -1.7999999994696005 -4.9585702305686317 
0.0000000000000000 4000.0000000000000 -2333.3333333330002 -30168603.850237839 -7217784.1697653811 -57184960.553112246 2.4788023456495519e-05 0.0044161472390099755 -0.0033593012869341491 4.0000000000000000 -1.7999999995437335 -5.1700189822131923 
0.0000000000000000 5000.0000000000000 -2333.3333333330002 -30168603.849351205 -7217784.1701787943 -57184960.549001798 4.3849729273329408e-05 0.0019141530479498856 -0.0035459070331226540 4.0000000000000000 -1.4999999995951803 -5.1700189815800215 
1000.0000000000000 5000.0000000000000 -2333.3333333330002 -30168603.848646276 -7217784.1707539940 -57184960.552350193 5.6597050941084352e-05 0.0018305312615544528 -0.0059144003197086356 3.5999999997210250 -1.4999999995934159 -5.1700189819006619 
1000.0000000000000 4000.0000000000000 -2333.3333333330002 -30168603.849510893 -7217784.1703383625 -57184960.556540094 3.9834727145860429e-05 0.0043231813183992980 -0.0057347703133572439 3.5999999997189258 -1.7999999995427669 -5.1700189825219240 
0.0000000000000000 4000.0000000000000 -2166.6666666669998 -29017194.124521762 -6066374.4452482127 -53102689.712733269 2.3265801106884387e-05 0.0044912450967988255 -0.0035235161337355669 4.0000000000000000 -1.7999999996195217 -5.3665698568269740 
0.0000000000000000 5000.0000000000000 -2166.6666666669998 -29017194.123680834 -6066374.4454313945 -53102689.709036432 4.1733979828948373e-05 0.0019226314867214645 -0.0036991738263371641 4.0000000000000000 -1.4999999996667068 -5.3665698561790283 
1000.0000000000000 5000.0000000000000 -2166.6666666669998 -29017194.123091124 -6066374.4460285958 -53102689.712367103 5.1578026641059096e-05 0.0018462700224047431 -0.0061416915508523545 3.5999999997567835 -1.4999999996649955 -5.3665698565169890 
1000.0000000000000 4000.0000000000000 -2166.6666666669998 -29017194.123909000 -6066374.4458434824 -53102689.716146216 3.5647204541425470e-05 0.0044018203571106838 -0.0059729811044549573 3.5999999997548184 -1.7999999996185829 -5.3665698571539426 
0.0000000000000000 4000.0000000000000 -2000.0000000000000 -27865681.346645549 -4914861.6686340887 -49020053.506056815 2.1882054758363308e-05 0.0045169925655833051 -0.0036661384444171504 4.0000000000000000 -1.7999999996981197 -5.5482215207509817 
0.0000000000000000 5000.0000000000000 -2000.0000000000000 -27865681.345843557 -4914861.6685758568 -49020053.502751894 3.9102491463084617e-05 0.0019028262178919085 -0.0038305602588592051 4.0000000000000000 -1.4999999997399460 -5.5482215200902196 
1000.0000000000000 5000.0000000000000 -2000.0000000000000 -27865681.345390685 -4914861.6691964502 -49020053.506048083 4.5940753339977575e-05 0.0018337987536345237 -0.0063287041297425840 3.5999999997953585 -1.4999999997383120 -5.5482215204453089 
1000.0000000000000 4000.0000000000000 -2000.0000000000000 -27865681.346168898 -4914861.6692534471 -49020053.509438410 3.1417142831516526e-05 0.0044313600062858075 -0.0061711750389659183 3.5999999997935430 -1.7999999996972014 -5.5482215210960186 
0.0000000000000000 4000.0000000000000 -1833.3333333329999 -26714065.507367391 -3763245.8306882242 -44937051.900383890 2.0567515167368713e-05 0.0044902591226766500 -0.0037819302922051531 4.0000000000000000 -1.7999999997797176 -5.7149726404937917 
0.0000000000000000 5000.0000000000000 -1833.3333333329999 -26714065.506598629 -3763245.8303793701 -44937051.897451602 3.5955229461273100e-05 0.0018544925461399628 -0.0039349383515687418 4.0000000000000000 -1.4999999998148934 -5.7149726398220873 
1000.0000000000000 5000.0000000000000 -1833.3333333329999 -26714065.506307907 -3763245.8310246645 -44937051.900692724 3.9657166128568987e-05 0.0017927072968963187 -0.0064677636393327981 3.5999999998371526 -1.4999999998133597 -5.7149726401939427 
1000.0000000000000 4000.0000000000000 -1833.3333333329999 -26714065.507052436 -3763245.8313333439 -44937051.903713651 2.7036861216990629e-05 0.0044086731035981198 -0.0063215370646027870 3.5999999998355068 -1.7999999997788172 -5.7149726408565575 
0.0000000000000000 4000.0000000000000 -1666.6666666670001 -25562346.597443074 -2611526.9221747015 -40853684.863016009 1.9198661324354692e-05 0.0044081203937713573 -0.0038648790345521687 4.0000000000000000 -1.7999999998645377 -5.8668218824450253 
0.0000000000000000 5000.0000000000000 -1666.6666666670001 -25562346.596702784 -2611526.9216079907 -40853684.860438578 3.2268615758850894e-05 0.0017779012442930293 -0.0040063856639843583 4.0000000000000000 -1.4999999998915614 -5.8668218817641629 
1000.0000000000000 5000.0000000000000 -1666.6666666670001 -25562346.596603848 -2611526.9222793686 -40853684.863600448 3.2669126956488482e-05 0.0017231271228121711 -0.0065499494965958437 3.5999999998826233 -1.4999999998901516 -5.8668218821522409 
1000.0000000000000 4000.0000000000000 -1666.6666666670001 -25562346.597319674 -2611526.9228472221 -40853684.866269343 2.2343812686691088e-05 0.0043308192505430530 -0.0064150300896508045 3.5999999998811711 -1.7999999998636560 -5.8668218828249845 
7000.0000000000000 2000.0000000000000 -4833.3333333330002 -47427389.755154073 -24476570.081019782 -118375201.58212006 8.5984695888086557e-05 0.00038493035636025881 0.00022403822627777663 1.1999999990369528 -2.3999999990757934 -0.43475698896863435 
6000.0000000000000 2000.0000000000000 -4833.3333333330002 -47427389.753858171 -24476570.078438364 -118375201.57184918 0.00019963714673811503 0.00036520406641014127 0.00024776344121873621 1.5999999987857285 -2.3999999990827230 -0.43475698893836612 
7000.0000000000000 2000.0000000000000 -5000.0000000000000 -48002296.554721415 -25051476.880559053 -120413507.50795728 8.6508689909358489e-05 0.00018532582039061302 0.00011674649384119290 1.1999999990326158 -2.3999999990715022 0.0000000000000000 
6000.0000000000000 2000.0000000000000 -5000.0000000000000 -48002296.553327948 -25051476.877890937 -120413507.49741203 0.00020303623441230242 0.00017551917494314868 0.00012998723476512574 1.5999999987812754 -2.3999999990785881 0.0000000000000000 
7000.0000000000000 2000.0000000000000 -4666.6666666669998 -46277524.701655678 -23326705.027595751 -114298407.30120489 8.4617904084296596e-05 0.00080794649213834628 0.00042019449198701166 1.1999999990495178 -2.3999999990878256 -0.85463608681965453 
6000.0000000000000 2000.0000000000000 -4666.6666666669998 -46277524.700571023 -23326705.025202267 -114298407.29152180 0.00019000204629114866 0.00076856030538824535 0.00045769949666880721 1.5999999987991287 -2.3999999990943270 -0.85463608675849578 
7000.0000000000000 2000.0000000000000 -4500.0000000000000 -45127556.734817386 -22176737.060858477 -110221248.14542826 8.2784449198267083e-05 0.0012700756829912335 0.00058081839988741234 1.1999999990694477 -2.3999999991060714 -1.2596359619798327 
6000.0000000000000 2000.0000000000000 -4500.0000000000000 -45127556.733959392 -22176737.058673505 -110221248.13639967 0.00017547673303817686 0.0012121128261371665 0.00061594604344475292 1.5999999988212945 -2.3999999991119623 -1.2596359618879955 
7000.0000000000000 2000.0000000000000 -4333.3333333330002 -43977485.845412828 -21026666.171565913 -106143724.08204687 8.0721493512336196e-05 0.0017562678735479550 0.00070898091739736208 1.1999999990959287 -2.3999999991293026 -1.6497552827489110 
6000.0000000000000 2000.0000000000000 -4333.3333333330002 -43977485.844770677 -21026666.169596218 -106143724.07371803 0.00015759391656870267 0.0016819805533892505 0.00072432296828393785 1.5999999988516593 -2.3999999991344780 -1.6497552826273227 
7000.0000000000000 2000.0000000000000 -4166.6666666669998 -42827312.024205476 -19876492.350472227 -102065835.07831435 7.8509414898884038e-05 0.0022548537425740602 0.00080845618206429380 1.1999999991281920 -2.3999999991565555 -2.0249927173075499 
6000.0000000000000 2000.0000000000000 -4166.6666666669998 -42827312.023754291 -19876492.348715808 -102065835.07071160 0.00013773324345292467 0.0021671943931203213 0.00078880280984801679 1.5999999988894695 -2.3999999991609688 -2.0249927171577102 
7000.0000000000000 2000.0000000000000 -4000.0000000000000 -41677035.261947900 -18726215.588324860 -97987581.101463303 7.6153486485151860e-05 0.0027567476328181828 0.00088341992746031090 1.1999999991655119 -2.3999999991870884 -2.3853469337236786 
6000.0000000000000 2000.0000000000000 -4000.0000000000000 -41677035.261656292 -18726215.586774275 -97987581.094596982 0.00011701344634171496 0.0026590458885133693 0.00081723360958046759 1.5999999989339067 -2.3999999991907370 -2.3853469335475208 
7000.0000000000000 2000.0000000000000 -3833.3333333330002 -40526655.549394958 -17575835.875876214 -93908962.118742734 7.3628814528251278e-05 0.0032548066438796482 0.00093814587220657089 1.1999999992072132 -2.3999999992203480 -2.7308165999389797 
6000.0000000000000 2000.0000000000000 -3833.3333333330002 -40526655.549229607 -17575835.874520682 -93908962.112609595 9.6278010363999578e-05 0.0031504792342890867 0.00081793218611792950 1.5999999989841529 -2.3999999992232577 -2.7308165997387412 
7000.0000000000000 2000.0000000000000 -3666.6666666669998 -39376172.877300411 -16425353.203879314 -89829978.097400218 7.0897969891963884e-05 0.0037432670359254703 0.00097677295601366937 1.1999999992526726 -2.3999999992559364 -3.0614003837760140 
6000.0000000000000 2000.0000000000000 -3666.6666666669998 -39376172.877228804 -16425353.202706080 -89829978.091985866 7.6127669337493117e-05 0.0036356358229243943 0.00079896286937838337 1.5999999990394302 -2.3999999992581489 -3.0614003835541217 
7000.0000000000000 2000.0000000000000 -3500.0000000000000 -38225587.236412726 -15274767.563082993 -85750629.004664093 6.7920787940225219e-05 0.0042173032553122491 0.0010031559286240589 1.1999999993013180 -2.3999999992935881 -3.3770969529437518 
6000.0000000000000 2000.0000000000000 -3500.0000000000000 -38225587.236404903 -15274767.562078299 -85750628.999945015 5.6965211728740532e-05 0.0041094894164534299 0.00076770218811230014 1.5999999990990221 -2.3999999992951540 -3.3770969527027290 
7000.0000000000000 2000.0000000000000 -3333.3333333330002 -37074898.617486008 -14124078.944242451 -81670914.807780296 6.4660037409267654e-05 0.0046727226139231474 0.0010207454356354207 1.1999999993526309 -2.3999999993331476 -3.6779049750256680 
6000.0000000000000 2000.0000000000000 -3333.3333333330002 -37074898.617515579 -14124078.943392159 -81670914.803725719 3.9039078549775215e-05 0.0045675512818013995 0.00073060534569623949 1.5999999991622802 -2.3999999993341210 -3.6779049747680608 
7000.0000000000000 2000.0000000000000 -3166.6666666669998 -35924107.011275269 -12973287.338114182 -77590835.473994613 6.1081573151266607e-05 0.0051056628428625848 0.0010325480204940343 1.1999999994061439 -2.3999999993745544 -3.9638231174860747 
6000.0000000000000 2000.0000000000000 -3166.6666666669998 -35924107.011319831 -12973287.337404162 -77590835.470567897 2.2487002912135129e-05 0.0050056365416061063 0.00069314274473350425 1.5999999992286300 -2.3999999993749905 -3.9638231172143779 
7000.0000000000000 2000.0000000000000 -3000.0000000000000 -34773212.408531442 -11822392.735450799 -73510390.970534623 5.7154860322762861e-05 0.0055123610190910607 0.0010410313470622925 1.1999999994614390 -2.3999999994178318 -4.2348500476748550 
6000.0000000000000 2000.0000000000000 -3000.0000000000000 -34773212.408572905 -11822392.734867224 -73510390.967694581 7.3704988478913588e-06 0.0054196517772349736 0.00065974922062044872 1.5999999992975698 -2.3999999994177839 -4.2348500473914692 
7000.0000000000000 2000.0000000000000 -2833.3333333330002 -33622214.800011717 -10671395.127011303 -69429581.264646381 5.2849666096143163e-05 0.0058889924000497173 0.0010481244842773161 1.1999999995181423 -2.3999999994630747 -4.4909844328171689 
6000.0000000000000 2000.0000000000000 -2833.3333333330002 -33622214.800036378 -10671395.126540869 -69429581.262348473 -6.3008246790298665e-06 0.0058054522343045142 0.00063384124603535767 1.5999999993686644 -2.3999999994625951 -4.4909844325243506 
7000.0000000000000 2000.0000000000000 -2666.6666666669998 -32471114.176474456 -9520294.5035558529 -65348406.323576488 4.8139479034447737e-05 0.0062315036414844335 0.0010552163995431699 1.1999999995759227 -2.3999999995104484 -4.7322249400189902 
6000.0000000000000 2000.0000000000000 -2666.6666666669998 -32471114.176472995 -9520294.5031859372 -65348406.321773715 -1.8544317958261232e-05 0.0061586460886405682 0.00061785632491338793 1.5999999994415428 -2.3999999995095851 -4.7322249397188267 
7000.0000000000000 2000.0000000000000 -2500.0000000000000 -31319910.528673917 -8369090.8558404744 -61266866.114553630 4.3000512786223370e-05 0.0065354475149348333 0.0010631224453863024 1.1999999996344872 -2.3999999995601775 -4.9585702362710471 
6000.0000000000000 2000.0000000000000 -2500.0000000000000 -31319910.528641313 -8369090.8555592047 -61266866.113197312 -2.9384055471315894e-05 0.0064744576157428728 0.00061328786659815783 1.5999999995158891 -2.3999999995589785 -4.9585702359654240 
7000.0000000000000 2000.0000000000000 -2333.3333333330002 -30168603.847370580 -7217784.1746273562 -57184960.604825675 3.7408470697380580e-05 0.0067958400229961259 0.0010721199348393299 1.1999999996935744 -2.3999999996125507 -5.1700189884401349 
6000.0000000000000 2000.0000000000000 -2333.3333333330002 -30168603.847306006 -7217784.1744236667 -57184960.603865989 -3.8842348204882386e-05 0.0067475996914978112 0.00062074749136362215 1.5999999995914385 -2.3999999996110595 -5.1700189881307184 
7000.0000000000000 2000.0000000000000 -2166.6666666669998 -29017194.123325832 -6066374.4506795174 -53102689.761641204 3.1343940439062624e-05 0.0070070847217853036 0.0010819203073829595 1.1999999997529527 -2.3999999996679153 -5.3665698632738659 
6000.0000000000000 2000.0000000000000 -2166.6666666669998 -29017194.123232625 -6066374.4505432528 -53102689.761027932 -4.6927666488433263e-05 0.0069721700236994805 0.00063998949716904008 1.5999999996679681 -2.3999999996661763 -5.3665698629620824 
7000.0000000000000 2000.0000000000000 -2000.0000000000000 -27865681.347296692 -4914861.6747555304 -49020053.552231260 2.4788735103029074e-05 0.0071627559777071338 0.0010916906102569615 1.1999999998124133 -2.3999999997266772 -5.5482215274037836 
6000.0000000000000 2000.0000000000000 -2000.0000000000000 -27865681.347182285 -4914861.6746774865 -49020053.551914230 -5.3634834395229351e-05 0.0071414180097024143 0.00066995034389152463 1.5999999997452898 -2.3999999997247348 -5.5482215270908277 
7000.0000000000000 2000.0000000000000 -1833.3333333329999 -26714065.510045957 -3763245.8376197037 -44937051.943845972 1.7725382899019546e-05 0.0072554921302165291 0.0011000643085445872 1.1999999998717643 -2.3999999997893049 -5.7149726473383211 
6000.0000000000000 2000.0000000000000 -1833.3333333329999 -26714065.509921938 -3763245.8375917329 -44937051.943775669 -5.8942349785617794e-05 0.0072476640461190088 0.00070877506409105389 1.5999999998232437 -2.3999999997872066 -5.7149726470251290 
7000.0000000000000 2000.0000000000000 -1666.6666666670001 -25562346.602336958 -2611526.9300368181 -40853684.903736420 1.0140754816351593e-05 0.0072768394988983838 0.0011051033075478033 1.1999999999308286 -2.3999999998563357 -5.8668218894667126 
6000.0000000000000 2000.0000000000000 -1666.6666666670001 -25562346.602219172 -2611526.9300519116 -40853684.903864510 -6.2806305804201617e-05 0.0072821349544836137 0.00075380516849084722 1.5999999999016885 -2.3999999998541295 -5.8668218891539743 
8000.0000000000000 2000.0000000000000 -4833.3333333330002 -47427389.756177552 -24476570.083146371 -118375201.59138075 -4.4384113333991233e-05 0.00036906914023449966 8.1037749231847547e-05 0.79999999931953869 -2.3999999990772838 -0.43475698901344145 
9000.0000000000000 2000.0000000000000 -4833.3333333330002 -47427389.756752267 -24476570.084642902 -118375201.59846787 -5.1629056904684662e-05 0.00034283673120193131 5.4137124932951164e-05 0.39999999964787619 -2.3999999990811713 -0.43475698904880700 
9000.0000000000000 1000.0000000000000 -4833.3333333330002 -47427389.759095997 -24476570.082940921 -118375201.61043328 -0.00010315483133294837 0.00019409539028762243 7.3990833459178234e-05 0.39999999965290561 -2.6999999994977362 -0.43475698910090543 
8000.0000000000000 2000.0000000000000 -5000.0000000000000 -48002296.555879474 -25051476.882838652 -120413507.51779981 -4.7622931265929327e-05 0.00017743512875537286 4.4908520457397283e-05 0.79999999931541788 -2.3999999990730911 0.0000000000000000 
9000.0000000000000 2000.0000000000000 -5000.0000000000000 -48002296.556583121 -25051476.884485178 -120413507.52547416 -5.3998641988968084e-05 0.00016438085137329385 3.1101078041562998e-05 0.39999999964561217 -2.3999999990771563 0.0000000000000000 
9000.0000000000000 1000.0000000000000 -5000.0000000000000 -48002296.559083499 -25051476.882923543 -120413507.53799008 -0.00010767913284863304 9.2672267479361126e-05 4.0612943873320069e-05 0.39999999965083799 -2.6999999994957466 0.0000000000000000 
8000.0000000000000 2000.0000000000000 -4666.6666666669998 -46277524.702446133 -23326705.029440671 -114298407.30936506 -3.5326470655922527e-05 0.00077626567732325493 0.00013970229998233795 0.79999999933097776 -2.3999999990890228 -0.85463608690257498 
9000.0000000000000 2000.0000000000000 -4666.6666666669998 -46277524.702810496 -23326705.030669894 -114298407.31536005 -4.4845395674147799e-05 0.00072391246279181209 8.7279871750475479e-05 0.39999999965420580 -2.3999999990924259 -0.85463608696774618 
9000.0000000000000 1000.0000000000000 -4666.6666666669998 -46277524.704868779 -23326705.028727148 -114298407.32632452 -9.1101125505599546e-05 0.00041247149725381861 0.00012872915130864425 0.39999999965870703 -2.6999999995033717 -0.85463608706814997 
8000.0000000000000 2000.0000000000000 -4500.0000000000000 -45127556.735434249 -22176737.062463455 -110221248.15260454 -2.1951195558406190e-05 0.0012233733758670209 0.00017736493263559240 0.79999999934815691 -2.3999999991068175 -1.2596359620951845 
9000.0000000000000 2000.0000000000000 -4500.0000000000000 -45127556.735667229 -22176737.063481610 -110221248.15766115 -3.4470679249135752e-05 0.0011463011259354790 0.00010001692835091474 0.39999999966375566 -2.3999999991095144 -1.2596359621852822 
9000.0000000000000 1000.0000000000000 -4500.0000000000000 -45127556.737491407 -22176737.061369278 -110221248.16780598 -7.4617744587126446e-05 0.00065821423376203811 0.00016361117440423688 0.39999999966751437 -2.6999999995120301 -1.2596359623309576 
8000.0000000000000 2000.0000000000000 -4333.3333333330002 -43977485.845895536 -21026666.172961436 -106143724.08833805 -5.8426006832443197e-06 0.0016963058627232754 0.00020362968166380270 0.79999999936994393 -2.3999999991294945 -1.6497552828918816 
9000.0000000000000 2000.0000000000000 -4333.3333333330002 -43977485.846049100 -21026666.173809249 -106143724.09258893 -2.1529512008533756e-05 0.0015974477136301158 0.00010153830366757861 0.39999999967583838 -2.3999999991313490 -1.6497552830026800 
9000.0000000000000 1000.0000000000000 -4333.3333333330002 -43977485.847682416 -21026666.171583336 -106143724.10206176 -5.6309682863665562e-05 0.00092445927084358062 0.00018571715481941430 0.39999999967874078 -2.6999999995231896 -1.6497552831911781 
8000.0000000000000 2000.0000000000000 -4166.6666666669998 -42827312.024582200 -19876492.351681720 -102065835.08380479 1.1642113772466835e-05 0.0021840478771007702 0.00022375519143345791 0.79999999939549415 -2.3999999991561434 -2.0249927174740479 
9000.0000000000000 2000.0000000000000 -4166.6666666669998 -42827312.024689600 -19876492.352389060 -102065835.08736299 -7.0363478216460426e-06 0.0020673396993503776 9.7997639990572030e-05 0.39999999968991101 -2.3999999991570884 -2.0249927176019189 
9000.0000000000000 1000.0000000000000 -4166.6666666669998 -42827312.026168570 -19876492.350094333 -102065835.09628491 -3.7843793560571716e-05 0.0012053598143078239 0.00019987272951229332 0.39999999969191979 -2.6999999995364239 -2.0249927178312501 
8000.0000000000000 2000.0000000000000 -4000.0000000000000 -41677035.262240224 -18726215.589367241 -97987581.106225893 2.9409091543510977e-05 0.0026779043411373276 0.00024050658017219068 0.79999999942415467 -2.3999999991860688 -2.3853469339101996 
9000.0000000000000 2000.0000000000000 -4000.0000000000000 -41677035.262322143 -18726215.589956392 -97987581.109187096 8.1078063140111719e-06 0.0025478937053513102 9.3205644820536457e-05 0.39999999970555183 -2.3999999991860914 -2.3853469340520479 
9000.0000000000000 1000.0000000000000 -4000.0000000000000 -41677035.263677664 -18726215.587629311 -97987581.117657885 -2.0241535926196503e-05 0.0014959856845851486 0.00020916338956557311 0.39999999970668382 -2.6999999995513986 -2.3853469343205878 
8000.0000000000000 2000.0000000000000 -3833.3333333330002 -40526655.549620405 -17575835.876767442 -93908962.122841254 4.6621233226808247e-05 0.0031708692057963966 0.00025527833835545542 0.79999999945540068 -2.3999999992187484 -2.7308166001424961 
9000.0000000000000 2000.0000000000000 -3833.3333333330002 -40526655.549689196 -17575835.877255362 -93908962.125286058 2.3159744944705836e-05 0.0030323385363667764 8.9304804682835539e-05 0.39999999972243083 -2.3999999992178762 -2.7308166002956833 
9000.0000000000000 1000.0000000000000 -3833.3333333330002 -40526655.550947599 -17575835.874926407 -93908962.133388296 -4.0865486399399284e-06 0.0017921659248138419 0.00021543622397143203 0.39999999972273809 -2.6999999995678614 -2.7308166006021066 
8000.0000000000000 2000.0000000000000 -3666.6666666669998 -39376172.877473667 -16425353.204633297 -89829978.100891188 6.2661792957639114e-05 0.0036571274232656457 0.00026874926916142084 0.79999999948879819 -2.3999999992538066 -3.0614003839938757 
9000.0000000000000 2000.0000000000000 -3666.6666666669998 -39376172.877536282 -16425353.205033217 -89829978.102887303 3.7536952403982341e-05 0.0035148107040199098 8.7336650729513574e-05 0.39999999974028910 -2.3999999992520973 -3.0614003841561637 
9000.0000000000000 1000.0000000000000 -3666.6666666669998 -39376172.878720120 -16425353.202728648 -89829978.110689506 1.0324758838356574e-05 0.0020902716583897558 0.00021972757059794272 0.39999999973984529 -2.6999999995856290 -3.0614003844993816 
8000.0000000000000 2000.0000000000000 -3500.0000000000000 -38225587.236546271 -15274767.563712228 -85750629.007598370 7.7096421613557145e-05 0.0041317085486674426 0.00028122518966995744 0.79999999952397838 -2.3999999992909906 -3.3770969531736195 
9000.0000000000000 2000.0000000000000 -3500.0000000000000 -38225587.236606240 -15274767.564034728 -85750629.009202734 5.0799933149950383e-05 0.0039901242560340397 8.7601844942380769e-05 0.39999999975892020 -2.3999999992885210 -3.3770969533430986 
9000.0000000000000 1000.0000000000000 -3500.0000000000000 -38225587.237734959 -15274767.561777990 -85750629.016761497 2.2881487678639784e-05 0.0023870988373891474 0.00022253280833283527 0.39999999975780942 -2.6999999996045854 -3.3770969537222224 
8000.0000000000000 2000.0000000000000 -3333.3333333330002 -37074898.617590420 -14124078.944758356 -81670914.810204372 8.9632766119962173e-05 0.0045901813777384773 0.00029285737510541959 0.79999999956062073 -2.3999999993301535 -3.6779049752654549 
9000.0000000000000 2000.0000000000000 -3333.3333333330002 -37074898.617649160 -14124078.945012182 -81670914.811465070 6.2630747811543648e-05 0.0044534957265831938 8.9965861826469927e-05 0.39999999977815437 -2.3999999993270120 -3.6779049754404944 
9000.0000000000000 1000.0000000000000 -3333.3333333330002 -37074898.618739620 -14124078.942825099 -81670914.818826854 3.3587425229046814e-05 0.0026797293361082233 0.00022402946000748950 0.39999999977646594 -2.6999999996246649 -3.6779049758547977 
8000.0000000000000 2000.0000000000000 -3166.6666666669998 -35924107.011359274 -12973287.338527329 -77590835.475951478 0.00010007881209203862 0.0050283961224978245 0.00030374523380992846 0.79999999959844270 -2.3999999993712380 -3.9638231177338996 
9000.0000000000000 2000.0000000000000 -3166.6666666669998 -35924107.011416860 -12973287.338719880 -77590835.476909280 7.2809966255172215e-05 0.0049003291982102869 9.4051438461388438e-05 0.39999999979785006 -2.3999999993675218 -3.9638231179131016 
9000.0000000000000 1000.0000000000000 -3166.6666666669998 -35924107.012483798 -12973287.336623630 -77590835.484111786 4.2513074832373816e-05 0.0029653796168241952 0.00022421569269815079 0.39999999979567263 -2.6999999996458546 -3.9638231183619856 
8000.0000000000000 2000.0000000000000 -3000.0000000000000 -34773212.408601910 -11822392.735771064 -73510390.972064614 0.00010831676640697400 0.0054422649325131054 0.00031394959941204024 0.79999999963719182 -2.3999999994142680 -4.2348500479290161 
9000.0000000000000 2000.0000000000000 -3000.0000000000000 -34773212.408657499 -11822392.735908777 -73510390.972754374 8.1191832856424711e-05 0.0053260527480964749 9.9351597856632505e-05 0.39999999981788470 -2.3999999994100794 -4.2348500481111735 
9000.0000000000000 1000.0000000000000 -3000.0000000000000 -34773212.409713842 -11822392.733924717 -73510390.979827181 4.9762552112202957e-05 0.0032413423122934892 0.00022298750186752509 0.39999999981530443 -2.6999999996681869 -4.2348500485941338 
8000.0000000000000 2000.0000000000000 -2833.3333333330002 -33622214.800073609 -10671395.127247937 -69429581.265787676 0.00011427899660823198 0.0058276593414278320 0.00032350575569403315 0.79999999967664059 -2.3999999994593399 -4.4909844330761146 
9000.0000000000000 2000.0000000000000 -2833.3333333330002 -33622214.800125733 -10671395.127336543 -69429581.266239628 8.7680566934777825e-05 0.0057260427982989215 0.00010530221259788426 0.39999999983815065 -2.3999999994547818 -4.4909844332601745 
9000.0000000000000 1000.0000000000000 -2833.3333333330002 -33622214.801182918 -10671395.125487037 -69429581.273204952 5.5449557355917126e-05 0.0035048280041629371 0.00022019244241378559 0.39999999983524948 -2.6999999996917370 -4.4909844337767817 
8000.0000000000000 2000.0000000000000 -2666.6666666669998 -32471114.176530737 -9520294.5037175156 -65348406.324365593 0.00011792569909018459 0.0061802208231827253 0.00033240600645900530 0.79999999971658220 -2.3999999995066186 -4.7322249402813030 
9000.0000000000000 2000.0000000000000 -2666.6666666669998 -32471114.176577393 -9520294.5037622191 -65348406.324606284 9.2213861232634056e-05 0.0060954044842733025 0.00011132280822923315 0.39999999985854956 -2.3999999995017949 -4.7322249404663514 
9000.0000000000000 1000.0000000000000 -2666.6666666669998 -32471114.177645579 -9520294.5020713396 -65348406.331479162 5.9683085305161458e-05 0.0037528652314246414 0.00021566424593512222 0.39999999985540574 -2.6999999997166175 -4.7322249410162129 
8000.0000000000000 2000.0000000000000 -2500.0000000000000 -31319910.528725527 -8369090.8559352886 -61266866.115025803 0.00011922621230157515 0.0064951594342326337 0.00034056178122082449 0.79999999975682745 -2.3999999995563264 -4.9585702365354285 
9000.0000000000000 2000.0000000000000 -2500.0000000000000 -31319910.528764155 -8369090.8559408896 -61266866.115079075 9.4747090305169802e-05 0.0064288236323948311 0.00011682753996702517 0.39999999987899187 -2.3999999995513437 -4.9585702367206608 
9000.0000000000000 1000.0000000000000 -2500.0000000000000 -31319910.529852450 -8369090.8544352092 -61266866.121867612 6.2554686682892742e-05 0.0039822149400883002 0.00020921338533814017 0.39999999987567975 -2.6999999997429849 -4.9585702373033937 
8000.0000000000000 2000.0000000000000 -2333.3333333330002 -30168603.847416326 -7217784.1746629160 -57184960.605015233 0.00011814830212588019 0.0067671919107124548 0.00034777486038404723 0.79999999979720215 -2.3999999996087529 -5.1700189887054009 
9000.0000000000000 2000.0000000000000 -2333.3333333330002 -30168603.847443856 -7217784.1746339286 -57184960.604902968 9.5244618018286542e-05 0.0067205116611593341 0.00012121725350170554 0.39999999989939394 -2.3999999996037151 -5.1700189888901074 
9000.0000000000000 1000.0000000000000 -2333.3333333330002 -30168603.848560460 -7217784.1733432515 -57184960.611608103 6.4134449994049855e-05 0.0041892636876009271 0.00020062583553145811 0.39999999989598478 -2.6999999997710304 -5.1700189895053095 
8000.0000000000000 2000.0000000000000 -2166.6666666669998 -29017194.123362336 -6066374.4506628877 -53102689.761581659 0.00011465345286412523 0.0069904074762010271 0.00035369893244532077 0.79999999983754400 -2.3999999996642445 -5.3665698635389338 
9000.0000000000000 2000.0000000000000 -2166.6666666669998 -29017194.123375136 -6066374.4506035969 -53102689.761324517 9.3673035170818836e-05 0.0069640271210613027 0.00012388846562992760 0.39999999991967694 -2.3999999996592600 -5.3665698637224928 
9000.0000000000000 1000.0000000000000 -2166.6666666669998 -29017194.124527458 -6066374.4495617440 -53102689.767939694 6.4467639429613253e-05 0.0043698919500522303 0.00018967616772192511 0.39999999991624030 -2.6999999998009905 -5.3665698643697022 
8000.0000000000000 2000.0000000000000 -2000.0000000000000 -27865681.347318385 -4914861.6746932901 -49020053.551955782 0.00010868907557320383 0.0071580716077930973 0.00035783047797486033 0.79999999987770132 -2.3999999997232098 -5.5482215276676792 
9000.0000000000000 2000.0000000000000 -2000.0000000000000 -27865681.347312260 -4914861.6746078096 -49020053.551573627 8.9990422310493796e-05 0.0071520936380533853 0.00012424383413721233 0.39999999993976654 -2.3999999997183870 -5.5482215278495488 
9000.0000000000000 1000.0000000000000 -2000.0000000000000 -27865681.348507069 -4914861.6738535510 -49020053.558084421 6.3568420227047155e-05 0.0045193278909620299 0.00017614033475209950 0.39999999993637203 -2.6999999998331430 -5.5482215285282086 
8000.0000000000000 2000.0000000000000 -1833.3333333329999 -26714065.510044988 -3763245.8375179162 -44937051.943387426 0.00010018793527720447 0.0072625007307662599 0.00035948352178601767 0.79999999991753168 -2.3999999997861199 -5.7149726476001756 
9000.0000000000000 2000.0000000000000 -1833.3333333329999 -26714065.510015331 -3763245.8374103284 -44937051.942900136 8.4146321962359283e-05 0.0072764969365572583 0.00012169216821228777 0.39999999995959395 -2.3999999997815711 -5.7149726477798826 
9000.0000000000000 1000.0000000000000 -1833.3333333329999 -26714065.511258870 -3763245.8369883671 -44937051.949283630 6.1423434260199846e-05 0.0046320355807027910 0.00015979681320614874 0.39999999995631175 -2.6999999998678130 -5.7149726484892902 
8000.0000000000000 2000.0000000000000 -1666.6666666670001 -25562346.602303222 -2611526.9299010918 -40853684.903127752 8.9067328234588631e-05 0.0072949112106579887 0.00035777129675484070 0.79999999995689908 -2.3999999998535135 -5.8668218897257578 
9000.0000000000000 2000.0000000000000 -1666.6666666670001 -25562346.602245171 -2611526.9297755500 -40853684.902555726 7.6081009625017531e-05 0.0073278975896391360 0.00011567970965154693 0.39999999997909569 -2.3999999998493560 -5.8668218899029165 
9000.0000000000000 1000.0000000000000 -1666.6666666670001 -25562346.603543211 -2611526.9297376242 -40853684.908779599 5.7994507767577477e-05 0.0047015298295430439 0.00014045558651672096 0.39999999997599872 -2.6999999999053745 -5.8668218906421750 
4000.0000000000000 1000.0000000000000 -4833.3333333330002 -47427389.756597415 -24476570.069308050 -118375201.54983197 -2.6428066700491117e-05 0.00018991661746410363 -0.00025226603838300913 2.3999999984910354 -2.6999999995039232 -0.43475698884839054 
5000.0000000000000 2000.0000000000000 -4833.3333333330002 -47427389.753336839 -24476570.075109333 -118375201.55760214 0.00016341663280636557 0.00033728137188830833 -3.2542908633008062e-05 1.9999999985767813 -2.3999999990907632 -0.43475698888675030 
4000.0000000000000 1000.0000000000000 -5000.0000000000000 -48002296.555911325 -25051476.868550722 -120413507.47469702 -3.0031816974835613e-05 9.0546343225273503e-05 -0.00011811472282383597 2.3999999984844473 -2.6999999995019328 0.0000000000000000 
5000.0000000000000 2000.0000000000000 -5000.0000000000000 -48002296.552687824 -25051476.874440573 -120413507.48276347 0.00016540019998217037 0.00016160258677774629 -1.0339130626887871e-05 1.9999999985707366 -2.3999999990867407 0.0000000000000000 
4000.0000000000000 1000.0000000000000 -4666.6666666669998 -46277524.703599557 -23326705.016514909 -114298407.27095690 -1.7067463943025779e-05 0.00040438148210314629 -0.00054856421840312997 2.3999999985097378 -2.6999999995095534 -0.85463608658421830 
5000.0000000000000 2000.0000000000000 -4666.6666666669998 -46277524.700290933 -23326705.022127226 -114298407.27810973 0.00015773748865326227 0.00071284788142434276 -9.8778866462151589e-05 1.9999999985942039 -2.3999999991020142 -0.85463608665639768 
4000.0000000000000 1000.0000000000000 -4500.0000000000000 -45127556.737228610 -22176737.050463326 -110221248.11737865 -4.8330901537634178e-06 0.00064673195580100746 -0.00089353412397517472 2.3999999985386538 -2.6999999995181940 -1.2596359616356219 
5000.0000000000000 2000.0000000000000 -4500.0000000000000 -45127556.733914793 -22176737.055866573 -110221248.12387468 0.00014903026072831549 0.0011299322489442549 -0.00020494772568004424 1.9999999986216717 -2.3999999991190548 -1.2596359617372406 
4000.0000000000000 1000.0000000000000 -4333.3333333330002 -43977485.848225556 -21026666.161877006 -106143724.05629362 8.0020000959809953e-06 0.00091021522460079480 -0.0012740269163821261 2.3999999985762770 -2.6999999995293185 -1.6497552823033996 
5000.0000000000000 2000.0000000000000 -4333.3333333330002 -43977485.844935611 -21026666.167057611 -106143724.06211029 0.00013809008732497410 0.0015761589221365883 -0.00034367213653911665 1.9999999986580033 -2.3999999991407921 -1.6497552824303043 
4000.0000000000000 1000.0000000000000 -4166.6666666669998 -42827312.027335212 -19876492.341487266 -102065835.05490567 2.0141450652006796e-05 0.0011889422120934534 -0.0016790468061761842 2.3999999986213805 -2.6999999995424990 -2.0249927167689896 
5000.0000000000000 2000.0000000000000 -4166.6666666669998 -42827312.024092183 -19876492.346437104 -102065835.06003264 0.00012566630794294477 0.0020416354084175298 -0.00050751352338978834 1.9999999987021364 -2.3999999991663885 -2.0249927169172572 
4000.0000000000000 1000.0000000000000 -4000.0000000000000 -41677035.265301041 -18726215.580026384 -97987581.080405682 3.0914119818582149e-05 0.0014779117927571383 -0.0020988983348699973 2.3999999986729565 -2.6999999995574013 -2.3853469331008399 
5000.0000000000000 2000.0000000000000 -4000.0000000000000 -41677035.262125909 -18726215.584741801 -97987581.084842712 0.00011239382237644563 0.0025183225284990279 -0.00068904334827004884 1.9999999987531143 -2.3999999991952063 -2.3853469332667654 
4000.0000000000000 1000.0000000000000 -3833.3333333330002 -40526655.552875653 -17575835.868237291 -93908962.100008726 4.0033061299038627e-05 0.0017728019601498054 -0.0025247872297532257 2.3999999987301703 -2.6999999995737660 -2.7308165992409354 
5000.0000000000000 2000.0000000000000 -3833.3333333330002 -40526655.549788840 -17575835.872717753 -93908962.103763282 9.8774525418296965e-05 0.0029994125952692839 -0.00088099529564879514 1.9999999988100809 -2.3999999992267678 -2.7308165994210141 
4000.0000000000000 1000.0000000000000 -3666.6666666669998 -39376172.880815320 -16425353.196867757 -89829978.080935597 4.7436087600683155e-05 0.0020698812564230798 -0.0029484775117639959 2.3999999987923428 -2.6999999995914106 -3.0614003830119496 
5000.0000000000000 2000.0000000000000 -3666.6666666669998 -39376172.877837010 -16425353.201114470 -89829978.084020600 8.5184305296075316e-05 0.0034790101899864782 -0.0010763034722231768 1.9999999988722801 -2.3999999992607282 -3.0614003832028525 
4000.0000000000000 1000.0000000000000 -3500.0000000000000 -38225587.239874274 -15274767.556664485 -85750628.990393758 5.3185434816459876e-05 0.0023658860775169752 -0.0033623424268162984 2.3999999988589305 -2.6999999996102133 -3.3770969521228156 
5000.0000000000000 2000.0000000000000 -3500.0000000000000 -38225587.237024389 -15274767.560679251 -85750628.992826074 7.1889567757478268e-05 0.0039518882862188895 -0.0012683377345414535 1.9999999989390527 -2.3999999992968521 -3.3770969523213701 
4000.0000000000000 1000.0000000000000 -3333.3333333330002 -37074898.620814599 -14124078.938382901 -81670914.795613319 5.7399524400998669e-05 0.0026578376307285754 -0.0037591779180363781 2.3999999989295051 -2.6999999996301076 -3.6779049741568466 
5000.0000000000000 2000.0000000000000 -3333.3333333330002 -37074898.618112445 -14124078.942167053 -81670914.797412500 5.9063267210284864e-05 0.0044131864700573138 -0.0014509656473802200 1.9999999990098289 -2.3999999993350039 -3.6779049743600138 
4000.0000000000000 1000.0000000000000 -3166.6666666669998 -35924107.014400497 -12973287.332781419 -77590835.463827938 6.0220963376730694e-05 0.0029429454770994400 -0.0041321997930623845 2.3999999990037515 -2.6999999996510757 -3.9638231165780904 
5000.0000000000000 2000.0000000000000 -3166.6666666669998 -35924107.011864543 -12973287.336334947 -77590835.465015545 4.6809925437318410e-05 0.0048582902448629688 -0.0016186111650761295 1.9999999990841333 -2.3999999993751326 -3.9638231167829474 
4000.0000000000000 1000.0000000000000 -3000.0000000000000 -34773212.411392838 -11822392.730615918 -73510390.962255985 6.1791213188740456e-05 0.0032184831980875753 -0.0044750327126160533 2.3999999990814485 -2.6999999996731465 -4.2348500467360788 
5000.0000000000000 2000.0000000000000 -3000.0000000000000 -34773212.409040466 -11822392.733936725 -73510390.962855265 3.5184176063676808e-05 0.0052826329783014865 -0.0017663401401962070 1.9999999991615680 -2.3999999994172616 -4.2348500469398163 
4000.0000000000000 1000.0000000000000 -2833.3333333330002 -33622214.802559271 -10671395.122649806 -69429581.258136809 6.2236710861638140e-05 0.0034816634720935013 -0.0047816102267291497 2.3999999991624654 -2.6999999996963933 -4.4909844318555523 
5000.0000000000000 2000.0000000000000 -2833.3333333330002 -33622214.800406471 -10671395.125732930 -69429581.258172378 2.4205764677081302e-05 0.0056815695694616966 -0.0018898715849103133 1.9999999992418134 -2.3999999994614858 -4.4909844320554635 
4000.0000000000000 1000.0000000000000 -2666.6666666669998 -32471114.178668723 -9520294.4996485021 -65348406.318711609 6.1665956455941967e-05 0.0037295561622085168 -0.0050462156128401516 2.3999999992467482 -2.6999999997209270 -4.7322249390420099 
5000.0000000000000 2000.0000000000000 -2666.6666666669998 -32471114.176729959 -9520294.5024855379 -65348406.318209894 1.3877010203797310e-05 0.0060502260380214503 -0.0019855915012340210 1.9999999993246200 -2.3999999995079659 -4.7322249392354889 
4000.0000000000000 1000.0000000000000 -2500.0000000000000 -31319910.530486174 -8369090.8523741290 -61266866.111204773 6.0156092455889148e-05 0.0039589714117821920 -0.0052633741706949837 2.3999999993343129 -2.6999999997469004 -4.9585702352856424 
5000.0000000000000 2000.0000000000000 -2500.0000000000000 -31319910.528774187 -8369090.8549525496 -61266866.110194430 4.1906017774850121e-06 0.0063833210224683318 -0.0020505595253772248 1.9999999994097968 -2.3999999995569250 -4.9585702354702041 
4000.0000000000000 1000.0000000000000 -2333.3333333330002 -30168603.848782919 -7217784.1715957653 -57184960.602860406 5.7759096830001130e-05 0.0041663381299089043 -0.0054279157083841076 2.3999999994252437 -2.6999999997745050 -5.1700189874526687 
5000.0000000000000 2000.0000000000000 -2333.3333333330002 -30168603.847308442 -7217784.1738981856 -57184960.601372667 -4.8624759484294339e-06 0.0066751110423311543 -0.0020825517723369082 1.9999999994972115 -2.3999999996086463 -5.1700189876259479 
4000.0000000000000 1000.0000000000000 -2166.6666666669998 -29017194.124331374 -6066374.4480841169 -53102689.760923386 5.4504685160361937e-05 0.0043475547747712576 -0.0055349364744601472 2.3999999995196757 -2.6999999998039743 -5.3665698622900644 
5000.0000000000000 2000.0000000000000 -2166.6666666669998 -29017194.123102926 -6066374.4500876106 -53102689.758993089 -1.3282007744262723e-05 0.0069191829056789670 -0.0020800461100210694 1.9999999995867748 -2.3999999996634753 -5.3665698624498521 
4000.0000000000000 1000.0000000000000 -2000.0000000000000 -27865681.347899895 -4914861.6726063387 -49020053.552620806 5.0392788018041473e-05 0.0044979183417303732 -0.0055797609859121206 2.3999999996177963 -2.6999999998355850 -5.5482215264287040 
5000.0000000000000 2000.0000000000000 -2000.0000000000000 -27865681.346923504 -4914861.6742816353 -49020053.550287567 -2.1061828321021705e-05 0.0071083091580885658 -0.0020422466746039410 1.9999999996784363 -2.3999999997218207 -5.5482215265729744 
4000.0000000000000 1000.0000000000000 -1833.3333333329999 -26714065.510263219 -3763245.8359363512 -44937051.945198290 4.5396862723061424e-05 0.0046119548734217305 -0.0055579984738856085 2.3999999997198356 -2.6999999998696618 -5.7149726463762809 
5000.0000000000000 2000.0000000000000 -1833.3333333329999 -26714065.509542011 -3763245.8372469246 -44937051.942507818 -2.8186965329929722e-05 0.0072343324973616722 -0.0019691434266622281 1.9999999997721749 -2.3999999997841521 -5.7149726465032407 
4000.0000000000000 1000.0000000000000 -1666.6666666670001 -25562346.602197472 -2611526.9288498191 -40853684.905901775 3.9470207905588131e-05 0.0046831617117950430 -0.0054655774592899491 2.3999999998260626 -2.6999999999065807 -5.8668218885212440 
5000.0000000000000 2000.0000000000000 -1666.6666666670001 -25562346.601731203 -2611526.9297507796 -40853684.902907357 -3.4628730737068296e-05 0.0072879387131519124 -0.0018615435538802008 1.9999999998679934 -2.3999999998510106 -5.8668218886293815 
2000.0000000000000 7000.0000000000000 -4833.3333333330002 -47427389.742971227 -24476570.066554125 -118375201.42551152 0.00013957677941960512 -0.00020022065870971758 -0.00043880596421005328 3.1999999989086132 -0.89999999925830465 -0.43475698831811460 
2000.0000000000000 6000.0000000000000 -4833.3333333330002 -47427389.745173857 -24476570.067339841 -118375201.43353832 0.00016576126513317000 -0.00013995095969550120 -0.00043935274393832338 3.1999999989037970 -1.1999999990312913 -0.43475698834741161 
1000.0000000000000 6000.0000000000000 -4833.3333333330002 -47427389.747692242 -24476570.064203870 -118375201.41674845 -2.7345235017212027e-05 -0.00012599847330178914 -0.00042169168347159754 3.5999999993750582 -1.1999999990308068 -0.43475698826093628 
1000.0000000000000 7000.0000000000000 -4833.3333333330002 -47427389.745579034 -24476570.063360326 -118375201.40841335 -1.0389872760453499e-05 -0.00019101911242394804 -0.00045527412804277113 3.5999999993730643 -0.89999999925846885 -0.43475698822855502 
2000.0000000000000 7000.0000000000000 -5000.0000000000000 -48002296.540863581 -25051476.864464048 -120413507.34521537 0.00014024885493444682 -0.00010317336538583932 -0.00020951234804688612 3.1999999989037220 -0.89999999925526497 0.0000000000000000 
2000.0000000000000 6000.0000000000000 -5000.0000000000000 -48002296.543159001 -25051476.865330987 -120413507.35354578 0.00016650900082459128 -7.4268671548078770e-05 -0.00020987257310783154 3.1999999988988792 -1.1999999990273236 0.0000000000000000 
1000.0000000000000 6000.0000000000000 -5000.0000000000000 -48002296.545444094 -25051476.861906637 -120413507.33567449 -3.1675921811242231e-05 -6.7565266689294259e-05 -0.00020562877488410175 3.5999999993709713 -1.1999999990266641 0.0000000000000000 
1000.0000000000000 7000.0000000000000 -5000.0000000000000 -48002296.543232791 -25051476.860970277 -120413507.32698843 -1.3463599110946620e-05 -9.8780749721880673e-05 -0.00022251707400155075 3.5999999993687624 -0.89999999925530871 0.0000000000000000 
2000.0000000000000 7000.0000000000000 -4666.6666666669998 -46277524.692625791 -23326705.016170926 -114298407.15644683 0.00013756883748216445 -0.00038215045497768394 -0.00093056990017576348 3.1999999989223262 -0.89999999926718666 -0.85463608555977177 
2000.0000000000000 6000.0000000000000 -4666.6666666669998 -46277524.694640264 -23326705.016801208 -114298407.16387175 0.00016351616091339120 -0.00025467299966395172 -0.00093129925195435518 3.1999999989175816 -1.1999999990428500 -0.85463608561654225 
1000.0000000000000 6000.0000000000000 -4666.6666666669998 -46277524.697521664 -23326705.014172673 -114298407.14903545 -1.6118051095441877e-05 -0.00022578445846677960 -0.00086698496020266001 3.5999999993858296 -1.1999999990427981 -0.85463608545419067 
1000.0000000000000 7000.0000000000000 -4666.6666666669998 -46277524.695600025 -23326705.013504587 -114298407.14138956 -2.4025898619310468e-06 -0.00036297150626230873 -0.00093280244123064018 3.5999999993843628 -0.89999999926765006 -0.85463608539193803 
2000.0000000000000 7000.0000000000000 -4500.0000000000000 -45127556.728530377 -22176737.052046124 -110221248.01170062 0.00013425963250088813 -0.00054012814516469967 -0.0014773113609552696 3.1999999989430989 -0.89999999928142760 -1.2596359601501181 
2000.0000000000000 6000.0000000000000 -4500.0000000000000 -45127556.730354950 -22176737.052536234 -110221248.01853532 0.00015979087876834825 -0.00033742498215877945 -0.0014780252292145870 3.1999999989384618 -1.1999999990613073 -1.2596359602325251 
1000.0000000000000 6000.0000000000000 -4500.0000000000000 -45127556.733428687 -22176737.050292354 -110221248.00526805 -1.5126029713453840e-06 -0.00029374848500894959 -0.0013269213172736581 3.5999999994008580 -1.1999999990617962 -1.2596359600029581 
1000.0000000000000 7000.0000000000000 -4500.0000000000000 -45127556.731689125 -22176737.049778935 -110221247.99828570 8.0268608601275615e-06 -0.00051098962857613883 -0.0014215711914551746 3.5999999994000409 -0.89999999928226715 -1.2596359599132798 
2000.0000000000000 7000.0000000000000 -4333.3333333330002 -43977485.841443136 -21026666.164957780 -106143723.95856032 0.00012971956541090037 -0.00067532492068549934 -0.0020586142671599581 3.1999999989694992 -0.89999999930053398 -1.6497552803872237 
2000.0000000000000 6000.0000000000000 -4333.3333333330002 -43977485.843081504 -21026666.165324993 -106143723.96481816 0.00015464915445587553 -0.00039134418703737047 -0.0020594760624334757 3.1999999989650045 -1.1999999990859738 -1.6497552804934190 
1000.0000000000000 6000.0000000000000 -4333.3333333330002 -43977485.846236631 -21026666.163370062 -106143723.95279610 1.3672864849169507e-05 -0.00033459276781309553 -0.0017838609021524272 3.5999999994186109 -1.1999999990870194 -1.6497552802036035 
1000.0000000000000 7000.0000000000000 -4333.3333333330002 -43977485.844669439 -21026666.162989989 -106143723.94645138 1.8910145066004334e-05 -0.00063739048071378534 -0.0019023790834319836 3.5999999994184582 -0.89999999930176156 -1.6497552800888795 
2000.0000000000000 7000.0000000000000 -4166.6666666669998 -42827312.022136651 -19876492.345686987 -102065834.96431608 0.00012405982664376083 -0.00078955645046994321 -0.0026585157361459976 3.1999999990004140 -0.89999999932401598 -2.0249927144500535 
2000.0000000000000 6000.0000000000000 -4166.6666666669998 -42827312.023596019 -19876492.345949598 -102065834.97001214 0.00014821167628517080 -0.00042031424474137628 -0.0026599602709942698 3.1999999989960952 -1.1999999991161838 -2.0249927145781785 
1000.0000000000000 6000.0000000000000 -4166.6666666669998 -42827312.026760340 -19876492.344208322 -102065834.95896402 2.7815768762304799e-05 -0.00035301273508609609 -0.0022292718895594479 3.5999999994381469 -1.1999999991177466 -2.0249927142336115 
1000.0000000000000 7000.0000000000000 -4166.6666666669998 -42827312.025355734 -19876492.343940325 -102065834.95323083 2.9069753308325352e-05 -0.00074460528676367679 -0.0023661261731716104 3.5999999994386083 -0.89999999932560315 -2.0249927140961517 
2000.0000000000000 7000.0000000000000 -4000.0000000000000 -41677035.261385165 -18726215.585009769 -97987580.996236965 0.00011742230289675090 -0.00088501327280591927 -0.0032647976196650899 3.1999999990350001 -0.89999999935139929 -2.3853469304047903 
2000.0000000000000 6000.0000000000000 -4000.0000000000000 -41677035.262674868 -18726215.585186403 -97987581.001388207 0.00014064035252123381 -0.00042857026793537102 -0.0032673755297255936 3.1999999990308905 -1.1999999991513073 -2.3853469305529926 
1000.0000000000000 6000.0000000000000 -4000.0000000000000 -41677035.265801929 -18726215.583600271 -97987580.991092518 4.0057896027336407e-05 -0.00035358606530509914 -0.0026597039949274744 3.5999999994589129 -1.1999999991533168 -2.3853469301579255 
1000.0000000000000 7000.0000000000000 -4000.0000000000000 -41677035.264550120 -18726215.583423521 -97987580.985944331 3.7863669327536910e-05 -0.00083508968549751272 -0.0028094298571635966 3.5999999994599099 -0.89999999935329522 -2.3853469299999670 
2000.0000000000000 7000.0000000000000 -3833.3333333330002 -40526655.549971655 -17575835.873707242 -93908962.021610126 0.00010996742880582886 -0.00096408393728996842 -0.0038681351958308467 3.1999999990726504 -0.89999999938222952 -2.7308165961913287 
2000.0000000000000 6000.0000000000000 -3833.3333333330002 -40526655.551102310 -17575835.873816241 -93908962.026235357 0.00013211404597379542 -0.00042047654180838465 -0.0038724244283464362 3.1999999990687793 -1.1999999991907566 -2.7308165963577640 
1000.0000000000000 6000.0000000000000 -3833.3333333330002 -40526655.554161854 -17575835.872340102 -93908962.016514808 5.0024448450890281e-05 -0.00034068130312399657 -0.0030743080816126710 3.5999999994806227 -1.1999999991931303 -2.7308165959154360 
1000.0000000000000 7000.0000000000000 -3833.3333333330002 -40526655.553053081 -17575835.872234680 -93908962.011924669 4.4996007852219838e-05 -0.00091125000726083316 -0.0032318348222200519 3.5999999994820593 -0.89999999938437181 -2.7308165957391397 
2000.0000000000000 7000.0000000000000 -3666.6666666669998 -39376172.878680721 -16425353.202560484 -89829978.007724360 0.00010186317378159243 -0.0010292051841390162 -0.0044613741049976813 3.1999999991129511 -0.89999999941607745 -3.0614003796304199 
2000.0000000000000 6000.0000000000000 -3666.6666666669998 -39376172.879663542 -16425353.202619338 -89829978.011843994 0.00012282066430645565 -0.00040033779888465180 -0.0044679279495266847 3.1999999991093415 -1.1999999992339931 -3.0614003798132710 
1000.0000000000000 6000.0000000000000 -3666.6666666669998 -39376172.882634461 -16425353.201218100 -89829978.002557963 5.7641741109448345e-05 -0.00031843006002981144 -0.0034734022590869810 3.5999999995031535 -1.1999999992366439 -3.0614003793261122 
1000.0000000000000 7000.0000000000000 -3666.6666666669998 -39376172.881659091 -16425353.201165367 -89829977.998498589 5.0387391654449233e-05 -0.00097540224147532888 -0.0036341784576098390 3.5999999995049374 -0.89999999941840081 -3.0614003791335573 
2000.0000000000000 7000.0000000000000 -3500.0000000000000 -38225587.238291822 -15274767.562344916 -85750628.921851411 9.3273471678077143e-05 -0.0010827411447948861 -0.0050388266111823874 3.1999999991556471 -0.89999999945254294 -3.3770969484292541 
2000.0000000000000 6000.0000000000000 -3500.0000000000000 -38225587.239138171 -15274767.562369829 -85750628.925487325 0.00011294332632236059 -0.00037222301881334994 -0.0050481144177066412 3.1999999991523200 -1.1999999992805279 -3.3770969486267366 
1000.0000000000000 6000.0000000000000 -3500.0000000000000 -38225587.242003828 -15274767.561016016 -85750628.916525543 6.3014344386084933e-05 -0.00029062909872257432 -0.0038575052586587769 3.5999999995264922 -1.1999999992833710 -3.3770969480965372 
1000.0000000000000 7000.0000000000000 -3500.0000000000000 -38225587.241152465 -15274767.560998974 -85750628.912969351 5.4088174065782155e-05 -0.0010297073774762357 -0.0040175910281291197 3.5999999995285346 -0.89999999945498288 -3.3770969478897213 
2000.0000000000000 7000.0000000000000 -3333.3333333330002 -37074898.619588748 -14124078.943840422 -81670914.731282324 8.4347063563688774e-05 -0.0011268934453456034 -0.0055956823309627939 3.1999999992006165 -0.89999999949125276 -3.6779049701695756 
2000.0000000000000 6000.0000000000000 -3333.3333333330002 -37074898.620309845 -14124078.943845950 -81670914.734457567 0.00010264664627906085 -0.00033989272239299574 -0.0056080638836695359 3.1999999991975869 -1.1999999993299222 -3.6779049703799562 
1000.0000000000000 6000.0000000000000 -3333.3333333330002 -37074898.623054996 -14124078.942517901 -81670914.725735158 6.6336046574779769e-05 -0.00026069464887931493 -0.0042268127067529616 3.5999999995507039 -1.1999999993328780 -3.6779049698080222 
1000.0000000000000 7000.0000000000000 -3333.3333333330002 -37074898.622318439 -14124078.942521429 -81670914.722654209 5.6212734041393244e-05 -0.0010761162154557967 -0.0043829267803909867 3.5999999995529239 -0.89999999949374931 -3.6779049695888477 
2000.0000000000000 7000.0000000000000 -3166.6666666669998 -35924107.013353914 -12973287.337826010 -77590835.403308526 7.5211315074977659e-05 -0.0011636256747923361 -0.0061275666377107324 3.1999999992478467 -0.89999999953186449 -3.9638231123140519 
2000.0000000000000 6000.0000000000000 -3166.6666666669998 -35924107.013960660 -12973287.337824792 -77590835.406047329 9.2072457066416909e-05 -0.00030672132225601802 -0.0061432700592356010 3.1999999992451253 -1.1999999993817856 -3.9638231125356498 
1000.0000000000000 6000.0000000000000 -3166.6666666669998 -35924107.016569294 -12973287.336505247 -77590835.397500500 6.7836758106121789e-05 -0.00023164800065106621 -0.0045809585150354418 3.5999999995759060 -1.1999999993847832 -3.9638231119229212 
1000.0000000000000 7000.0000000000000 -3166.6666666669998 -35924107.015938714 -12973287.336516358 -77590835.394866541 5.6905461191494050e-05 -0.0011163339646518017 -0.0047304290940384693 3.5999999995782295 -0.89999999953436205 -3.9638231116932010 
2000.0000000000000 7000.0000000000000 -3000.0000000000000 -34773212.410363093 -11822392.735074643 -73510390.905203506 6.5975207067802918e-05 -0.0011946083765080738 -0.0066302055906324684 3.1999999992974186 -0.89999999957406218 -4.2348500422110149 
2000.0000000000000 6000.0000000000000 -3000.0000000000000 -34773212.410865843 -11822392.735077087 -73510390.907530814 8.1336406453301038e-05 -0.00027561464824268867 -0.0066493322124989481 3.1999999992950126 -1.1999999994357731 -4.2348500424422211 
1000.0000000000000 6000.0000000000000 -3000.0000000000000 -34773212.413319848 -11822392.733752213 -73510390.899113774 6.7751148763858514e-05 -0.00020603968132829897 -0.0049188976670218841 3.5999999996022543 -1.1999999994387494 -4.2348500417893860 
1000.0000000000000 7000.0000000000000 -3000.0000000000000 -34773212.412786797 -11822392.733760275 -73510390.896898434 5.6324029484209682e-05 -0.0011517550773537939 -0.0050595993860387120 3.5999999996046190 -0.89999999957651144 -4.2348500415508292 
2000.0000000000000 7000.0000000000000 -2833.3333333330002 -33622214.801395647 -10671395.126363551 -69429581.204259008 5.6718600169015344e-05 -0.0012211768215623399 -0.0070991617090894084 3.1999999993494965 -0.89999999961755772 -4.4909844270841957 
2000.0000000000000 6000.0000000000000 -2833.3333333330002 -33622214.801804207 -10671395.126377692 -69429581.206200570 7.0520930879870808e-05 -0.00024900795479082901 -0.0071217001380100712 3.1999999993474093 -1.1999999994915831 -4.4909844273234691 
1000.0000000000000 6000.0000000000000 -2833.3333333330002 -33622214.804082319 -10671395.125036299 -69429581.197883040 6.6294340616467011e-05 -0.00018595629409053717 -0.0052388003910309993 3.5999999996299428 -1.1999999994944817 -4.4909844266310559 
1000.0000000000000 7000.0000000000000 -2833.3333333330002 -33622214.803638771 -10671395.125033129 -69429581.196057588 5.4616839786188391e-05 -0.0011834520777882153 -0.0053691447300266617 3.5999999996322911 -0.89999999961991317 -4.4909844263852747 
2000.0000000000000 7000.0000000000000 -2666.6666666669998 -32471114.177229498 -9520294.5024691038 -65348406.267766796 4.7498813167584529e-05 -0.0012442973634616630 -0.0075295539587801105 3.1999999994043158 -0.89999999966208422 -4.7322249340382649 
2000.0000000000000 6000.0000000000000 -2666.6666666669998 -32471114.177553032 -9520294.5025004484 -65348406.269349083 5.9682186200516616e-05 -0.00022884101677858154 -0.0075553819790092954 3.1999999994025505 -1.1999999995489523 -4.7322249342841554 
1000.0000000000000 6000.0000000000000 -2666.6666666669998 -32471114.179629963 -9520294.5011333488 -65348406.261114009 6.3655654206274846e-05 -0.00017301281139511619 -0.0055379760660771559 3.5999999996591905 -1.1999999995517241 -4.7322249335526090 
1000.0000000000000 7000.0000000000000 -2666.6666666669998 -32471114.179268397 -9520294.5011134036 -65348406.259649575 5.1919596148485898e-05 -0.0012121450967038786 -0.0056568553350721147 3.5999999996614767 -0.89999999966430710 -4.7322249333011035 
2000.0000000000000 7000.0000000000000 -2500.0000000000000 -31319910.528636001 -8369090.8541617114 -61266866.063000016 3.8344390032399008e-05 -0.0012645255030757961 -0.0079159333975835633 3.1999999994621833 -0.89999999970739897 -4.9585702300627892 
2000.0000000000000 6000.0000000000000 -2500.0000000000000 -31319910.528882958 -8369090.8542130385 -61266866.064249881 4.8844918621650368e-05 -0.00021651220923003987 -0.0079448297252352456 3.1999999994607400 -1.1999999996076525 -4.9585702303139314 
1000.0000000000000 6000.0000000000000 -2500.0000000000000 -31319910.530728795 -8369090.8528126385 -61266866.056092292 5.9986906303291358e-05 -0.00016831422243619447 -0.0058129196628817223 3.5999999996902572 -1.1999999996102533 -4.9585702295436898 
1000.0000000000000 7000.0000000000000 -2500.0000000000000 -31319910.530442238 -8369090.8527731281 -61266866.054959871 4.8345142279059911e-05 -0.0012381609985608142 -0.0059196524099841231 3.5999999996924323 -0.89999999970945310 -4.9585702292878446 
2000.0000000000000 7000.0000000000000 -2333.3333333330002 -30168603.846390482 -7217784.1722162003 -57184960.557249732 2.9253319060209045e-05 -0.0012819755551381536 -0.0082521167127563837 3.1999999995234707 -0.89999999975327516 -5.1700189820235387 
2000.0000000000000 6000.0000000000000 -2333.3333333330002 -30168603.846568599 -7217784.1722874837 -57184960.558194652 3.7999783009280203e-05 -0.00021288592232498403 -0.0082837705908823181 3.1999999995223494 -1.1999999996674842 -5.1700189822786697 
1000.0000000000000 6000.0000000000000 -2333.3333333330002 -30168603.848148093 -7217784.1708474401 -57184960.550120607 5.5400120486237406e-05 -0.00017244921511211367 -0.0060592967055668068 3.5999999997234231 -1.1999999996698738 -5.1700189814702258 
1000.0000000000000 7000.0000000000000 -2333.3333333330002 -30168603.847930100 -7217784.1707883738 -57184960.549290821 4.3985000261433595e-05 -0.0012614114350454669 -0.0061535887742855920 3.5999999997254517 -0.89999999975512934 -5.1700189812113102 
2000.0000000000000 7000.0000000000000 -2166.6666666669998 -29017194.121267181 -6066374.4474067613 -53102689.717806764 2.0201341782836732e-05 -0.0012963217313371207 -0.0085309816069329050 3.1999999995886168 -0.89999999979950185 -5.3665698566672466 
2000.0000000000000 6000.0000000000000 -2166.6666666669998 -29017194.121383462 -6066374.4474950228 -53102689.718474634 2.7116766972645953e-05 -0.00021827108703079942 -0.0085649943746164414 3.1999999995878179 -1.1999999997282726 -5.3665698569252065 
1000.0000000000000 6000.0000000000000 -2166.6666666669998 -29017194.122655232 -6066374.4460098837 -53102689.710500322 4.9981076198255057e-05 -0.00018547765104640843 -0.0062718037472773262 3.5999999997590102 -1.1999999997304152 -5.3665698560791677 
1000.0000000000000 7000.0000000000000 -2166.6666666669998 -29017194.122499980 -6066374.4459342221 -53102689.709943548 3.8917419971279311e-05 -0.0012813756128102422 -0.0063537252122316482 3.5999999997608572 -0.89999999980112666 -5.3665698558183266 
2000.0000000000000 7000.0000000000000 -2000.0000000000000 -27865681.344034288 -4914861.6705018310 -49020053.511943027 1.1138587399789205e-05 -0.0013067557331255474 -0.0087443452974974994 3.1999999996581288 -0.89999999984587853 -5.5482215206247361 
2000.0000000000000 6000.0000000000000 -2000.0000000000000 -27865681.344094958 -4914861.6706010299 -49020053.512362234 1.6136217175003281e-05 -0.00023239578494273859 -0.0087802426926599959 3.1999999996576554 -1.1999999997898632 -5.5482215208844785 
1000.0000000000000 6000.0000000000000 -2000.0000000000000 -27865681.345010635 -4914861.6690659970 -49020053.504513726 4.3786234781027136e-05 -0.00020691595774091263 -0.0064441614203451011 3.5999999997973786 -1.1999999997917243 -5.5482215200016203 
1000.0000000000000 7000.0000000000000 -2000.0000000000000 -27865681.344912957 -4914861.6689797826 -49020053.504200116 3.3205656371090480e-05 -0.0012970819434072814 -0.0065140920855541922 3.5999999997990111 -0.89999999984724777 -5.5482215197398697 
2000.0000000000000 7000.0000000000000 -1833.3333333329999 -26714065.505464513 -3763245.8322745748 -44937051.906948440 1.9933340905470103e-06 -0.0013119649093793382 -0.0088827164609031010 3.1999999997325856 -0.89999999989221269 -5.7149726404038512 
2000.0000000000000 6000.0000000000000 -1833.3333333329999 -26714065.505475041 -3763245.8323754892 -44937051.907147981 4.9703389985139100e-06 -0.00025441087941696487 -0.0089199633184084345 3.1999999997324413 -1.1999999998521147 -5.7149726406644499 
1000.0000000000000 6000.0000000000000 -1833.3333333329999 -26714065.505978197 -3763245.8307861746 -44937051.899461098 3.6848682591194143e-05 -0.00023572761681233537 -0.0065690014198764250 3.5999999998389316 -1.1999999998536615 -5.7149726397457794 
1000.0000000000000 7000.0000000000000 -1833.3333333329999 -26714065.505933546 -3763245.8306985893 -44937051.899360336 2.6902894624910754e-05 -0.0013070837848202833 -0.0066275850789804533 3.5999999998403220 -0.89999999989330093 -5.7149726394839959 
2000.0000000000000 7000.0000000000000 -1666.6666666670001 -25562346.596330043 -2611526.9234977379 -40853684.870112292 -7.3299211096927698e-06 -0.0013101300763290460 -0.0089351062401805837 3.1999999998126443 -0.89999999993831348 -5.8668218823933973 
2000.0000000000000 6000.0000000000000 -1666.6666666670001 -25562346.596295077 -2611526.9235878098 -40853684.870121740 -6.4922697466186108e-06 -0.00028284890670103932 -0.0089731003612606129 3.1999999998128392 -1.1999999999148956 -5.8668218826540546 
1000.0000000000000 6000.0000000000000 -1666.6666666670001 -25562346.596319783 -2611526.9219398797 -40853684.862641864 2.9187767735852482e-05 -0.00027027893776378551 -0.0066376691173038052 3.5999999998841292 -1.1999999999160966 -5.8668218817008499 
1000.0000000000000 7000.0000000000000 -1666.6666666670001 -25562346.596324291 -2611526.9218633948 -40853684.862723097 2.0051598334252612e-05 -0.0013094344539925601 -0.0066857819772864506 3.5999999998852514 -0.89999999993909818 -5.8668218814397752 
6000.0000000000000 7000.0000000000000 -4833.3333333330002 -47427389.738366410 -24476570.081758667 -118375201.49874972 6.1544257087949635e-05 -0.00018690709551672310 0.00010851875512546049 1.5999999987833140 -0.89999999923085627 -0.43475698862688178 
6000.0000000000000 7000.0000000000000 -5000.0000000000000 -48002296.536992118 -25051476.880447745 -120413507.42127007 5.9596500486430236e-05 -9.7169522955324231e-05 6.0939422624050855e-05 1.5999999987775921 -0.89999999922746432 0.0000000000000000 
6000.0000000000000 7000.0000000000000 -4666.6666666669998 -46277524.686684869 -23326705.029894706 -114298407.22426929 6.6631692316390054e-05 -0.00035224996803130757 0.00017986105888788124 1.5999999987997209 -0.89999999924069107 -0.85463608615808950 
6000.0000000000000 7000.0000000000000 -4500.0000000000000 -45127556.721516445 -22176737.064441446 -110221248.07453114 7.3313931765832724e-05 -0.00049083558351621149 0.00020897812887993327 1.5999999988253963 -0.89999999925630259 -1.2596359610197434 
6000.0000000000000 7000.0000000000000 -4333.3333333330002 -43977485.833615646 -21026666.176169254 -106143724.01679730 8.0281637807870997e-05 -0.00060571183728848311 0.00020592349374949515 1.5999999988591012 -0.89999999927705787 -1.6497552815108807 
6000.0000000000000 7000.0000000000000 -4166.6666666669998 -42827312.013741069 -19876492.355849300 -102065835.01833038 8.6684467471007906e-05 -0.00069996621304111556 0.00017930201714269341 1.5999999988997486 -0.89999999930236385 -2.0249927158113832 
6000.0000000000000 7000.0000000000000 -4000.0000000000000 -41677035.252649166 -18726215.594247933 -97987581.046375230 9.1999400474716226e-05 -0.00077664674494901727 0.00013646939045235164 1.5999999989463807 -0.89999999933166652 -2.3853469319883387 
6000.0000000000000 7000.0000000000000 -3833.3333333330002 -40526655.541103788 -17575835.882136717 -93908962.068195805 9.5930535926067533e-05 -0.00083868154259613044 8.3727682871071816e-05 1.5999999989981579 -0.89999999936445385 -2.7308165979825381 
6000.0000000000000 7000.0000000000000 -3666.6666666669998 -39376172.869870394 -16425353.210287038 -89829978.051056594 9.8336590291610705e-05 -0.00088882115107765921 2.6449169623795848e-05 1.5999999990543434 -0.89999999940025455 -3.0614003816156163 
6000.0000000000000 7000.0000000000000 -3500.0000000000000 -38225587.229710571 -15274767.569464860 -85750628.962204427 9.9181351177127388e-05 -0.00092959701167118864 -3.0781420304476663e-05 1.5999999991142906 -0.89999999943863673 -3.3770969505956141 
6000.0000000000000 7000.0000000000000 -3333.3333333330002 -37074898.611392066 -14124078.950440995 -81670914.768905029 9.8491964426426147e-05 -0.00096325605284163656 -8.4122723069017400e-05 1.5999999991774396 -0.89999999947920606 -3.6779049725050790 
6000.0000000000000 7000.0000000000000 -3166.6666666669998 -35924107.005683430 -12973287.343985898 -77590835.438424647 9.6333996985372840e-05 -0.00099173879235669722 -0.00013040969939046186 1.5999999992433009 -0.89999999952160514 -3.9638231148074179 
6000.0000000000000 7000.0000000000000 -3000.0000000000000 -34773212.403348692 -11822392.740864478 -73510390.938011512 9.2792826477176521e-05 -0.0010166479068101850 -0.00016709736934985450 1.5999999993114533 -0.89999999956551036 -4.2348500448516413 
6000.0000000000000 7000.0000000000000 -2833.3333333330002 -33622214.795157641 -10671395.131846499 -69429581.234932780 8.7958561238771102e-05 -0.0010392096569084690 -0.00019225529626015178 1.5999999993815339 -0.89999999961062893 -4.4909844298620785 
6000.0000000000000 7000.0000000000000 -2666.6666666669998 -32471114.171880510 -9520294.5077014100 -65348406.296455882 8.1918614896740930e-05 -0.0010602604807440693 -0.00020454182853315393 1.5999999994532312 -0.89999999965669697 -4.7322249369439255 
6000.0000000000000 7000.0000000000000 -2500.0000000000000 -31319910.524282757 -8369090.8591931565 -61266866.089830093 7.4755136629045261e-05 -0.0010802244988223051 -0.00020322220674447579 1.5999999995262792 -0.89999999970347511 -4.9585702330871841 
6000.0000000000000 7000.0000000000000 -2333.3333333330002 -30168603.843135424 -7217784.1770906989 -57184960.582323626 6.6543004668938348e-05 -0.0010990997879618131 -0.00018815771883466507 1.5999999996004517 -0.89999999975074629 -5.1700189851579852 
6000.0000000000000 7000.0000000000000 -2166.6666666669998 -29017194.119209763 -6066374.4521626942 -53102689.741204552 5.7349481763903818e-05 -0.0011164334840802110 -0.00015980492944807782 1.5999999996755536 -0.89999999979831002 -5.3665698599033345 
6000.0000000000000 7000.0000000000000 -2000.0000000000000 -27865681.343272176 -4914861.6751725348 -49020053.533723131 4.7236767556697488e-05 -0.0011313248370670246 -0.00011921897780705842 1.5999999997514183 -0.89999999984598056 -5.5482215239542390 
6000.0000000000000 7000.0000000000000 -1833.3333333329999 -26714065.506094545 -3763245.8368887291 -44937051.927148342 3.6267454831391954e-05 -0.0011423944745963285 -6.8074538305937829e-05 1.5999999998278989 -0.89999999989358159 -5.7149726438186530 
6000.0000000000000 7000.0000000000000 -1666.6666666670001 -25562346.598448880 -2611526.9280796531 -40853684.888749182 2.4511021118341077e-05 -0.0011477632193601746 -8.6648137915469234e-06 1.5999999999048649 -0.89999999994094193 -5.8668218858853995 
7000.0000000000000 4000.0000000000000 -4833.3333333330002 -47427389.748119056 -24476570.084818475 -118375201.54675467 0.00014761276497687143 0.00017912659453644912 0.00023078559440296387 1.1999999990446613 -1.7999999987557993 -0.43475698881421515 
6000.0000000000000 4000.0000000000000 -4833.3333333330002 -47427389.746853009 -24476570.082203727 -118375201.53627618 -1.4800651032527053e-06 0.00019657385208436979 0.00022803729880509514 1.5999999987895723 -1.7999999987550854 -0.43475698877998697 
7000.0000000000000 4000.0000000000000 -5000.0000000000000 -48002296.547282107 -25051476.884002820 -120413507.47114912 0.00014780465959678257 8.2720206609242946e-05 0.00012041611654869568 1.1999999990403667 -1.7999999987506374 0.0000000000000000 
6000.0000000000000 4000.0000000000000 -5000.0000000000000 -48002296.545899823 -25051476.881280340 -120413507.46030080 -7.5289287234929615e-06 9.0961507398609293e-05 0.00012037069961406892 1.5999999987847069 -1.7999999987496842 0.0000000000000000 
7000.0000000000000 4000.0000000000000 -4666.6666666669998 -46277524.695384651 -23326705.032019354 -114298407.26859236 0.00014696307682054137 0.00039710115581394916 0.00043209880064256528 1.1999999990571268 -1.7999999987706750 -0.85463608652068690 
6000.0000000000000 4000.0000000000000 -4666.6666666669998 -46277524.694354482 -23326705.029622871 -114298407.25885850 1.4017378143232669e-05 0.00043394923958062123 0.00041801901109833991 1.5999999988038611 -1.7999999987705491 -0.85463608645343947 
7000.0000000000000 4000.0000000000000 -4500.0000000000000 -45127556.729219347 -22176737.065745495 -110221248.11530918 0.00014569144083690380 0.00066077289118022392 0.00059623211531564032 1.1999999990769314 -1.7999999987940885 -1.2596359615456671 
6000.0000000000000 4000.0000000000000 -4500.0000000000000 -45127556.728421636 -22176737.063569736 -110221248.10632622 3.3669084065187231e-05 0.00071757532678233841 0.00055840051694664133 1.5999999988268809 -1.7999999987946806 -1.2596359614468768 
7000.0000000000000 4000.0000000000000 -4333.3333333330002 -43977485.840396583 -21026666.176772233 -106143724.05417503 0.00014364941103050594 0.00096062085697090529 0.00072690708702651571 1.1999999991032657 -1.7999999988249498 -1.6497552821883477 
6000.0000000000000 4000.0000000000000 -4333.3333333330002 -43977485.839812048 -21026666.174814362 -106143724.04594195 5.3268721761011206e-05 0.0010357234706414675 0.00065274751957064721 1.5999999988578351 -1.7999999988262547 -1.6497552820597261 
7000.0000000000000 4000.0000000000000 -4166.6666666669998 -42827312.019684441 -19876492.355871245 -102065835.05245885 0.00014074692419321837 0.0012869203876834710 0.00082837960157565221 1.1999999991353552 -1.7999999988622792 -2.0249927166288093 
6000.0000000000000 4000.0000000000000 -4166.6666666669998 -42827312.019285567 -19876492.354124662 -102065835.04496796 7.0422971866665511e-05 0.0013775456785451645 0.00070665108731845572 1.5999999988958971 -1.7999999988642092 -2.0249927164722639 
7000.0000000000000 4000.0000000000000 -4000.0000000000000 -41677035.257842630 -18726215.593806129 -97987581.077410370 0.00013694836675534494 0.0016302196266461751 0.00090513729332502375 1.1999999991724704 -1.7999999989052105 -2.3853469329343895 
6000.0000000000000 4000.0000000000000 -4000.0000000000000 -41677035.257598355 -18726215.592261564 -97987581.070647851 8.3952965863469457e-05 0.0017332062733388422 0.00072666780195463959 1.5999999989402545 -1.7999999989076421 -2.3853469327519683 
7000.0000000000000 4000.0000000000000 -3833.3333333330002 -40526655.545634113 -17575835.881343339 -93908962.096296653 0.00013226559717814711 0.0019815798073950712 0.00096161098641454803 1.1999999992139339 -1.7999999989529980 -2.7308165990461761 
6000.0000000000000 4000.0000000000000 -3833.3333333330002 -40526655.545512803 -17575835.879989695 -93908962.090243205 9.3470800847492120e-05 0.0020938317586957447 0.00071964118806899400 1.5999999989901368 -1.7999999989557927 -2.7308165988400290 
7000.0000000000000 4000.0000000000000 -3666.6666666669998 -39376172.873820886 -16425353.209247544 -89829978.076383755 0.00012674266811777513 0.0023327464133439473 0.0010019940007643233 1.1999999992591202 -1.7999999990050135 -3.0614003827861502 
6000.0000000000000 4000.0000000000000 -3666.6666666669998 -39376172.873792104 -16425353.208072515 -89829978.071015269 9.9077627827000308e-05 0.0024514607747441260 0.00069229387539104879 1.5999999990448275 -1.7999999990080382 -3.0614003825584817 
7000.0000000000000 4000.0000000000000 -3500.0000000000000 -38225587.233159289 -15274767.568276867 -85750628.984918594 0.00012044054858919887 0.0026761750053463265 0.0010301473347205112 1.1999999993074588 -1.7999999990607412 -3.3770969518627330 
6000.0000000000000 4000.0000000000000 -3500.0000000000000 -38225587.233194962 -15274767.567267418 -85750628.980206624 0.00010115773940155956 0.0027989720655522709 0.00065096496129755260 1.5999999991036744 -1.7999999990638749 -3.3770969516157656 
7000.0000000000000 4000.0000000000000 -3333.3333333330002 -37074898.614410758 -14124078.949193589 -81670914.789165616 0.00011342580010770781 0.0030050634020045656 0.0010494740229919756 1.1999999993584323 -1.7999999991197702 -3.6779049738588907 
6000.0000000000000 4000.0000000000000 -3333.3333333330002 -37074898.614485934 -14124078.948336355 -81670914.785078183 0.00010023199834769421 0.0031300055662065386 0.00060139593364939490 1.5999999991660891 -1.7999999991229123 -3.6779049735948277 
7000.0000000000000 4000.0000000000000 -3166.6666666669998 -35924107.008336984 -12973287.342759266 -77590835.456388950 0.00010576321722232042 0.0033132959282389874 0.0010629101525467268 1.1999999994115751 -1.7999999991817899 -3.9638231162384758 
6000.0000000000000 4000.0000000000000 -3166.6666666669998 -35924107.008430205 -12973287.342040861 -77590835.452891037 9.6864650108903261e-05 0.0034388545102539848 0.00054868389304994802 1.5999999992315495 -1.7999999991848588 -3.9638231159594701 
7000.0000000000000 4000.0000000000000 -3000.0000000000000 -34773212.405694753 -11822392.739729676 -73510390.953833655 9.7505121574762202e-05 0.0035953343077242210 0.0010728511464453867 1.1999999994664694 -1.7999999992465787 -4.2348500463509682 
6000.0000000000000 4000.0000000000000 -3000.0000000000000 -34773212.405788302 -11822392.739136929 -73510390.950887844 9.1604683121295722e-05 0.0037203444567345495 0.00049720761797740129 1.5999999992995966 -1.7999999992495110 -4.2348500460590932 
7000.0000000000000 4000.0000000000000 -2833.3333333330002 -33622214.797246538 -10671395.130865423 -69429581.248763189 8.8691500757325846e-05 0.0038461906133780335 0.0010811646776221857 1.1999999995227428 -1.7999999993139963 -4.4909844314211798 
6000.0000000000000 4000.0000000000000 -2833.3333333330002 -33622214.797326602 -10671395.130385552 -69429581.246330097 8.4945011545582979e-05 0.0039697609868932478 0.00045058888245635352 1.5999999993698315 -1.7999999993167466 -4.4909844311184104 
7000.0000000000000 4000.0000000000000 -2666.6666666669998 -32471114.173755322 -9520294.5069267601 -65348406.308440834 7.9349452881430479e-05 0.0040613419392062340 0.0010891698818632910 1.1999999995800648 -1.7999999993839764 -4.7322249385548067 
6000.0000000000000 4000.0000000000000 -2666.6666666669998 -32471114.173811961 -9520294.5065475293 -65348406.306479707 7.7306628113782945e-05 0.0041827906201606516 0.00041168853332326338 1.5999999994419092 -1.7999999993865143 -4.7322249382429957 
7000.0000000000000 4000.0000000000000 -2500.0000000000000 -31319910.525979407 -8369090.8586685136 -61266866.100111678 6.9487399676297585e-05 0.0042365962636097196 0.0010976307342868748 1.1999999996381403 -1.7999999994565192 -4.9585702347423570 
6000.0000000000000 4000.0000000000000 -2500.0000000000000 -31319910.526006602 -8369090.8583783414 -61266866.098580733 6.9029262466674675e-05 0.0043554023683981353 0.00038259873501495569 1.5999999995155358 -1.7999999994588252 -4.9585702344232239 
7000.0000000000000 4000.0000000000000 -2333.3333333330002 -30168603.844682753 -7217784.1768504223 -57184960.591039389 5.9096579210948197e-05 0.0043680895611409743 0.0011067757810450498 1.1999999996967088 -1.7999999995316858 -5.1700189868504784 
6000.0000000000000 4000.0000000000000 -2333.3333333330002 -30168603.844678406 -7217784.1766384821 -57184960.589896291 6.0364025158654043e-05 0.0044838374604162217 0.00036464580921186351 1.5999999995904619 -1.7999999995337483 -5.1700189865255917 
7000.0000000000000 4000.0000000000000 -2166.6666666669998 -29017194.120629773 -6066374.4522319259 -53102689.748487942 4.8153965380713694e-05 0.0044522228582360469 0.0011162798864581449 1.1999999997555355 -1.7999999996095881 -5.3665698616266928 
6000.0000000000000 4000.0000000000000 -2166.6666666669998 -29017194.120595668 -6066374.4520882098 -53102689.747690111 5.1479288288113386e-05 0.0045645502162977051 0.00035841975601910801 1.5999999996664729 -1.7999999996114027 -5.3665698612974673 
7000.0000000000000 4000.0000000000000 -2000.0000000000000 -27865681.344580136 -4914861.6755669992 -49020053.539703675 3.6624809006077624e-05 0.0044855636024764391 0.0011252831871126220 1.1999999998144106 -1.7999999996903873 -5.5482215257025356 
6000.0000000000000 4000.0000000000000 -2000.0000000000000 -27865681.344521966 -4914861.6754824109 -49020053.539208591 4.2473984609002679e-05 0.0045941477414289614 0.00036376205530347795 1.5999999997433874 -1.7999999996919498 -5.5482215253702218 
7000.0000000000000 4000.0000000000000 -1833.3333333329999 -26714065.507298954 -3763245.8376143649 -44937051.931951858 2.4459798189434474e-05 0.0044649014417915541 0.0011323712143583901 1.1999999998731392 -1.7999999997742857 -5.7149726455864842 
6000.0000000000000 4000.0000000000000 -1833.3333333329999 -26714065.507226389 -3763245.8375808029 -44937051.931717433 3.3383651319195065e-05 0.0045694446087253034 0.00037972503688353515 1.5999999998210461 -1.7999999997755922 -5.7149726452521659 
7000.0000000000000 4000.0000000000000 -1666.6666666670001 -25562346.599551484 -2611526.9291322026 -40853684.892498404 1.1597408484373630e-05 0.0043871959861316876 0.0011355962020474519 1.1999999999315420 -1.7999999998615215 -5.8668218876678964 
6000.0000000000000 4000.0000000000000 -1666.6666666670001 -25562346.599478267 -2611526.9291426577 -40853684.892483220 2.4203199278113994e-05 0.0044873936796450192 0.00040461736342172416 1.5999999998993066 -1.7999999998625678 -5.8668218873324927 
0.0000000000000000 7000.0000000000000 -4833.3333333330002 -47427389.746830635 -24476570.061993483 -118375201.40088302 -4.6019352096023725e-05 -0.00018188965072485775 -0.00033272729577594909 4.0000000000000000 -0.89999999925637841 -0.43475698818245190 
0.0000000000000000 8000.0000000000000 -4833.3333333330002 -47427389.745463058 -24476570.060930610 -118375201.39553687 -2.5439324099727221e-05 -0.00017265857457939219 -0.00035524735553742941 4.0000000000000000 -0.59999999950441107 -0.43475698816140740 
1000.0000000000000 8000.0000000000000 -4833.3333333330002 -47427389.744154304 -24476570.062340714 -118375201.40329169 2.1586322230590819e-08 -0.00017792428507524248 -0.00047694365737464313 3.5999999993720624 -0.59999999950557925 -0.43475698820966796 
0.0000000000000000 7000.0000000000000 -5000.0000000000000 -48002296.544363208 -25051476.859431945 -120413507.31879553 -4.9332983171594100e-05 -9.4428371594363107e-05 -0.00016460071196625048 4.0000000000000000 -0.89999999925307805 0.0000000000000000 
0.0000000000000000 8000.0000000000000 -5000.0000000000000 -48002296.542927846 -25051476.858298436 -120413507.31318909 -2.7542862731026428e-05 -8.8536243783829936e-05 -0.00017596352009580665 4.0000000000000000 -0.59999999950222005 0.0000000000000000 
1000.0000000000000 8000.0000000000000 -5000.0000000000000 -48002296.541743681 -25051476.859887995 -120413507.32163846 -1.9271492272032562e-06 -9.1032862981522470e-05 -0.00023342062017281637 3.5999999993676206 -0.59999999950347649 0.0000000000000000 
0.0000000000000000 7000.0000000000000 -4666.6666666669998 -46277524.697016709 -23326705.012430836 -114298407.13503745 -3.7364057010793815e-05 -0.00034388988822832141 -0.00066950275640783089 4.0000000000000000 -0.89999999926591201 -0.85463608530851942 
0.0000000000000000 8000.0000000000000 -4666.6666666669998 -46277524.695778005 -23326705.011503160 -114298407.13020089 -1.9938669575855510e-05 -0.00033252587897827430 -0.00071345941838358131 4.0000000000000000 -0.59999999951075744 -0.85463608526853863 
1000.0000000000000 8000.0000000000000 -4666.6666666669998 -46277524.694302149 -23326705.012606282 -114298407.13671838 5.0821994192490564e-06 -0.00034358520978290468 -0.00097527223233226466 3.5999999993837055 -0.59999999951170457 -0.85463608535577673 
0.0000000000000000 7000.0000000000000 -4500.0000000000000 -45127556.733152039 -22176737.048912894 -110221247.99284597 -2.5941515701223622e-05 -0.00048188084145544809 -0.00099824359923236902 4.0000000000000000 -0.89999999928097962 -1.2596359597993669 
0.0000000000000000 8000.0000000000000 -4500.0000000000000 -45127556.732030742 -22176737.048108082 -110221247.98849697 -1.2665452809100960e-05 -0.00047645751166675509 -0.0010611055939814061 4.0000000000000000 -0.59999999952082539 -1.2596359597424645 
1000.0000000000000 8000.0000000000000 -4500.0000000000000 -45127556.730513960 -22176737.048993163 -110221247.99405219 1.1682373005448578e-05 -0.00049337396768680728 -0.0014825965306445043 3.5999999993998122 -0.59999999952148897 -1.2596359598614235 
0.0000000000000000 7000.0000000000000 -4333.3333333330002 -43977485.846115343 -21026666.162269626 -106143723.94170612 -1.3814354065826022e-05 -0.00059928240593077730 -0.0013067975154556831 4.0000000000000000 -0.89999999930095043 -1.6497552799496500 
0.0000000000000000 8000.0000000000000 -4333.3333333330002 -43977485.845103182 -21026666.161575153 -106143723.93782282 -4.9301656838331704e-06 -0.00060598412366656023 -0.0013850005925577212 4.0000000000000000 -0.59999999953421546 -1.6497552798777457 
1000.0000000000000 8000.0000000000000 -4333.3333333330002 -43977485.843612395 -21026666.162306868 -106143723.94264199 1.8554305309856524e-05 -0.00062812606479608441 -0.0019786272831278586 3.5999999994186669 -0.59999999953457872 -1.6497552800228712 
0.0000000000000000 7000.0000000000000 -4166.6666666669998 -42827312.026753046 -19876492.343319446 -102065834.94900091 -2.2017441172063778e-06 -0.00069909479665360911 -0.0015921645677941937 4.0000000000000000 -0.89999999932525099 -2.0249927139353665 
0.0000000000000000 8000.0000000000000 -4166.6666666669998 -42827312.025843643 -19876492.342722867 -102065834.94556165 2.4803780352182347e-06 -0.00072246446343992730 -0.0016818586014735249 4.0000000000000000 -0.59999999955055749 -2.0249927138502839 
1000.0000000000000 8000.0000000000000 -4166.6666666669998 -42827312.024411887 -19876492.343349393 -102065834.94983116 2.4938509794631735e-05 -0.00074883469584164286 -0.0024538812998344253 3.5999999994392229 -0.59999999955063121 -2.0249927140174946 
0.0000000000000000 7000.0000000000000 -4000.0000000000000 -41677035.265885800 -18726215.582868427 -97987580.982088119 8.2252696494056163e-06 -0.00078401320997606981 -0.0018557878330886406 4.0000000000000000 -0.89999999935335884 -2.3853469298202370 
0.0000000000000000 8000.0000000000000 -4000.0000000000000 -41677035.265073836 -18726215.582357623 -97987580.979071409 9.1231592879602266e-06 -0.00082713454645790452 -0.0019532108827251282 4.0000000000000000 -0.59999999956950667 -2.3853469297237035 
1000.0000000000000 8000.0000000000000 -4000.0000000000000 -41677035.263714276 -18726215.582914148 -97987580.982939273 3.0413558929081527e-05 -0.00085658425045407900 -0.0029049781764151086 3.5999999994608767 -0.59999999956931827 -2.3853469299101242 
0.0000000000000000 7000.0000000000000 -3833.3333333330002 -40526655.554324083 -17575835.871721178 -93908962.008333415 1.7149449095137690e-05 -0.00085646109047496973 -0.0021007692015350128 4.0000000000000000 -0.89999999938479669 -2.7308165955422106 
0.0000000000000000 8000.0000000000000 -3833.3333333330002 -40526655.553604841 -17575835.871284589 -93908962.005717903 1.4782162108440670e-05 -0.00092111936438941293 -0.0022024832506533608 4.0000000000000000 -0.59999999959074113 -2.7308165954358601 
1000.0000000000000 8000.0000000000000 -3833.3333333330002 -40526655.552319869 -17575835.871796392 -93908962.009298280 3.4780937176947818e-05 -0.00095248952119248234 -0.0033317217969710466 3.5999999994833165 -0.59999999959032591 -2.7308165956395274 
0.0000000000000000 7000.0000000000000 -3666.6666666669998 -39376172.882866725 -16425353.200675990 -89829977.995089695 2.4467858888219408e-05 -0.00091864536166570113 -0.0023304637498087061 4.0000000000000000 -0.89999999941912789 -3.0614003789205344 
0.0000000000000000 8000.0000000000000 -3666.6666666669998 -39376172.882235758 -16425353.200302895 -89829977.992854059 1.9380360305880259e-05 -0.0010054556577903195 -0.0024334401140768255 4.0000000000000000 -0.59999999961395978 -3.0614003788059088 
1000.0000000000000 8000.0000000000000 -3666.6666666669998 -39376172.881023020 -16425353.200788246 -89829977.996234134 3.7982476980590451e-05 -0.0010376536504414699 -0.0037353283168278318 3.5999999995064189 -0.59999999961335693 -3.0614003790255397 
0.0000000000000000 7000.0000000000000 -3500.0000000000000 -38225587.242299035 -15274767.560521010 -85750628.909680858 3.0206618192155454e-05 -0.00097255103831726157 -0.0025477663379790362 4.0000000000000000 -0.89999999945595266 -3.3770969476612502 
0.0000000000000000 8000.0000000000000 -3500.0000000000000 -38225587.241752006 -15274767.560201680 -85750628.907803684 2.2919958248809751e-05 -0.0010810677340070830 -0.0026494425066731202 4.0000000000000000 -0.59999999963888151 -3.3770969475397989 
1000.0000000000000 8000.0000000000000 -3500.0000000000000 -38225587.240607977 -15274767.560673909 -85750628.911049321 4.0041105508452654e-05 -0.0011131166141450514 -0.0041173552907176041 3.5999999995301795 -0.59999999963813055 -3.3770969477746098 
0.0000000000000000 7000.0000000000000 -3333.3333333330002 -37074898.623405486 -14124078.942045560 -81670914.719440520 3.4456314403497476e-05 -0.0010199165652962812 -0.0027548351504524636 4.0000000000000000 -0.89999999949490583 -3.6779049693452484 
0.0000000000000000 8000.0000000000000 -3333.3333333330002 -37074898.622938111 -14124078.941771513 -81670914.717900261 2.5449889447165615e-05 -0.0011487520817258430 -0.0028531027058231496 4.0000000000000000 -0.59999999966524320 -3.6779049692183303 
1000.0000000000000 8000.0000000000000 -3333.3333333330002 -37074898.621859983 -14124078.942240382 -81670914.721060336 4.1025143865271266e-05 -0.0011798199102527795 -0.0044790996093973271 3.5999999995546723 -0.59999999966438200 -3.6779049694678894 
0.0000000000000000 7000.0000000000000 -3166.6666666669998 -35924107.016966023 -12973287.336035743 -77590835.391695291 3.7337937847289132e-05 -0.0010622251944939047 -0.0029529395771867358 4.0000000000000000 -0.89999999953565302 -3.9638231114345754 
0.0000000000000000 8000.0000000000000 -3166.6666666669998 -35924107.016574077 -12973287.335799929 -77590835.390470147 2.7044734457664290e-05 -0.0012091663178867473 -0.0030461133402425690 4.0000000000000000 -0.59999999969279882 -3.9638231113034577 
1000.0000000000000 8000.0000000000000 -3166.6666666669998 -35924107.015560806 -12973287.336272623 -77590835.393579915 4.1027547841976088e-05 -0.0012385727398878958 -0.0048212374412172718 3.5999999995800285 -0.59999999969186335 -3.9638231115675815 
0.0000000000000000 7000.0000000000000 -3000.0000000000000 -34773212.413751870 -11822392.733269835 -73510390.893747732 3.8988589831804445e-05 -0.0011006455536616221 -0.0031425044538051523 4.0000000000000000 -0.89999999957788912 -4.2348500412771468 
0.0000000000000000 8000.0000000000000 -3000.0000000000000 -34773212.413431138 -11822392.733066747 -73510390.892815471 2.7789824906848630e-05 -0.0012627840033362415 -0.0032293147082724126 4.0000000000000000 -0.59999999972131812 -4.2348500411430017 
1000.0000000000000 8000.0000000000000 -3000.0000000000000 -34773212.412484065 -11822392.733548617 -73510390.895899311 4.0149381660671245e-05 -0.0012900027822358873 -0.0051436804586925608 3.5999999996064216 -0.59999999972034102 -4.2348500414216659 
0.0000000000000000 7000.0000000000000 -2833.3333333330002 -33622214.804536551 -10671395.124529077 -69429581.192914158 3.9542056433905030e-05 -0.0011360339792233218 -0.0033231855100149064 4.0000000000000000 -0.89999999962133470 -4.4909844260964293 
0.0000000000000000 8000.0000000000000 -2833.3333333330002 -33622214.804282919 -10671395.124354979 -69429581.192252204 2.7767850650471090e-05 -0.0013098984614182232 -0.0034027045604153447 4.0000000000000000 -0.59999999975058516 -4.4909844259603338 
1000.0000000000000 8000.0000000000000 -2833.3333333330002 -33622214.803405993 -10671395.124850022 -69429581.195325613 3.8486441623389358e-05 -0.0013345446762849838 -0.0054455133524660762 3.5999999996340573 -0.59999999974959595 -4.4909844262536041 
0.0000000000000000 7000.0000000000000 -2666.6666666669998 -32471114.180091176 -9520294.5005928911 -65348406.256507203 3.9120244440511904e-05 -0.0011689070501905408 -0.0034938225189650482 4.0000000000000000 -0.89999999966573363 -4.7322249329969708 
0.0000000000000000 8000.0000000000000 -2666.6666666669998 -32471114.179900635 -9520294.5004459228 -65348406.256092593 2.7061664702269860e-05 -0.0013505876052780543 -0.0035654499716827096 4.0000000000000000 -0.59999999978039675 -4.7322249328599044 
1000.0000000000000 8000.0000000000000 -2666.6666666669998 -32471114.179100581 -9520294.5009571519 -65348406.259163626 3.6130699799906819e-05 -0.0013724148250674226 -0.0057248841821991529 3.5999999996631677 -0.59999999977942231 -4.7322249331678856 
0.0000000000000000 7000.0000000000000 -2500.0000000000000 -31319910.531179469 -8369090.8522339799 -61266866.051818341 3.7830511806243052e-05 -0.0011994053184893794 -0.0036525581456890405 4.0000000000000000 -0.89999999971085021 -4.9585702289683242 
0.0000000000000000 8000.0000000000000 -2500.0000000000000 -31319910.531048197 -8369090.8521142788 -61266866.051627576 2.5746179142102621e-05 -0.0013846782375067006 -0.0037160137161330992 4.0000000000000000 -0.59999999981056096 -4.9585702288311646 
1000.0000000000000 8000.0000000000000 -2500.0000000000000 -31319910.530334659 -8369090.8526440123 -61266866.054698199 3.3162958880869704e-05 -0.0014035711789516870 -0.0059790414793918101 3.5999999996940173 -0.59999999980962493 -4.9585702291539553 
0.0000000000000000 7000.0000000000000 -2333.3333333330002 -30168603.848568305 -7217784.1702288939 -57184960.546155080 3.5765199008135201e-05 -0.0012272744520630844 -0.0037969137773822127 4.0000000000000000 -0.89999999975646561 -5.1700189808763541 
0.0000000000000000 8000.0000000000000 -2333.3333333330002 -30168603.848492689 -7217784.1701387269 -57184960.546164282 2.3887434768283163e-05 -0.0014117481191228481 -0.0038521862041802054 4.0000000000000000 -0.59999999984089492 -5.1700189807398731 
1000.0000000000000 8000.0000000000000 -2333.3333333330002 -30168603.847878359 -7217784.1706887968 -57184960.549231030 2.9651433657965648e-05 -0.0014276997456013870 -0.0062043284778386795 3.5999999997269012 -0.59999999984001884 -5.1700189810775301 
0.0000000000000000 7000.0000000000000 -2166.6666666669998 -29017194.123022512 -6066374.4453529846 -53102689.706823029 3.3006940358796726e-05 -0.0012518392684521924 -0.0039237176228017479 4.0000000000000000 -0.89999999980237522 -5.3665698554679722 
0.0000000000000000 8000.0000000000000 -2166.6666666669998 -29017194.122999191 -6066374.4452968407 -53102689.707007781 2.1551538336608876e-05 -0.0014310946015822848 -0.0039710049311481145 4.0000000000000000 -0.59999999987122310 -5.3665698553328323 
1000.0000000000000 8000.0000000000000 -2166.6666666669998 -29017194.122500025 -6066374.4458688023 -53102689.710062608 2.5655262825994615e-05 -0.0014442001105718864 -0.0063960409162372497 3.5999999997621464 -0.59999999987042540 -5.3665698556853423 
0.0000000000000000 7000.0000000000000 -2000.0000000000000 -27865681.345299728 -4914861.6683755238 -49020053.501108490 2.9633093572148177e-05 -0.0012719994024292900 -0.0040290877160645937 4.0000000000000000 -0.89999999984838408 -5.5482215193742626 
0.0000000000000000 8000.0000000000000 -2000.0000000000000 -27865681.345325686 -4914861.6683602557 -49020053.501444004 1.8797396822825497e-05 -0.0014417244346109595 -0.0040687978009236875 4.0000000000000000 -0.59999999990137487 -5.5482215192410163 
1000.0000000000000 8000.0000000000000 -2000.0000000000000 -27865681.344961144 -4914861.6689554658 -49020053.504474364 2.1224115841552146e-05 -0.0014521619286745704 -0.0065484340088524540 3.5999999998001155 -0.59999999990067199 -5.5482215196082691 
0.0000000000000000 7000.0000000000000 -1833.3333333329999 -26714065.506160591 -3763245.8300700830 -44937051.896315262 2.5713393065584820e-05 -0.0012862032562644392 -0.0041084145594149366 4.0000000000000000 -0.89999999989430413 -5.7149726391034177 
0.0000000000000000 8000.0000000000000 -1833.3333333329999 -26714065.506233066 -3763245.8301049182 -44937051.896776050 1.5682235286847012e-05 -0.0014423339928456898 -0.0041411324150660176 4.0000000000000000 -0.59999999993118269 -5.7149726389724993 
1000.0000000000000 8000.0000000000000 -1833.3333333329999 -26714065.506026611 -3763245.8307247208 -44937051.899765313 1.6404858534250085e-05 -0.0014503484901490895 -0.0066546080821829967 3.5999999998412227 -0.59999999993058839 -5.7149726393542561 
0.0000000000000000 7000.0000000000000 -1666.6666666670001 -25562346.596363109 -2611526.9212092282 -40853684.859745942 2.1313279077175060e-05 -0.0012924077864888627 -0.0041562243482318982 4.0000000000000000 -0.89999999993994984 -5.8668218810446620 
0.0000000000000000 8000.0000000000000 -1666.6666666670001 -25562346.596479736 -2611526.9213059712 -40853684.860306151 1.2263603368835646e-05 -0.0014312794352800040 -0.0041826622738404635 4.0000000000000000 -0.59999999996047915 -5.8668218809163832 
1000.0000000000000 8000.0000000000000 -1666.6666666670001 -25562346.596459478 -2611526.9219519026 -40853684.863233849 1.1237559207512388e-05 -0.0014371792870590113 -0.0067062909777515292 3.5999999998859278 -0.59999999996000442 -5.8668218813122559 
4000.0000000000000 4000.0000000000000 -4833.3333333330002 -47427389.747254208 -24476570.074770384 -118375201.50222687 0.00027910588199290859 0.00022196808035827200 -0.00026359419019424292 2.3999999985011935 -1.7999999987588013 -0.43475698863511342 
5000.0000000000000 4000.0000000000000 -4833.3333333330002 -47427389.746380597 -24476570.078830179 -118375201.52168097 8.2307274576009969e-05 0.00022347693069594532 -3.7060226466186015e-05 1.9999999985835681 -1.7999999987527455 -0.43475698872287299 
5000.0000000000000 3000.0000000000000 -4833.3333333330002 -47427389.749988995 -24476570.077207889 -118375201.54040881 0.00011964130704598083 0.00034971864131145669 -2.5175768409610452e-05 1.9999999985814152 -2.0999999988333271 -0.43475698880772734 
4000.0000000000000 4000.0000000000000 -5000.0000000000000 -48002296.545964614 -25051476.873473402 -120413507.42489466 0.00028379538964777291 0.00010308695066798685 -0.00012400441888609230 2.3999999984946876 -1.7999999987532007 0.0000000000000000 
5000.0000000000000 4000.0000000000000 -5000.0000000000000 -48002296.545281664 -25051476.877754945 -120413507.44516668 7.9852059320784254e-05 0.00010374226951054825 -1.2070051133218283e-05 1.9999999985774091 -1.7999999987470539 0.0000000000000000 
5000.0000000000000 3000.0000000000000 -5000.0000000000000 -48002296.549117550 -25051476.876341116 -120413507.46475358 0.00011861267578914961 0.00016662337457259616 -6.4748691210116058e-06 1.9999999985753547 -2.0999999988279621 0.0000000000000000 
4000.0000000000000 4000.0000000000000 -4666.6666666669998 -46277524.695364945 -23326705.022905670 -114298407.22743991 0.00026666309991271010 0.00048713888526169183 -0.00057000035197212189 2.3999999985197493 -1.7999999987747621 -0.85463608617467990 
5000.0000000000000 4000.0000000000000 -4666.6666666669998 -46277524.694158763 -23326705.026547309 -114298407.24532361 8.8560495309114855e-05 0.00049053740709009892 -0.00011021963980876678 1.9999999986012360 -1.7999999987689288 -0.85463608634283805 
5000.0000000000000 3000.0000000000000 -4666.6666666669998 -46277524.697348513 -23326705.024562750 -114298407.26242645 0.00012185263235554140 0.00074377850797105677 -8.4943272350883873e-05 1.9999999985988421 -2.0999999988484057 -0.85463608650547029 
4000.0000000000000 4000.0000000000000 -4500.0000000000000 -45127556.729921743 -22176737.057509489 -110221248.07737835 0.00024975776640726044 0.00079938665315339142 -0.00092357737936624488 2.3999999985485974 -1.7999999987995108 -1.2596359610445411 
5000.0000000000000 4000.0000000000000 -4500.0000000000000 -45127556.728469633 -22176737.060779892 -110221248.09381619 9.6345050938906847e-05 0.00080479881182723100 -0.00022478829044194116 1.9999999986289210 -1.7999999987939608 -1.2596359612863388 
5000.0000000000000 3000.0000000000000 -4500.0000000000000 -45127556.731306776 -22176737.058534034 -110221248.10947336 0.00012357837172796289 0.0011847342947408008 -0.00018549767782129650 1.9999999986262418 -2.0999999988713842 -1.2596359615203367 
4000.0000000000000 4000.0000000000000 -4333.3333333330002 -43977485.841694362 -21026666.169356581 -106143724.01931553 0.00023110308769315428 0.0011442880514643807 -0.0013108264537051472 2.3999999985862623 -1.7999999988316975 -1.6497552815434895 
5000.0000000000000 4000.0000000000000 -4333.3333333330002 -43977485.840065673 -21026666.172296349 -106143724.03442061 0.00010378618678028480 0.0011514845752992205 -0.00037162251063965827 1.9999999986653523 -1.7999999988264472 -1.6497552818527308 
5000.0000000000000 3000.0000000000000 -4333.3333333330002 -43977485.842604481 -21026666.169874601 -106143724.04879634 0.00012367125375065444 0.0016567536418940034 -0.00031924458635199175 1.9999999986624106 -2.0999999989008344 -1.6497552821523445 
4000.0000000000000 4000.0000000000000 -4166.6666666669998 -42827312.021450803 -19876492.349217985 -102065835.02052251 0.00021234610545054164 0.0015095412388425695 -0.0017200937832703191 2.3999999986315035 -1.7999999988701778 -2.0249927158512144 
5000.0000000000000 4000.0000000000000 -4166.6666666669998 -42827312.019704476 -19876492.351863198 -102065835.03439806 0.00010975400253896956 0.0015181368528194832 -0.00054271704582483835 1.9999999987094268 -1.7999999988652287 -2.0249927162222181 
5000.0000000000000 3000.0000000000000 -4166.6666666669998 -42827312.021990292 -19876492.349337753 -102065835.04764071 0.00012168716932932037 0.0021473019701548071 -0.00047888433048956882 1.9999999987062869 -2.0999999989356373 -2.0249927165823234 
4000.0000000000000 4000.0000000000000 -4000.0000000000000 -41677035.259953544 -18726215.587856971 -97987581.048250243 0.00019438513283445073 0.0018846934503311714 -0.0021410923091324491 2.3999999986832745 -1.7999999989140034 -2.3853469320346607 
5000.0000000000000 4000.0000000000000 -4000.0000000000000 -41677035.258141831 -18726215.590240240 -97987581.060990945 0.00011365748444746088 0.0018942977764048693 -0.00073074484924549508 1.9999999987601824 -1.7999999989093465 -2.3853469324622094 
5000.0000000000000 3000.0000000000000 -4000.0000000000000 -41677035.260213099 -18726215.587672342 -97987581.073232710 0.00011759868709367707 0.0026463208708894094 -0.00065726444252678503 1.9999999987569304 -2.0999999989749210 -2.3853469328782579 
4000.0000000000000 4000.0000000000000 -3833.3333333330002 -40526655.547970816 -17575835.876040321 -93908962.069766998 0.00017761493579855316 0.0022608060236096344 -0.0025645269746512591 2.3999999987407059 -1.7999999989623947 -2.7308165980345240 
5000.0000000000000 4000.0000000000000 -3833.3333333330002 -40526655.546141118 -17575835.878191356 -93908962.081459656 0.00011528051760358130 0.0022710873234091933 -0.00092880800048082137 1.9999999988167778 -1.7999999989580218 -2.7308165985138189 
5000.0000000000000 3000.0000000000000 -3833.3333333330002 -40526655.548030823 -17575835.875633307 -93908962.092816994 0.00011160949069596717 0.0031454365138952173 -0.00084737783546458604 1.9999999988135033 -2.0999999990180149 -2.7308165989817756 
4000.0000000000000 4000.0000000000000 -3666.6666666669998 -39376172.876271665 -16425353.204533648 -89829978.052340329 0.00016210339500781040 0.0026301933774594741 -0.0029819413118401016 2.3999999988030805 -1.7999999990147246 -3.0614003816723914 
5000.0000000000000 4000.0000000000000 -3666.6666666669998 -39376172.874467537 -16425353.206479583 -89829978.063064307 0.00011465051254893538 0.0026408787258606595 -0.0011303312327054305 1.9999999988784825 -1.7999999990106301 -3.0614003821990030 
5000.0000000000000 3000.0000000000000 -3666.6666666669998 -39376172.876204260 -16425353.203976581 -89829978.073638707 0.00010403351692943655 0.0036374932967487934 -0.0010423662432155931 1.9999999988752679 -2.0999999990644174 -3.0614003827152798 
4000.0000000000000 4000.0000000000000 -3500.0000000000000 -38225587.235620908 -15274767.564096622 -85750628.963218838 0.00014772264320165216 0.0029862039218324426 -0.0033856571197757612 2.3999999988698204 -1.7999999990705020 -3.3770969506562838 
5000.0000000000000 4000.0000000000000 -3500.0000000000000 -38225587.233882457 -15274767.565862257 -85750628.973046660 0.00011194579749049220 0.0029970812273395759 -0.0013291407032820035 1.9999999989446631 -1.7999999990666833 -3.3770969512261080 
5000.0000000000000 3000.0000000000000 -3500.0000000000000 -38225587.235491186 -15274767.563453954 -85750628.982925668 9.5221097232490968e-05 0.0041162356589620882 -0.0012357305902623141 1.9999999989415840 -2.0999999991137650 -3.3770969517874994 
4000.0000000000000 4000.0000000000000 -3333.3333333330002 -37074898.616789453 -14124078.945493639 -81670914.769669414 0.00013423428920567737 0.0033229953997184988 -0.0037686507734880346 2.3999999989404723 -1.7999999991293509 -3.6779049725687645 
5000.0000000000000 4000.0000000000000 -3333.3333333330002 -37074898.615153626 -14124078.947101576 -81670914.778667048 0.00010742028443997723 0.0033339043787035450 -0.0015194750885043217 1.9999999990147823 -1.7999999991258111 -3.6779049731779843 
5000.0000000000000 3000.0000000000000 -3333.3333333330002 -37074898.616656318 -14124078.944823330 -81670914.787925199 8.5508607828585555e-05 0.0045759574450567417 -0.0014213973796001085 1.9999999990118977 -2.0999999991658140 -3.6779049737816010 
4000.0000000000000 4000.0000000000000 -3166.6666666669998 -35924107.010549091 -12973287.339488804 -77590835.438958988 0.00012135047720423329 0.0036353448809927991 -0.0041244546418218730 2.3999999990146956 -1.7999999991909985 -3.9638231148732759 
5000.0000000000000 4000.0000000000000 -3166.6666666669998 -35924107.009049721 -12973287.340959551 -77590835.447186202 0.00010135573335298024 0.0036461625609347601 -0.0016959851184234326 1.9999999990883861 -1.7999999991877451 -3.9638231155183230 
5000.0000000000000 3000.0000000000000 -3166.6666666669998 -35924107.010465764 -12973287.338843504 -77590835.455885887 7.5200418204398031e-05 0.0050113316301130069 -0.0015937426387751797 1.9999999990857427 -2.0999999992204263 -3.9638231161615383 
4000.0000000000000 4000.0000000000000 -3000.0000000000000 -34773212.407667063 -11822392.736840755 -73510390.938336045 0.00010877873782926186 0.0039185327119590279 -0.0044471262818210960 2.3999999990922523 -1.7999999992552631 -4.2348500449188871 
5000.0000000000000 4000.0000000000000 -3000.0000000000000 -34773212.406335056 -11822392.738192849 -73510390.945846751 9.4035945395635966e-05 0.0039291635725358688 -0.0018538061578511806 1.9999999991651016 -1.7999999992523055 -4.2348500455964091 
5000.0000000000000 3000.0000000000000 -3000.0000000000000 -34773212.407681614 -11822392.736268889 -73510390.954039425 6.4562899393160814e-05 0.0054172335259421358 -0.0017477155380946211 1.9999999991627324 -2.0999999992775531 -4.2348500462767964 
4000.0000000000000 4000.0000000000000 -2833.3333333330002 -33622214.798916548 -10671395.128313184 -69429581.235067844 9.6245264209116578e-05 0.0041682283603025252 -0.0047312133979473753 2.3999999991729979 -1.7999999993220404 -4.4909844299299921 
5000.0000000000000 4000.0000000000000 -2833.3333333330002 -33622214.797779895 -10671395.129563289 -69429581.241910398 8.5720147364269319e-05 0.0041785794361768377 -0.0019886359737048150 1.9999999992446287 -1.7999999993193911 -4.4909844306368223 
5000.0000000000000 3000.0000000000000 -2833.3333333330002 -33622214.799072132 -10671395.127859762 -69429581.249637216 5.3813891605964496e-05 0.0057885906826823869 -0.0018788880392543368 1.9999999992425543 -2.0999999993372245 -4.4909844313521186 
4000.0000000000000 4000.0000000000000 -2666.6666666669998 -32471114.175071310 -9520294.5046696533 -65348406.296421945 8.3504139073373293e-05 0.0043804118354271943 -0.0049716405687807615 2.3999999992568672 -1.7999999993912950 -4.7322249370118703 
5000.0000000000000 4000.0000000000000 -2666.6666666669998 -32471114.174155150 -9520294.5058326274 -65348406.302639440 7.6629543301634300e-05 0.0043903700824149848 -0.0020967257647892200 1.9999999993267303 -1.7999999993889690 -4.7322249377450092 
5000.0000000000000 3000.0000000000000 -2666.6666666669998 -32471114.175406490 -9520294.5043769944 -65348406.309932277 4.3127050482782250e-05 0.0061202630544656749 -0.0019834309145865796 1.9999999993249615 -2.0999999993995444 -4.7322249384930499 
4000.0000000000000 4000.0000000000000 -2500.0000000000000 -31319910.526900500 -8369090.8566683512 -61266866.089647859 7.0350758836465563e-05 0.0045512646017205234 -0.0051636450044306665 2.3999999993438696 -1.7999999994630527 -4.9585702331546102 
5000.0000000000000 4000.0000000000000 -2500.0000000000000 -31319910.526227146 -8369090.8577573728 -61266866.095278569 6.6948543388977013e-05 0.0045607161702622091 -0.0021748956305625432 1.9999999994112296 -1.7999999994610651 -4.9585702339111961 
5000.0000000000000 3000.0000000000000 -2500.0000000000000 -31319910.527449474 -8369090.8565767594 -61266866.102160759 3.2639098944219012e-05 0.0064069183883738142 -0.0020581703663524529 1.9999999994097704 -2.0999999994646843 -4.9585702346898906 
4000.0000000000000 4000.0000000000000 -2333.3333333330002 -30168603.845179044 -7217784.1750724372 -57184960.582013763 5.6626093062546353e-05 0.0046771811592991311 -0.0053027689787824798 2.3999999994340802 -1.7999999995373916 -5.1700189852244405 
5000.0000000000000 4000.0000000000000 -2333.3333333330002 -30168603.844767977 -7217784.1760991011 -57184960.587091595 5.6818716686223589e-05 0.0046860083534724026 -0.0022206078394861315 1.9999999994980018 -1.7999999995357607 -5.1700189860017334 
5000.0000000000000 3000.0000000000000 -2333.3333333330002 -30168603.845971733 -7217784.1752207028 -57184960.593578577 2.2453246566319140e-05 0.0066430062024755241 -0.0021006117853217912 1.9999999994968489 -2.0999999995328760 -5.1700189868090201 
4000.0000000000000 4000.0000000000000 -2166.6666666669998 -29017194.120682485 -6066374.4506448247 -53102689.740788132 4.2210356018509287e-05 0.0047547239846331239 -0.0053848464783143148 2.3999999995276320 -1.7999999996144391 -5.3665698599684628 
5000.0000000000000 4000.0000000000000 -2166.6666666669998 -29017194.120550256 -6066374.4516192302 -53102689.745343067 4.6336000088990113e-05 0.0047627741441064698 -0.0022319660097631570 1.9999999995869646 -1.7999999996131799 -5.3665698607638328 
5000.0000000000000 3000.0000000000000 -2166.6666666669998 -29017194.121744629 -6066374.4510707129 -53102689.751443185 1.2641900780286834e-05 0.0068226339940440457 -0.0021089361335258996 1.9999999995861104 -2.0999999996044090 -5.3665698615976503 
4000.0000000000000 4000.0000000000000 -2000.0000000000000 -27865681.344181884 -4914861.6741429437 -49020053.533221371 2.7024329295107069e-05 0.0047805378969037124 -0.0054059373973570487 2.3999999996247081 -1.7999999996943608 -5.5482215240177890 
5000.0000000000000 4000.0000000000000 -2000.0000000000000 -27865681.344342019 -4914861.6750738136 -49020053.537280105 3.5563303150842724e-05 0.0047876606663861026 -0.0022077445958052304 1.9999999996780706 -1.7999999996934908 -5.5482215248287101 
5000.0000000000000 3000.0000000000000 -2000.0000000000000 -27865681.345535088 -4914861.6748836264 -49020053.542995416 3.2506416787346017e-06 0.0069394661649207091 -0.0020820421431612746 1.9999999996775062 -2.0999999996796284 -5.5482215256869631 
4000.0000000000000 4000.0000000000000 -1833.3333333329999 -26714065.506454270 -3763245.8363290466 -44937051.926582582 1.1027251167476338e-05 0.0047514299984733254 -0.0053623761591740831 2.3999999997255377 -1.7999999997773624 -5.7149726438804711 
5000.0000000000000 4000.0000000000000 -1833.3333333329999 -26714065.506917004 -3763245.8372237929 -44937051.930169098 2.4538183451520550e-05 0.0047574884780003848 -0.0021474872829121447 1.9999999997713043 -1.7999999997768976 -5.7149726447045097 
5000.0000000000000 3000.0000000000000 -1833.3333333329999 -26714065.508115817 -3763245.8374213777 -44937051.935495853 -5.6916101175032299e-06 0.0069867222719058857 -0.0020196057199821957 1.9999999997710185 -2.0999999997589334 -5.7149726455850560 
4000.0000000000000 4000.0000000000000 -1666.6666666670001 -25562346.598277546 -2611526.9279648857 -40853684.888140902 -5.8040919271627939e-06 0.0046643458607625960 -0.0052508283630254057 2.3999999998303880 -1.7999999998636800 -5.8668218859454377 
5000.0000000000000 4000.0000000000000 -1666.6666666670001 -25562346.599049468 -2611526.9288297109 -40853684.891277216 1.3275710540302391e-05 0.0046691937219212392 -0.0020515479850550977 1.9999999998666651 -1.7999999998636367 -5.8668218867802562 
5000.0000000000000 3000.0000000000000 -1666.6666666670001 -25562346.600260280 -2611526.9294457599 -40853684.896206908 -1.4171281252591570e-05 0.0069570862276042093 -0.0019221088118498643 1.9999999998666491 -2.0999999998427765 -5.8668218876808780 
9000.0000000000000 7000.0000000000000 -4833.3333333330002 -47427389.741459288 -24476570.087797128 -118375201.52204739 0.00014647992783884892 -0.00017859400694935374 0.00011824437354004835 0.39999999968024569 -0.89999999921710860 -0.43475698871515472 
9000.0000000000000 6000.0000000000000 -4833.3333333330002 -47427389.743584856 -24476570.088742223 -118375201.53155042 0.00022717408544568039 -0.00010255831185129105 0.00010508650645853271 0.39999999967349020 -1.1999999989817189 -0.43475698875343932 
9000.0000000000000 7000.0000000000000 -5000.0000000000000 -48002296.540376566 -25051476.886795588 -120413507.44566004 0.00014894414108341595 -9.3129123725223652e-05 6.0658971403793559e-05 0.39999999967871880 -0.89999999921360729 0.0000000000000000 
9000.0000000000000 6000.0000000000000 -5000.0000000000000 -48002296.542615168 -25051476.887851059 -120413507.45558259 0.00023160156311116692 -5.6493716392965833e-05 5.4453703496987446e-05 0.39999999967183264 -1.1999999989771559 0.0000000000000000 
9000.0000000000000 7000.0000000000000 -4666.6666666669998 -46277524.689223945 -23326705.035325065 -114298407.24541654 0.00013969845535533352 -0.00033506636684545236 0.00022750801777079592 0.39999999968465405 -0.89999999922724361 -0.85463608632715282 
9000.0000000000000 6000.0000000000000 -4666.6666666669998 -46277524.691132560 -23326705.036062494 -114298407.25409798 0.00021502790201915789 -0.00017549763461758430 0.00019939644271247997 0.39999999967825706 -1.1999999989948720 -0.85463608640052313 
9000.0000000000000 7000.0000000000000 -4500.0000000000000 -45127556.723563753 -22176737.069288086 -110221248.09359938 0.00012989490990959827 -0.00046431157992010436 0.00032535955152085963 0.39999999969161776 -0.89999999924329721 -1.2596359612622698 
9000.0000000000000 6000.0000000000000 -4500.0000000000000 -45127556.725272492 -22176737.069844112 -110221248.10149412 0.00019758370802277798 -0.00021333742212888908 0.00028099021787036401 0.39999999968573935 -1.1999999990155936 -1.2596359613676384 
9000.0000000000000 7000.0000000000000 -4333.3333333330002 -43977485.835237369 -21026666.180461463 -106143724.03386395 0.00011826455392644436 -0.00056971576278763052 0.00041257570139928673 0.39999999970084055 -0.89999999926460295 -1.6497552818197010 
9000.0000000000000 6000.0000000000000 -4333.3333333330002 -43977485.836761378 -21026666.180862349 -106143724.04100685 0.00017709951972159541 -0.00022241698352019128 0.00035202471107475874 0.39999999969557859 -1.1999999990429620 -1.6497552819540995 
9000.0000000000000 7000.0000000000000 -4166.6666666669998 -42827312.015003547 -19876492.359619305 -102065835.03347850 0.00010569102328507629 -0.00065461304194376786 0.00048989981692483932 0.39999999971204836 -0.89999999929054209 -2.0249927161795083 
9000.0000000000000 6000.0000000000000 -4166.6666666669998 -42827312.016356729 -19876492.359890852 -102065835.03990440 0.00015525566823202115 -0.00020865460395144019 0.00041422885456100886 0.39999999970745015 -1.1999999990761456 -2.0249927163400865 
9000.0000000000000 7000.0000000000000 -4000.0000000000000 -41677035.253616132 -18726215.597529497 -97987581.059692934 9.2813432115769416e-05 -0.00072222653049646497 0.00055807653725865598 0.39999999972498534 -0.89999999932054187 -2.3853469324089840 
9000.0000000000000 6000.0000000000000 -4000.0000000000000 -41677035.254811481 -18726215.597696599 -97987581.065436736 0.00013325416273513922 -0.00017758507441571593 0.00046899069059268565 0.39999999972106043 -1.1999999991143977 -2.3853469325930132 
9000.0000000000000 7000.0000000000000 -3833.3333333330002 -40526655.541834556 -17575835.884964179 -93908962.079775602 8.0082724790988074e-05 -0.00077563086778664606 0.00061787038774318019 0.39999999973941053 -0.89999999935407426 -2.7308165984491550 
9000.0000000000000 6000.0000000000000 -3833.3333333330002 -40526655.542884365 -17575835.885050409 -93908962.084872350 0.00011191965055541548 -0.00013434910382738839 0.00051744481112401977 0.39999999973614159 -1.1999999991570471 -2.7308165986540276 
9000.0000000000000 7000.0000000000000 -3666.6666666669998 -39376172.870418623 -16425353.212694675 -89829978.060994789 6.7807007809572741e-05 -0.00081768149213711427 0.00067005489344591979 0.39999999975509798 -0.89999999939065567 -3.0614003821219233 
9000.0000000000000 6000.0000000000000 -3666.6666666669998 -39376172.871334612 -16425353.212721895 -89829978.065479666 9.1784677622587247e-05 -8.3663214638024871e-05 0.00056052440346163039 0.39999999975245032 -1.1999999992034969 -3.0614003823451545 
9000.0000000000000 7000.0000000000000 -3500.0000000000000 -38225587.230123483 -15274767.571486354 -85750628.970600396 5.6187454967942812e-05 -0.00085099479112143626 0.00071537371110865270 0.39999999977183687 -0.89999999942984321 -3.3770969511356208 
9000.0000000000000 6000.0000000000000 -3500.0000000000000 -38225587.230916843 -15274767.571474403 -85750628.974508733 7.3162297246764937e-05 -2.9793939574517328e-05 0.00059897972703854756 0.39999999976976475 -1.1999999992532173 -3.3770969513748486 
9000.0000000000000 7000.0000000000000 -3333.3333333330002 -37074898.611709952 -14124078.952109102 -81670914.775860712 4.5346526748736889e-05 -0.00087790239649925439 0.00075451285410393855 0.39999999978943124 -0.89999999947123499 -3.6779049730731224 
9000.0000000000000 6000.0000000000000 -3333.3333333330002 -37074898.612391382 -14124078.952075539 -81670914.779228032 5.6206521887872297e-05 2.3496721728406375e-05 0.00063339489438661958 0.39999999978788292 -1.1999999993057437 -3.6779049733261071 
9000.0000000000000 7000.0000000000000 -3166.6666666669998 -35924107.005939342 -12973287.345332192 -77590835.444043949 3.5349453367509804e-05 -0.00090039797388425714 0.00078806917170085294 0.39999999980769946 -0.89999999951446774 -3.9638231153981769 
9000.0000000000000 6000.0000000000000 -3166.6666666669998 -35924107.006518982 -12973287.345292054 -77590835.446905822 4.0959786507988178e-05 7.2941186933066565e-05 0.00066419794180282339 0.39999999980662088 -1.1999999993606680 -3.9638231156628119 
9000.0000000000000 7000.0000000000000 -3000.0000000000000 -34773212.403568275 -11822392.741919164 -73510390.942399949 2.6217632820519256e-05 -0.00092011742855620607 0.00081653055487701401 0.39999999982647394 -0.89999999955921184 -4.2348500454601643 
9000.0000000000000 6000.0000000000000 -3000.0000000000000 -34773212.404055737 -11822392.741884818 -73510390.944791943 2.7386244950500504e-05 0.00011580127623671047 0.00069166111400787778 0.39999999982581119 -1.1999999994176385 -4.2348500457344747 
9000.0000000000000 7000.0000000000000 -2833.3333333330002 -33622214.795359008 -10671395.132638246 -69429581.238196835 1.7939786378070031e-05 -0.00093833816951427668 0.00084024602286404877 0.39999999984560125 -0.89999999960517219 -4.4909844304838016 
9000.0000000000000 6000.0000000000000 -2833.3333333330002 -33622214.795763358 -10671395.132619292 -69429581.240154594 1.5399013852278614e-05 0.00014987048269752672 0.00071588985271793006 0.39999999984530193 -1.1999999994763506 -4.4909844307659474 
9000.0000000000000 7000.0000000000000 -2666.6666666669998 -32471114.172074240 -9520294.5082572717 -65348406.298702836 1.0480467099898150e-05 -0.00095592188615286797 0.00085942153311166058 0.39999999986493956 -0.89999999965208244 -4.7322249375746859 
9000.0000000000000 6000.0000000000000 -2666.6666666669998 -32471114.172404014 -9520294.5082604457 -65348406.300262034 4.8784133593345361e-06 0.00017346677939748646 0.00073684308030648482 0.39999999986495438 -1.1999999995365449 -4.7322249378629673 
9000.0000000000000 7000.0000000000000 -2500.0000000000000 -31319910.524471842 -8369090.8595384518 -61266866.091167539 3.7840606772679994e-06 -0.00097330609876080884 0.00087411527053472219 0.39999999988435903 -0.89999999969970290 -4.9585702337232433 
9000.0000000000000 6000.0000000000000 -2500.0000000000000 -31319910.524734948 -8369090.8595675435 -61266866.092363723 -4.3174657900153749e-06 0.00018547134689955502 0.00075433313384692100 0.39999999988464285 -1.1999999995980002 -4.9585702340161069 
9000.0000000000000 7000.0000000000000 -2333.3333333330002 -30168603.843315244 -7217784.1772489157 -57184960.582859077 -2.2239752606252995e-06 -0.00099051591283922432 0.00088420538388945679 0.39999999990374002 -0.89999999974781708 -5.1700189857960330 
9000.0000000000000 6000.0000000000000 -2333.3333333330002 -30168603.843519010 -7217784.1773047103 -57184960.583727658 -1.2344953246237110e-05 0.00018529298397812092 0.00076800851896625325 0.39999999990425217 -1.1999999996605286 -5.1700189860920709 
9000.0000000000000 7000.0000000000000 -2166.6666666669998 -29017194.119368158 -6066374.4521554951 -53102689.741045460 -7.6346360052977454e-06 -0.0010071262775351321 0.00088939366550673331 0.39999999992297219 -0.89999999979622725 -5.3665698605404994 
9000.0000000000000 6000.0000000000000 -2166.6666666669998 -29017194.119519353 -6066374.4522357658 -53102689.741621919 -1.9373445184442017e-05 0.00017286909350980350 0.00077736877805051449 0.39999999992367741 -1.1999999997239710 -5.3665698608384584 
9000.0000000000000 7000.0000000000000 -2000.0000000000000 -27865681.343389288 -4914861.6750195511 -49020053.532976165 -1.2557110699398778e-05 -0.0010222534389401467 0.00088921210538306806 0.39999999994195173 -0.89999999984475110 -5.5482215245881044 
9000.0000000000000 6000.0000000000000 -2000.0000000000000 -27865681.343494091 -4914861.6751189688 -49020053.533295870 -2.5589545740067424e-05 0.00014867717990427770 0.00078177102697852500 0.39999999994282082 -1.1999999997881909 -5.5482215248868831 
9000.0000000000000 7000.0000000000000 -1833.3333333329999 -26714065.506142773 -3763245.8366074795 -44937051.925919183 -1.7123178923710038e-05 -0.0010345491636034943 0.00088301137639256746 0.39999999996058122 -0.89999999989321799 -5.7149726444472568 
9000.0000000000000 6000.0000000000000 -1833.3333333329999 -26714065.506206725 -3763245.8367175111 -44937051.926017381 -3.1204766677225037e-05 0.00011374609659095109 0.00078043610305365222 0.39999999996159186 -1.1999999998530708 -5.7149726447459139 
9000.0000000000000 7000.0000000000000 -1666.6666666670001 -25562346.598392852 -2611526.9276855374 -40853684.887142517 -2.1488769376626175e-05 -0.0010421937956390038 0.00086994044995304968 0.39999999997876645 -0.89999999994146329 -5.8668218865072390 
9000.0000000000000 6000.0000000000000 -1666.6666666670001 -25562346.598420888 -2611526.9277943205 -40853684.887054242 -3.6459951747271750e-05 6.9649533585320158e-05 0.00077243209299014475 0.39999999997990487 -1.1999999999185043 -5.8668218868049982 
8000.0000000000000 4000.0000000000000 -4833.3333333330002 -47427389.749168560 -24476570.086924415 -118375201.55563667 0.00029749209465581650 0.00019856308466087097 0.00010006489853444601 0.79999999933010535 -1.7999999987458979 -0.43475698885387631 
8000.0000000000000 3000.0000000000000 -4833.3333333330002 -47427389.752854414 -24476570.085256390 -118375201.57392241 0.00014795911640185904 0.00034202902280068722 6.9697909928092571e-05 0.79999999932092247 -2.0999999988238582 -0.43475698893413839 
7000.0000000000000 3000.0000000000000 -4833.3333333330002 -47427389.751840070 -24476570.083137777 -118375201.56462124 0.00012238292010932714 0.00033259767196344714 0.00022769292089744572 1.1999999990403671 -2.0999999988292903 -0.43475698889007802 
8000.0000000000000 4000.0000000000000 -5000.0000000000000 -48002296.548449636 -25051476.886242513 -120413507.48052593 0.00030403609242680816 9.2008589393615352e-05 5.3771335143257985e-05 0.79999999932634103 -1.7999999987404856 0.0000000000000000 
8000.0000000000000 3000.0000000000000 -5000.0000000000000 -48002296.552342832 -25051476.884758539 -120413507.49955936 0.00015119179160920631 0.00016311223901956229 3.8907385755156204e-05 0.79999999931687749 -2.0999999988186855 0.0000000000000000 
7000.0000000000000 3000.0000000000000 -5000.0000000000000 -48002296.551199481 -25051476.882492106 -120413507.48969933 0.00012267072732472884 0.00015861768780042670 0.00011872262344286045 1.1999999990360637 -2.0999999988242983 0.0000000000000000 
8000.0000000000000 4000.0000000000000 -4666.6666666669998 -46277524.696222536 -23326705.033871256 -114298407.27651636 0.00028026440436362268 0.00043778413785623373 0.00018034155221299724 0.79999999934073796 -1.7999999987613999 -0.85463608659530699 
8000.0000000000000 3000.0000000000000 -4666.6666666669998 -46277524.699516155 -23326705.031878226 -114298407.29337242 0.00014007301922606844 0.00072739786798334965 0.00011870384986016062 0.79999999933223986 -2.0999999988385336 -0.85463608675016201 
7000.0000000000000 3000.0000000000000 -4666.6666666669998 -46277524.698727414 -23326705.030035000 -114298407.28514120 0.00012152808682177581 0.00070781416075553787 0.00042668093491067142 1.1999999990528565 -2.0999999988435589 -0.85463608666783764 
8000.0000000000000 4000.0000000000000 -4500.0000000000000 -45127556.729888260 -22176737.067368396 -110221248.12233643 0.00025720180090647019 0.00072338464670793795 0.00024038367881584587 0.79999999935705968 -1.7999999987856055 -1.2596359616509327 
8000.0000000000000 3000.0000000000000 -4500.0000000000000 -45127556.732833937 -22176737.065132380 -110221248.13789089 0.00013097211364592942 0.0011601795663752365 0.00014843480524501191 0.79999999934939670 -2.0999999988611524 -1.2596359618751303 
7000.0000000000000 3000.0000000000000 -4500.0000000000000 -45127556.732216321 -22176737.063528478 -110221248.13063891 0.00012010604694685652 0.0011306532892120516 0.00058923779456110891 1.1999999990726984 -2.0999999988657501 -1.2596359617597488 
8000.0000000000000 4000.0000000000000 -4333.3333333330002 -43977485.840929076 -21026666.178187899 -106143724.06036319 0.00023226715569966031 0.0010439811184724266 0.00028749204798065773 0.79999999937813204 -1.7999999988173008 -1.6497552823203032 
8000.0000000000000 3000.0000000000000 -4333.3333333330002 -43977485.843569413 -21026666.175782554 -106143724.07473697 0.00012302910557613353 0.0016261000194211668 0.00016826430129972733 0.79999999937130284 -2.0999999988904143 -1.6497552826089967 
7000.0000000000000 3000.0000000000000 -4333.3333333330002 -43977485.843084849 -21026666.174389429 -106143724.06838262 0.00011809707572552709 0.0015878068471105048 0.00071871941314276093 1.1999999990990882 -2.0999999988946532 -1.6497552824652078 
8000.0000000000000 4000.0000000000000 -4166.6666666669998 -42827312.020106837 -19876492.357098978 -102065835.05786277 0.00020784791094829888 0.0013888860264158324 0.00032656033701705049 0.79999999940318456 -1.7999999988554314 -2.0249927167838249 
8000.0000000000000 3000.0000000000000 -4166.6666666669998 -42827312.022482000 -19876492.354589686 -102065835.07116871 0.00011720790462487016 0.0021127863148447511 0.00018374879431502528 0.79999999939710598 -2.0999999989252434 -2.0249927171325530 
7000.0000000000000 3000.0000000000000 -4166.6666666669998 -42827312.022102140 -19876492.353384122 -102065835.06563820 0.00011548271894816624 0.0020670288799160938 0.00081912488140804026 1.1999999991312562 -2.0999999989292246 -2.0249927169644990 
8000.0000000000000 4000.0000000000000 -4000.0000000000000 -41677035.258176990 -18726215.594863243 -97987581.082082510 0.00018523749811290600 0.0017482584237277737 0.00036092312718025296 0.79999999943156752 -1.7999999988990949 -2.3853469331091248 
8000.0000000000000 3000.0000000000000 -4000.0000000000000 -41677035.260324188 -18726215.592307713 -97987581.094424844 0.00011365470555453353 0.0026096234392224450 0.00019810812035335381 0.79999999942612121 -2.0999999989647669 -2.3853469335137878 
7000.0000000000000 3000.0000000000000 -4000.0000000000000 -41677035.260026768 -18726215.591270305 -97987581.089651123 0.00011225984884147276 0.0025574284289225807 0.00089479752395197904 1.1999999991684758 -2.0999999989685896 -2.3853469333251631 
8000.0000000000000 4000.0000000000000 -3833.3333333330002 -40526655.545899272 -17575835.882245496 -93908962.100287348 0.00016499551610583358 0.0021131447486392994 0.00039286043849899268 0.79999999946272549 -1.7999999989475337 -2.7308165992375599 
8000.0000000000000 3000.0000000000000 -3833.3333333330002 -40526655.547852531 -17575835.879694600 -93908962.111761406 0.00011207535360978730 0.0031074821617063501 0.00021313241238408152 0.79999999945778810 -2.0999999990082898 -2.7308165996943958 
7000.0000000000000 3000.0000000000000 -3833.3333333330002 -40526655.547619276 -17575835.878808733 -93908962.107683107 0.00010844461804603508 0.0030494871488433062 0.00095009613934240620 1.1999999992100687 -2.0999999990120348 -2.7308165994884992 
8000.0000000000000 4000.0000000000000 -3666.6666666669998 -39376172.874032974 -16425353.210009001 -89829978.079741538 0.00014720956861536213 0.0024754435198119304 0.00042392797542442303 0.79999999949617551 -1.7999999990001194 -3.0614003829913545 
8000.0000000000000 3000.0000000000000 -3666.6666666669998 -39376172.875822932 -16425353.207507744 -89829978.090433538 0.00011196024912229310 0.0035984282760792843 0.00022975346219233225 0.79999999949163558 -2.0999999990552749 -3.0614003834969101 
7000.0000000000000 3000.0000000000000 -3666.6666666669998 -39376172.875638649 -16425353.206758881 -89829978.086994275 0.00010406066711255324 0.0035348934941688728 0.00098919577727646347 1.1999999992554100 -2.0999999990589999 -3.0614003832766983 
8000.0000000000000 4000.0000000000000 -3500.0000000000000 -38225587.233331978 -15274767.568910679 -85750628.987690538 0.00013167452786750283 0.0028278643593831142 0.00045516135029229695 0.79999999953149625 -1.7999999990563464 -3.3770969520791598 
8000.0000000000000 3000.0000000000000 -3500.0000000000000 -38225587.234986022 -15274767.566499183 -85750628.997677580 0.00011272412009707024 0.0040755261029968067 0.00024839195702283147 0.79999999952726308 -2.0999999991053233 -3.3770969526302608 
7000.0000000000000 3000.0000000000000 -3500.0000000000000 -38225587.234837964 -15274767.565874387 -85750628.994825050 9.9136225844007064e-05 0.0040063829145987259 0.0010159868947953552 1.1999999993039268 -2.0999999991090612 -3.3770969523983898 
8000.0000000000000 4000.0000000000000 -3333.3333333330002 -37074898.614555411 -14124078.949711761 -81670914.791397512 0.00011802056330883056 0.0031638968263195005 0.00048719386603144027 0.79999999956831580 -1.7999999991158195 -3.6779049740841545 
8000.0000000000000 3000.0000000000000 -3333.3333333330002 -37074898.616097808 -14124078.947426189 -81670914.800747797 0.00011378498199897844 0.0045326106728388639 0.00026915581720453091 0.79999999956432388 -2.0999999991581579 -3.6779049746778787 
7000.0000000000000 3000.0000000000000 -3333.3333333330002 -37074898.615975365 -14124078.946913736 -81670914.798432946 9.3700312061732995e-05 0.0044575619429609538 0.0010339148539551823 1.1999999993551003 -2.0999999991619194 -3.6779049744367400 
8000.0000000000000 4000.0000000000000 -3166.6666666669998 -35924107.008462638 -12973287.343172833 -77590835.458125263 0.00010580143958406526 0.0034776635325724178 0.00052035269953206939 0.79999999960630475 -1.7999999991782423 -3.9638231164703965 
8000.0000000000000 3000.0000000000000 -3166.6666666669998 -35924107.009914719 -12973287.341046294 -77590835.466898263 0.00011460263435873649 0.0049640430026169687 0.00029196839667004369 0.79999999960251433 -2.0999999992136087 -3.9638231171040337 
7000.0000000000000 3000.0000000000000 -3166.6666666669998 -35924107.009809405 -12973287.340635493 -77590835.465074956 8.7777316148876104e-05 0.0048826771843331531 0.0010459652584369045 1.1999999994084620 -2.0999999992173852 -3.9638231168557887 
8000.0000000000000 4000.0000000000000 -3000.0000000000000 -34773212.405808181 -11822392.740048829 -73510390.955118090 9.4551411808568064e-05 0.0037638381822258844 0.00055468056694343013 0.79999999964516999 -1.7999999992434081 -4.2348500465875567 
8000.0000000000000 3000.0000000000000 -3000.0000000000000 -34773212.407188609 -11822392.738112180 -73510390.963364810 0.00011469858514013858 0.0053645157227414893 0.00031661012295647301 0.79999999964156587 -2.0999999992716023 -4.2348500472585888 
7000.0000000000000 3000.0000000000000 -3000.0000000000000 -34773212.407093965 -11822392.737793166 -73510390.961989120 8.1381023219508373e-05 0.0052764130070830076 0.0010545924209196568 1.1999999994635935 -2.0999999992753682 -4.2348500470051880 
8000.0000000000000 4000.0000000000000 -2833.3333333330002 -33622214.797352225 -10671395.131099569 -69429581.249638453 8.3824466799635163e-05 0.0040176153768549079 0.00058997786009147698 0.79999999968465008 -1.7999999993111930 -4.4909844316606398 
8000.0000000000000 3000.0000000000000 -2833.3333333330002 -33622214.798677176 -10671395.129382050 -69429581.257401690 0.00011366291726124143 0.0057289975685920220 0.00034275196889261531 0.79999999968123869 -2.0999999993321512 -4.4909844323666954 
7000.0000000000000 3000.0000000000000 -2833.3333333330002 -33622214.798588827 -10671395.129145706 -69429581.256431639 7.4514929020260432e-05 0.0056337640574668285 0.0010617082891663961 1.1999999995201203 -2.0999999993358665 -4.4909844321099044 
8000.0000000000000 4000.0000000000000 -2666.6666666669998 -32471114.173855424 -9520294.5070846118 -65348406.308949098 7.3216187982310760e-05 0.0042345705773734685 0.00062580778421970050 0.79999999972450919 -1.7999999993815423 -4.7322249387955218 
8000.0000000000000 3000.0000000000000 -2666.6666666669998 -32471114.175138883 -9520294.5056144949 -65348406.316263705 0.00011115338775399629 0.0060524904903483260 0.00036995249145509081 0.79999999972131530 -2.0999999993953433 -4.7322249395343610 
7000.0000000000000 3000.0000000000000 -2666.6666666669998 -32471114.175054569 -9520294.5054523461 -65348406.315658733 6.7178363561956825e-05 0.0059498529670306806 0.0010686804464707157 1.1999999995777111 -2.0999999993989582 -4.7322249392757669 
8000.0000000000000 4000.0000000000000 -2500.0000000000000 -31319910.526073735 -8369090.8587580808 -61266866.100294381 6.2373263681364348e-05 0.0044105895364699617 0.00066149323368727307 0.79999999976453495 -1.7999999994544671 -4.9585702349828971 
8000.0000000000000 3000.0000000000000 -2500.0000000000000 -31319910.527327720 -8369090.8575631976 -61266866.107187688 0.00010688550116296732 0.0063298828802320836 0.00039763604497007756 0.79999999976159941 -2.0999999994613394 -4.9585702357523651 
7000.0000000000000 3000.0000000000000 -2500.0000000000000 -31319910.527247332 -8369090.8574674064 -61266866.106908530 5.9359239267866640e-05 0.0062197683888022340 0.0010763133380741446 1.1999999996360715 -2.0999999994647935 -4.9585702354933945 
8000.0000000000000 4000.0000000000000 -2333.3333333330002 -30168603.844768785 -7217784.1768790698 -57184960.590937488 5.1000056833801967e-05 0.0045418381942231066 0.00069613221907731772 0.79999999980453418 -1.7999999995300369 -5.1700189870895903 
8000.0000000000000 3000.0000000000000 -2333.3333333330002 -30168603.846003562 -7217784.1759872707 -57184960.597429678 0.00010062703160274668 0.0065559247030641385 0.00042508112052450065 0.79999999980191006 -2.0999999995303646 -5.1700189878875946 
7000.0000000000000 3000.0000000000000 -2333.3333333330002 -30168603.845929209 -7217784.1759505905 -57184960.597437948 5.1035283337212886e-05 0.0064384703240016796 0.0010848688360152446 1.1999999996949404 -2.0999999995335901 -5.1700189876295193 
8000.0000000000000 4000.0000000000000 -2166.6666666669998 -29017194.120702665 -6066374.4522064691 -53102689.748142235 3.8857197317308127e-05 0.0046247070933005049 0.00072856160099526817 0.79999999984433079 -1.7999999996083713 -5.3665698618633053 
8000.0000000000000 3000.0000000000000 -2166.6666666669998 -29017194.121926982 -6066374.4516460150 -53102689.754246615 9.2194952263520552e-05 0.0067250843615821948 0.00045138246901321461 0.79999999984207926 -2.0999999996027046 -5.3665698626877880 
7000.0000000000000 3000.0000000000000 -2166.6666666669998 -29017194.121862974 -6066374.4516617069 -53102689.754504435 4.2178686012042896e-05 0.0066006808270199597 0.0010940502843614728 1.1999999997540842 -2.0999999996056284 -5.3665698624317253 
8000.0000000000000 4000.0000000000000 -2000.0000000000000 -27865681.344632633 -4914861.6754936483 -49020053.539154485 2.5756746225264265e-05 0.0046557563357028531 0.00075737762367494778 0.79999999988376203 -1.7999999996896359 -5.5482215259357606 
8000.0000000000000 3000.0000000000000 -2000.0000000000000 -27865681.345853906 -4914861.6752935350 -49020053.544877999 8.1447339997819308e-05 0.0068314367075765631 0.00047544343271367347 0.79999999988195125 -2.0999999996787047 -5.5482215267846655 
7000.0000000000000 3000.0000000000000 -2000.0000000000000 -27865681.345806852 -4914861.6753554149 -49020053.545347966 3.2754659926928647e-05 0.0067007490216928608 0.0011030207590177973 1.1999999998132944 -2.0999999996812488 -5.5482215265315853 
8000.0000000000000 4000.0000000000000 -1833.3333333329999 -26714065.507321402 -3763245.8374987827 -44937051.931239277 1.1546864223258787e-05 0.0046317118058301493 0.00078093244006061764 0.79999999992267634 -1.7999999997740355 -5.7149726458156209 
8000.0000000000000 3000.0000000000000 -1833.3333333329999 -26714065.508545831 -3763245.8376889448 -44937051.936582655 6.8272264955977703e-05 0.0068686033330102696 0.00049595417931634362 0.79999999992137849 -2.0999999997587655 -5.7149726466868733 
7000.0000000000000 3000.0000000000000 -1833.3333333329999 -26714065.508524660 -3763245.8377913521 -44937051.937227562 2.2720863848846933e-05 0.0067326114434961464 0.0011103968885519200 1.1999999998723785 -2.0999999997608509 -5.7149726464375838 
8000.0000000000000 4000.0000000000000 -1666.6666666670001 -25562346.599531870 -2611526.9289795482 -40853684.891662374 -3.9109246897983643e-06 0.0045494647955654690 0.00079731556733974554 0.79999999996093230 -1.7999999998618110 -5.8668218878924332 
8000.0000000000000 3000.0000000000000 -1666.6666666670001 -25562346.600764658 -2611526.9295911179 -40853684.896620832 5.2579549372131668e-05 0.0068296774756882589 0.00051138393977031823 0.79999999996022175 -2.0999999998433450 -5.8668218887839094 
7000.0000000000000 3000.0000000000000 -1666.6666666670001 -25562346.600780584 -2611526.9297288419 -40853684.897403300 1.2032082187068306e-05 0.0066896762598617028 0.0011142468754697674 1.1999999999311566 -2.0999999998448868 -5.8668218885390653 
2000.0000000000000 5000.0000000000000 -4833.3333333330002 -47427389.748096243 -24476570.067497101 -118375201.44522056 0.00017479079950888661 -4.2536224173393330e-06 -0.00044108079008694742 3.1999999988983778 -1.4999999988575163 -0.43475698839237797 
2000.0000000000000 4000.0000000000000 -4833.3333333330002 -47427389.751588985 -24476570.066722691 -118375201.46044973 0.00016261900201432588 0.00017322763318347058 -0.00044460711842561108 3.1999999988929479 -1.7999999987824329 -0.43475698845397043 
2000.0000000000000 5000.0000000000000 -5000.0000000000000 -48002296.546209857 -25051476.865598660 -120413507.36565498 0.00017547903807865623 -7.7324978180009093e-06 -0.00021087364455085842 3.1999999988934325 -1.4999999988528221 0.0000000000000000 
2000.0000000000000 4000.0000000000000 -5000.0000000000000 -48002296.549867734 -25051476.864965372 -120413507.38144395 0.00016307827438695596 7.9828481256121334e-05 -0.00021281867346328642 3.1999999988879724 -1.7999999987773632 0.0000000000000000 
2000.0000000000000 5000.0000000000000 -4666.6666666669998 -46277524.697305366 -23326705.016752429 -114298407.17471327 0.00017270855125900344 2.3851005408658207e-05 -0.00093411764300005580 3.1999999989122396 -1.4999999988711310 -0.85463608570385197 
2000.0000000000000 4000.0000000000000 -4666.6666666669998 -46277524.700472981 -23326705.015721001 -114298407.18885119 0.00016116703827053229 0.00038493125372918033 -0.00094024179274851470 3.1999999989068808 -1.7999999987970345 -0.85463608582347050 
2000.0000000000000 5000.0000000000000 -4500.0000000000000 -45127556.732766263 -22176737.052312125 -110221248.02856347 0.00016921160003638958 9.1418943376038187e-05 -0.0014814965108260183 3.1999999989332339 -1.4999999988927402 -1.2596359603595664 
2000.0000000000000 4000.0000000000000 -4500.0000000000000 -45127556.735623419 -22176737.051074196 -110221248.04166698 0.00015859597737398354 0.00064179227488230363 -0.0014894782012242207 3.1999999989279768 -1.7999999988199951 -1.2596359605337295 
2000.0000000000000 5000.0000000000000 -4333.3333333330002 -43977485.845249198 -21026666.164957646 -106143723.97406164 0.00016432786321383944 0.00019236646586303247 -0.0020636699881209893 3.1999999989599281 -1.4999999989214512 -1.6497552806575908 
2000.0000000000000 4000.0000000000000 -4333.3333333330002 -43977485.847817197 -21026666.163563035 -106143723.98618749 0.00015485924639836664 0.00093427559468390112 -0.0020734199587328105 3.1999999989548011 -1.7999999988502391 -1.6497552808829004 
2000.0000000000000 5000.0000000000000 -4166.6666666669998 -42827312.025534183 -19876492.345471255 -102065834.97850084 0.00015815160444975350 0.00032000864478487999 -0.0026652923364543423 3.1999999989912058 -1.4999999989564299 -2.0249927147768965 
2000.0000000000000 4000.0000000000000 -4166.6666666669998 -42827312.027837694 -19876492.343967833 -102065834.98970503 0.00015001629039363562 0.0012527158434092053 -0.0026771120181869937 3.1999999989862391 -1.7999999988868007 -2.0249927150500393 
2000.0000000000000 5000.0000000000000 -4000.0000000000000 -41677035.264399856 -18726215.584628642 -97987581.009153515 0.00015082686447396966 0.00046749238303804834 -0.0032744155086802829 3.1999999990262213 -1.4999999989969131 -2.3853469307836934 
2000.0000000000000 4000.0000000000000 -4000.0000000000000 -41677035.266464859 -18726215.583061658 -97987581.019491479 0.00014419327214012679 0.0015877454302789355 -0.0032887896925096532 3.1999999990214469 -1.7999999989288307 -2.3853469311014446 
2000.0000000000000 5000.0000000000000 -3833.3333333330002 -40526655.552631468 -17575835.873209301 -93908962.033309907 0.00014252336577757070 0.00062807882535204247 -0.0038817982955009975 3.1999999990643619 -1.4999999990422130 -2.7308165966179243 
2000.0000000000000 4000.0000000000000 -3833.3333333330002 -40526655.554483883 -17575835.871620934 -93908962.042836308 0.00013754277559752714 0.0019305494049116447 -0.0038992745326843427 3.1999999990598118 -1.7999999989755953 -2.7308165969771605 
2000.0000000000000 5000.0000000000000 -3666.6666666669998 -39376172.881014362 -16425353.201991593 -89829978.018261343 0.00013342171210070983 0.00079532042636129259 -0.0044802221953538215 3.1999999991052053 -1.4999999990917221 -3.0614003801004190 
2000.0000000000000 4000.0000000000000 -3666.6666666669998 -39376172.882679068 -16425353.200420672 -89829978.027029410 0.00013021983556675619 0.0022730397274097211 -0.0045012796670094793 3.1999999991009060 -1.7999999990264770 -3.0614003804981245 
2000.0000000000000 5000.0000000000000 -3500.0000000000000 -38225587.240327746 -15274767.561747383 -85750628.931281477 0.00012369737117843587 0.00096323039885196353 -0.0050637939556795524 3.1999999991484858 -1.4999999991449118 -3.3770969489384646 
2000.0000000000000 4000.0000000000000 -3500.0000000000000 -38225587.241828024 -15274767.560229305 -85750628.939342350 0.00012236626063754898 0.0026078636310740218 -0.0050887706869680678 3.1999999991444628 -1.7999999990809701 -3.3770969493717407 
2000.0000000000000 5000.0000000000000 -3333.3333333330002 -37074898.621354446 -14124078.943252346 -81670914.739662647 0.00011350726801429044 0.0011263461579182820 -0.0056274706651547662 3.1999999991940737 -1.4999999992013309 -3.6779049707139260 
2000.0000000000000 4000.0000000000000 -3333.3333333330002 -37074898.622711651 -14124078.941819143 -81670914.747064888 0.00011409835121072075 0.0029284047124380741 -0.0056565669967253967 3.1999999991903456 -1.7999999991386719 -3.6779049711799989 
2000.0000000000000 5000.0000000000000 -3166.6666666669998 -35924107.014875591 -12973287.337280858 -77590835.410697281 0.00010298097955624767 0.0012797513646478449 -0.0061665736574520328 3.1999999992419470 -1.4999999992606008 -3.9638231128896098 
2000.0000000000000 4000.0000000000000 -3166.6666666669998 -35924107.016109020 -12973287.335961360 -77590835.417486504 0.00010550052939382991 0.0032287458076191503 -0.0061998262824943372 3.1999999992385280 -1.7999999991992774 -3.9638231133858222 
2000.0000000000000 5000.0000000000000 -3000.0000000000000 -34773212.411665268 -11822392.734600803 -73510390.911659151 9.2219684584146430e-05 0.0014191368014075333 -0.0066765532408959291 3.1999999992921797 -1.4999999993224107 -4.2348500428140055 
2000.0000000000000 4000.0000000000000 -3000.0000000000000 -34773212.412792206 -11822392.733420888 -73510390.917877838 9.6624752326719031e-05 0.0035035740899137090 -0.0067138541557662419 3.1999999992890826 -1.7999999992625693 -4.2348500433378282 
2000.0000000000000 5000.0000000000000 -2833.3333333330002 -33622214.802501120 -10671395.125984125 -69429581.209840208 8.1288802507376048e-05 0.0015407541391189562 -0.0071527327521836593 3.1999999993449277 -1.4999999993865116 -4.4909844277110116 
2000.0000000000000 4000.0000000000000 -2833.3333333330002 -33622214.803536877 -10671395.124966916 -69429581.215527385 8.7484773880441396e-05 0.0037480872574270395 -0.0071938505086005869 3.1999999993421615 -1.7999999993284101 -4.4909844282600337 
2000.0000000000000 5000.0000000000000 -2666.6666666669998 -32471114.178159274 -9520294.5022017267 -65348406.272532210 7.0220848629626940e-05 0.0016414049397159235 -0.0075900060406508133 3.1999999994004247 -1.4999999994527102 -4.7322249346854841 
2000.0000000000000 4000.0000000000000 -2666.6666666669998 -32471114.179117292 -9520294.5013678074 -65348406.277723379 7.8061896844120341e-05 0.0039579312830945361 -0.0076346067826610648 3.1999999993979986 -1.7999999993967353 -4.7322249352574097 
2000.0000000000000 5000.0000000000000 -2500.0000000000000 -31319910.529409178 -8369090.8540182542 -61266866.067007758 5.9018037733769380e-05 0.0017184456272558405 -0.0079827252155771737 3.1999999994589725 -1.4999999995208650 -4.9585702307271857 
2000.0000000000000 4000.0000000000000 -2500.0000000000000 -31319910.530301265 -8369090.8533859244 -61266866.071735092 6.8308204841645420e-05 0.0041291015756567979 -0.0080303765884043206 3.1999999994568955 -1.7999999994675433 -4.9585702313198263 
2000.0000000000000 5000.0000000000000 -2333.3333333330002 -30168603.847024363 -7217784.1722027119 -57184960.560557790 4.7649640575339873e-05 0.0017697433172343775 -0.0083245167428366573 3.1999999995209447 -1.4999999995908768 -5.1700189827020901 
2000.0000000000000 4000.0000000000000 -2333.3333333330002 -30168603.847860735 -7217784.1717880769 -57184960.564849988 5.8147103877327188e-05 0.0042578785773840690 -0.0083747015842661476 3.1999999995192243 -1.7999999995408940 -5.1700189833133630 
2000.0000000000000 5000.0000000000000 -2166.6666666669998 -29017194.121777289 -6066374.4475232661 -53102689.720472842 3.6060237246607095e-05 0.0017937008248860896 -0.0086080873840947945 3.1999999995867801 -1.4999999996626849 -5.3665698573571499 
2000.0000000000000 4000.0000000000000 -2166.6666666669998 -29017194.122566808 -6066374.4473403776 -53102689.724355340 4.7479647311429648e-05 0.0043408030612629069 -0.0086602459094918902 3.1999999995854296 -1.7999999996168969 -5.3665698579850636 
2000.0000000000000 5000.0000000000000 -2000.0000000000000 -27865681.344434328 -4914861.6707420694 -49020053.514024556 2.4167280221125307e-05 0.0017892119112960787 -0.0088251120482579232 3.1999999996569914 -1.4999999997362603 -5.5482215213234118 
2000.0000000000000 4000.0000000000000 -2000.0000000000000 -27865681.345184617 -4914861.6708029481 -49020053.517519735 3.6182921637545267e-05 0.0043745497009144655 -0.0088786139262520061 3.1999999996560229 -1.7999999996957077 -5.5482215219660640 
2000.0000000000000 5000.0000000000000 -1833.3333333329999 -26714065.505766399 -3763245.8326257779 -44937051.908502854 1.1863298722265123e-05 0.0017556792099497386 -0.0089659648168550835 3.1999999997321602 -1.4999999998115980 -5.7149726411089574 
2000.0000000000000 4000.0000000000000 -1833.3333333329999 -26714065.506483957 -3763245.8329403708 -44937051.911630258 2.4110876158309781e-05 0.0043559687834957006 -0.0090200968734761369 3.1999999997315949 -1.7999999997775264 -5.7149726417645237 
2000.0000000000000 5000.0000000000000 -1666.6666666670001 -25562346.596543930 -2611526.9239403293 -40853684.871197358 -9.7983139758520129e-07 0.0016930643266487237 -0.0090195330827921305 3.1999999998129534 -1.4999999998887148 -5.8668218831028405 
2000.0000000000000 4000.0000000000000 -1666.6666666670001 -25562346.597234223 -2611526.9245163817 -40853684.873973951 1.1103970135239942e-05 0.0042820781142861204 -0.0090735309888344377 3.1999999998128135 -1.7999999998625853 -5.8668218837695614 
6000.0000000000000 3000.0000000000000 -4833.3333333330002 -47427389.750527814 -24476570.080549426 -118375201.55448508 8.7526358338126480e-05 0.00033900199087713481 0.00025947509413973236 1.5999999987904465 -2.0999999988315277 -0.43475698885988623 
6000.0000000000000 3000.0000000000000 -5000.0000000000000 -48002296.549783945 -25051476.879812170 -120413507.47926737 8.4466715646104714e-05 0.00016160782519052249 0.00013594987980424111 1.5999999987858875 -2.0999999988263767 0.0000000000000000 
6000.0000000000000 3000.0000000000000 -4666.6666666669998 -46277524.697634414 -23326705.027640380 -114298407.27562019 9.4613257363780376e-05 0.00072125976388780189 0.00048068793961427038 1.5999999988040137 -2.0999999988461373 -0.85463608660752055 
6000.0000000000000 3000.0000000000000 -4500.0000000000000 -45127556.731353320 -22176737.061342675 -110221248.12177369 0.00010178801175758637 0.0011507872519539468 0.00064984097634811829 1.5999999988262064 -2.0999999988686557 -1.2596359616698456 
6000.0000000000000 3000.0000000000000 -4333.3333333330002 -43977485.842439719 -21026666.172417302 -106143724.06020078 0.00010641358231071898 0.0016132839665840566 0.00076850907030927599 1.5999999988564024 -2.0999999988977796 -1.6497552823467050 
6000.0000000000000 3000.0000000000000 -4166.6666666669998 -42827312.021650285 -19876492.351623464 -102065835.05815518 0.00010750923331377846 0.0020964083218350041 0.00084189712960805615 1.5999999988938591 -2.0999999989324341 -2.0249927168187725 
6000.0000000000000 3000.0000000000000 -4000.0000000000000 -41677035.259737626 -18726215.589714114 -97987581.082871079 0.00010501250302979775 0.0025896355514780389 0.00087702816476863219 1.5999999989377969 -2.0999999989717479 -2.3853469331539046 
6000.0000000000000 3000.0000000000000 -3833.3333333330002 -40526655.547460467 -17575835.877446845 -93908962.101600334 9.9336222820061216e-05 0.0030839313131840354 0.00088155700346489920 1.5999999989874427 -2.0999999990150262 -2.7308165992936391 
6000.0000000000000 3000.0000000000000 -3666.6666666669998 -39376172.875578418 -16425353.205579145 -89829978.081594318 9.1102191239676624e-05 0.0035714630377465884 0.00086311598534029137 1.5999999990420604 -2.0999999990617333 -3.0614003830603291 
6000.0000000000000 3000.0000000000000 -3500.0000000000000 -38225587.234846815 -15274767.564863507 -85750628.990086049 8.0986989741049372e-05 0.0040453773260463203 0.00082889743030793099 1.5999999991009686 -2.0999999991114717 -3.3770969521627014 
6000.0000000000000 3000.0000000000000 -3333.3333333330002 -37074898.616027027 -14124078.946057908 -81670914.794326901 6.9635505469992909e-05 0.0044995547121839674 0.00078534865461791831 1.5999999991635483 -2.0999999991639666 -3.6779049741839538 
6000.0000000000000 3000.0000000000000 -3166.6666666669998 -35924107.009881333 -12973287.339920795 -77590835.461568728 5.7623047370018160e-05 0.0049284173522868941 0.00073810489209651282 1.5999999992292457 -2.0999999992190488 -3.9638231165881104 
6000.0000000000000 3000.0000000000000 -3000.0000000000000 -34773212.407167628 -11822392.737205889 -73510390.959045485 4.5439648301237282e-05 0.0053267291802766813 0.00069190721526496673 1.5999999992975753 -2.0999999992766454 -4.2348500467247590 
6000.0000000000000 3000.0000000000000 -2833.3333333330002 -33622214.798649892 -10671395.128672583 -69429581.254010171 3.3481393366993804e-05 0.0056894507528049585 0.00065056095435328445 1.5999999993681142 -2.0999999993367680 -4.4909844318187622 
6000.0000000000000 3000.0000000000000 -2666.6666666669998 -32471114.175092876 -9520294.5050807185 -65348406.313716732 2.2061545899911600e-05 0.0060115950453655869 0.00061697170314337589 1.5999999994404988 -2.0999999993995062 -4.7322249389758175 
6000.0000000000000 3000.0000000000000 -2500.0000000000000 -31319910.527256884 -8369090.8571853256 -61266866.105401598 1.1420336941039423e-05 0.0062880859977924621 0.00059315278952193449 1.5999999995144198 -2.0999999994650183 -4.9585702351863850 
6000.0000000000000 3000.0000000000000 -2333.3333333330002 -30168603.845908109 -7217784.1757469028 -57184960.596320674 1.7299675942647617e-06 0.0065136629522801193 0.00058026982802488413 1.5999999995896153 -2.0999999995335283 -5.1700189873170226 
6000.0000000000000 3000.0000000000000 -2166.6666666669998 -29017194.121813376 -6066374.4515261212 -53102689.753730960 -6.8968373294974531e-06 0.0066828062672280300 0.00057867126162373201 1.5999999996658671 -2.0999999996053202 -5.3665698621151279 
6000.0000000000000 3000.0000000000000 -2000.0000000000000 -27865681.345734961 -4914861.6752785873 -49020053.544872560 -1.4397373092024870e-05 0.0067895916553452357 0.00058790196979586790 1.5999999997429895 -2.0999999996807381 -5.5482215262120738 
6000.0000000000000 3000.0000000000000 -1833.3333333329999 -26714065.508440781 -3763245.8377649640 -44937051.937005118 -2.0752279436158319e-05 0.0068276683413089449 0.00060672116035985274 1.5999999998208230 -2.0999999997601795 -5.7149726461161530 
6000.0000000000000 3000.0000000000000 -1666.6666666670001 -25562346.600699194 -2611526.9297456909 -40853684.897389822 -2.5972335203296264e-05 0.0067901648050490209 0.00063311240195581739 1.5999999998992274 -2.0999999998440981 -5.8668218882165082 
3000.0000000000000 5000.0000000000000 -4833.3333333330002 -47427389.745703578 -24476570.071319610 -118375201.46500251 0.00038356521175783549 1.5466870217114592e-05 -0.00032952202590303661 2.7999999986123245 -1.4999999988455424 -0.43475698847598521 
3000.0000000000000 4000.0000000000000 -4833.3333333330002 -47427389.749126881 -24476570.070588998 -118375201.48084497 0.00033607671399354098 0.00019324539446077593 -0.00037397081228541867 2.7999999985984205 -1.7999999987716442 -0.43475698854310713 
3000.0000000000000 5000.0000000000000 -5000.0000000000000 -48002296.544029534 -25051476.869640358 -120413507.38622043 0.00039072723809303037 1.7740410790940248e-06 -0.00015535417052660452 2.7999999986069373 -1.4999999988405830 0.0000000000000000 
3000.0000000000000 4000.0000000000000 -5000.0000000000000 -48002296.547627822 -25051476.869065948 -120413507.40268725 0.00034267771118042374 8.9427371044592521e-05 -0.00017722091967732669 2.7999999985927002 -1.7999999987663231 0.0000000000000000 
3000.0000000000000 5000.0000000000000 -4666.6666666669998 -46277524.694528446 -23326705.020164505 -114298407.19301465 0.00036426580905590160 6.4806469965747527e-05 -0.00071277297802310117 2.7999999986278898 -1.4999999988598329 -0.85463608586692896 
3000.0000000000000 4000.0000000000000 -4666.6666666669998 -46277524.697614528 -23326705.019151594 -114298407.20764616 0.00031862069451464131 0.00042670965245188516 -0.00080267586607424464 2.7999999986148438 -1.7999999987868784 -0.85463608599649266 
3000.0000000000000 5000.0000000000000 -4500.0000000000000 -45127556.729689494 -22176737.055369638 -110221248.04555248 0.00033732588103967402 0.00015423891279368405 -0.0011597449742515348 2.7999999986524351 -1.4999999988823336 -1.2596359605980967 
3000.0000000000000 4000.0000000000000 -4500.0000000000000 -45127556.732464656 -22176737.054133438 -110221248.05904795 0.00029506646480343085 0.00070602978865164459 -0.0012939072118492746 2.7999999986405224 -1.7999999988106536 -1.2596359607856693 
3000.0000000000000 5000.0000000000000 -4333.3333333330002 -43977485.841958314 -21026666.167714391 -106143723.98989445 0.00030660934207037843 0.00027608989621213552 -0.0016572641024810747 2.7999999986847794 -1.4999999989120314 -1.6497552809677349 
3000.0000000000000 4000.0000000000000 -4333.3333333330002 -43977485.844449960 -21026666.166311152 -106143724.00232740 0.00026934103970425918 0.0010198652989742935 -0.0018317263556140986 2.7999999986741120 -1.7999999988417681 -1.6497552812091185 
3000.0000000000000 5000.0000000000000 -4166.6666666669998 -42827312.022108324 -19876492.347976524 -102065834.99331918 0.00027468161367971607 0.00042274640959180789 -0.0021912309351946164 2.7999999987238438 -1.4999999989480182 -2.0249927151549980 
3000.0000000000000 4000.0000000000000 -4166.6666666669998 -42827312.024344027 -19876492.346458975 -102065835.00476111 0.00024384136971420986 0.0013575968515168349 -0.0024006387458371703 2.7999999987144268 -1.7999999988791784 -2.0249927154462175 
3000.0000000000000 5000.0000000000000 -4000.0000000000000 -41677035.260909162 -18726215.586926866 -97987581.023085997 0.00024317048664124265 0.00058686370180353854 -0.0027480035589600299 2.7999999987686830 -1.4999999989894854 -2.3853469312263083 
3000.0000000000000 4000.0000000000000 -4000.0000000000000 -41677035.262915887 -18726215.585343741 -97987581.033605829 0.00021988013372895064 0.0017094528589700600 -0.0029865011262535331 2.7999999987604594 -1.7999999989219939 -2.3853469315636029 
3000.0000000000000 5000.0000000000000 -3833.3333333330002 -40526655.549136855 -17575835.875340041 -93908962.046472654 0.00021302764065710985 0.00076147878710467441 -0.0033150094377053709 2.7999999988185036 -1.4999999990357207 -2.7308165971218545 
3000.0000000000000 4000.0000000000000 -3833.3333333330002 -40526655.550940402 -17575835.873735912 -93908962.056136280 0.00019802848537052591 0.0020665549649821055 -0.0035768027994035633 2.7999999988113831 -1.7999999989694664 -2.7308165975016703 
3000.0000000000000 5000.0000000000000 -3666.6666666669998 -39376172.877568461 -16425353.203989631 -89829978.030757785 0.00018474177902341840 0.00094011977834675175 -0.0038810119746816711 2.7999999988726678 -1.4999999990861055 -3.0614003806627355 
3000.0000000000000 4000.0000000000000 -3666.6666666669998 -39376172.879193045 -16425353.202404868 -89829978.039627686 0.00017838157351619490 0.0024209530363392216 -0.0041607408910646435 2.7999999988665474 -1.7999999990209776 -3.0614003810817154 
3000.0000000000000 5000.0000000000000 -3500.0000000000000 -38225587.236976355 -15274767.563643008 -85750628.943202361 0.00015849157014889494 0.0011168907013565104 -0.0044361089728764125 2.7999999989306854 -1.4999999991401085 -3.3770969495565129 
3000.0000000000000 4000.0000000000000 -3500.0000000000000 -38225587.238444373 -15274767.562113952 -85750628.951337054 0.00016074446603035457 0.0027655269140867901 -0.0047289812717303571 2.7999999989254651 -1.7999999990760303 -3.3770969500114876 
3000.0000000000000 5000.0000000000000 -3333.3333333330002 -37074898.618138298 -14124078.945071789 -81670914.751086235 0.00013424805869823999 0.0012864748344674289 -0.0049716303696709305 2.7999999989922078 -1.4999999991972801 -3.6779049713853160 
3000.0000000000000 4000.0000000000000 -3333.3333333330002 -37074898.619470187 -14124078.943630986 -81670914.758540094 0.00014476215543615670 0.0030939167415979609 -0.0052734453993807306 2.7999999989877962 -1.7999999991342350 -3.6779049718732888 
3000.0000000000000 5000.0000000000000 -3166.6666666669998 -35924107.011832044 -12973287.339046767 -77590835.421689868 0.00011185718881844849 0.0014441485040481410 -0.0054798415357790713 2.7999999990570119 -1.4999999992572457 -3.9638231136121851 
3000.0000000000000 4000.0000000000000 -3166.6666666669998 -35924107.013046317 -12973287.337723285 -77590835.428513005 0.00013000822313069581 0.0034004289439165097 -0.0057869952822404468 2.7999999990533309 -1.7999999991953022 -3.9638231141303306 
3000.0000000000000 5000.0000000000000 -3000.0000000000000 -34773212.408829883 -11822392.736332683 -73510390.922275349 9.1101328585220103e-05 0.0015857974627870410 -0.0059537667174779357 2.7999999991249953 -1.4999999993197017 -4.2348500435858236 
3000.0000000000000 4000.0000000000000 -3000.0000000000000 -34773212.409943096 -11822392.735152394 -73510390.928513452 0.00011603848711929971 0.0036799390550262623 -0.0062631825279109918 2.7999999991219822 -1.7999999992590290 -4.2348500441314707 
3000.0000000000000 5000.0000000000000 -2833.3333333330002 -33622214.799909003 -10671395.127698723 -69429581.220123306 7.1731228139485786e-05 0.0017078655886558355 -0.0063869897304496799 2.7999999991961557 -1.4999999993844069 -4.4909844285303100 
3000.0000000000000 4000.0000000000000 -2833.3333333330002 -33622214.800935946 -10671395.126684610 -69429581.225817740 0.00010242529643555358 0.0039277969195899388 -0.0066960193216303613 2.7999999991937616 -1.7999999993252926 -4.4909844291009291 
3000.0000000000000 5000.0000000000000 -2666.6666666669998 -32471114.175846428 -9520294.5039134622 -65348406.282514609 5.3492045121856666e-05 0.0018073486224200457 -0.0067733541934329100 2.7999999992705877 -1.4999999994511750 -4.7322249355506338 
3000.0000000000000 4000.0000000000000 -2666.6666666669998 -32471114.176800128 -9520294.5030858852 -65348406.287702404 8.8782032610733414e-05 0.0041397567363591738 -0.0070797182899577631 2.7999999992687803 -1.7999999993940423 -4.7322249361438304 
3000.0000000000000 5000.0000000000000 -2500.0000000000000 -31319910.527413584 -8369090.8557395302 -61266866.076711208 3.6144680182844644e-05 0.0018817736305614837 -0.0071068099514292838 2.7999999993484761 -1.4999999995198707 -4.9585702316366564 
3000.0000000000000 4000.0000000000000 -2500.0000000000000 -31319910.528305575 -8369090.8551164875 -61266866.081425458 7.4775610352670967e-05 0.0043118493506004935 -0.0074084913304486369 2.7999999993472318 -1.7999999994652871 -4.9585702322501524 
3000.0000000000000 5000.0000000000000 -2333.3333333330002 -30168603.845387023 -7217784.1739441715 -57184960.569993325 1.9468795405598713e-05 0.0019291743718938515 -0.0073811639022162727 2.7999999994300846 -1.4999999995904025 -5.1700189836544022 
3000.0000000000000 4000.0000000000000 -2333.3333333330002 -30168603.846227426 -7217784.1735414583 -57184960.574263357 6.0128567356549875e-05 0.0044403653689795083 -0.0076763706099870644 2.7999999994293923 -1.7999999995390963 -5.1700189842860302 
3000.0000000000000 5000.0000000000000 -2166.6666666669998 -29017194.120543316 -6066374.4492940996 -53102689.729640946 3.2677003668608645e-06 0.0019481024478489165 -0.0075899692155462868 2.7999999995157547 -1.4999999996627142 -5.3665698583508270 
3000.0000000000000 4000.0000000000000 -2166.6666666669998 -29017194.121340953 -6066374.4491254045 -53102689.733492531 4.4622021977328032e-05 0.0045218514659418341 -0.0078771006513997134 2.7999999995156091 -1.7999999996155867 -5.3665698589985160 
3000.0000000000000 5000.0000000000000 -2000.0000000000000 -27865681.343653947 -4914861.6725502349 -49020053.522915095 -1.2635240810166723e-05 0.0019375793548573814 -0.0077263750056272163 2.7999999996058982 -1.4999999997367814 -5.5482215223569247 
3000.0000000000000 4000.0000000000000 -2000.0000000000000 -27865681.344416510 -4914861.6726272162 -49020053.526370868 2.8091469308019807e-05 0.0045529361587558926 -0.0080039414607816356 2.7999999996063001 -1.7999999996949205 -5.5482215230187002 
3000.0000000000000 5000.0000000000000 -1833.3333333329999 -26714065.505495973 -3763245.8344781902 -44937051.917094693 -2.8407969764509737e-05 0.0018971372807882140 -0.0077829131495925560 2.7999999997010003 -1.4999999998126063 -5.7149726421806770 
3000.0000000000000 4000.0000000000000 -1833.3333333329999 -26714065.506230138 -3763245.8348104535 -44937051.920174621 1.0415755865595823e-05 0.0045304241892004929 -0.0080495350434352485 2.7999999997019560 -1.7999999997773006 -5.7149726428546419 
3000.0000000000000 5000.0000000000000 -1666.6666666670001 -25562346.596847001 -2611526.9258430228 -40853684.879457913 -4.4221575001450786e-05 0.0018268380035034201 -0.0077514545542183219 2.7999999998016141 -1.4999999998902074 -5.8668218842109701 
3000.0000000000000 4000.0000000000000 -1666.6666666670001 -25562346.597558551 -2611526.9264380289 -40853684.882179722 -8.4933278056395578e-06 0.0044512842346442006 -0.0080058496802110461 2.7999999998031311 -1.7999999998629621 -5.8668218848953080 
9000.0000000000000 3000.0000000000000 -4833.3333333330002 -47427389.753421590 -24476570.086732689 -118375201.58112289 0.00010079397693662538 0.00035501295131933953 4.9327007076435504e-05 0.39999999964836974 -2.0999999988188129 -0.43475698896965576 
9000.0000000000000 3000.0000000000000 -5000.0000000000000 -48002296.553029984 -25051476.886377253 -120413507.50731578 0.00010325929410118107 0.00016923925531497279 2.8453023932976708e-05 0.39999999964613836 -2.0999999988134719 0.0000000000000000 
9000.0000000000000 3000.0000000000000 -4666.6666666669998 -46277524.699885845 -23326705.033096880 -114298407.29952118 9.4732206478279014e-05 0.00075472906794234152 7.8837360714501431e-05 0.39999999965465610 -2.0999999988338711 -0.85463608681615721 
9000.0000000000000 3000.0000000000000 -4500.0000000000000 -45127556.733077705 -22176737.066141926 -110221248.14310394 8.7666969278817200e-05 0.0012020235355152536 8.8969681651568789e-05 0.39999999966423061 -2.0999999988569047 -1.2596359619669517 
9000.0000000000000 3000.0000000000000 -4333.3333333330002 -43977485.843736045 -21026666.176620938 -106143724.07912093 8.1492907940369032e-05 0.0016811408278368896 8.8517942317854829e-05 0.39999999967643479 -2.0999999988865112 -1.6497552827224189 
9000.0000000000000 3000.0000000000000 -4166.6666666669998 -42827312.022603959 -19876492.355286401 -102065835.07482004 7.7072656090782963e-05 0.0021793611327173236 8.3695960792907871e-05 0.39999999969072503 -2.0999999989215752 -2.0249927172637858 
9000.0000000000000 3000.0000000000000 -4000.0000000000000 -41677035.260422535 -18726215.592885666 -97987581.097429723 7.4611865692469987e-05 0.0026863459478614865 7.8570654686681225e-05 0.39999999970666178 -2.0999999989612168 -2.3853469336594659 
9000.0000000000000 3000.0000000000000 -3833.3333333330002 -40526655.547940448 -17575835.880171660 -93908962.114196196 7.3930226342506605e-05 0.0031934747447208965 7.5584978105344494e-05 0.39999999972389061 -2.0999999990047553 -2.7308165998515510 
9000.0000000000000 3000.0000000000000 -3666.6666666669998 -39376172.875908226 -16425353.207897976 -89829978.092365563 7.4641383402103203e-05 0.0036933425043836144 7.6026198956147882e-05 0.39999999974212658 -2.0999999990516787 -3.0614003836629418 
9000.0000000000000 3000.0000000000000 -3500.0000000000000 -38225587.235072866 -15274767.566813802 -85750628.999166086 7.6266548026377768e-05 0.0041794947733055279 8.0355356577992555e-05 0.39999999976113843 -2.0999999991016129 -3.3770969528028947 
9000.0000000000000 3000.0000000000000 -3333.3333333330002 -37074898.616187930 -14124078.947674319 -81670914.801844969 7.8310775258413388e-05 0.0046461158510423574 8.8495020356581369e-05 0.39999999978073542 -2.0999999991543103 -3.6779049748551342 
9000.0000000000000 3000.0000000000000 -3166.6666666669998 -35924107.010008119 -12973287.341235457 -77590835.467650115 8.0306579283148807e-05 0.0050877634120501366 0.00010002755097722047 0.39999999980075818 -2.0999999992096274 -3.9638231172841891 
9000.0000000000000 3000.0000000000000 -3000.0000000000000 -34773212.407284088 -11822392.738248739 -73510390.963812262 8.1834019216857180e-05 0.0054991868101751220 0.00011432078761698414 0.39999999982106993 -2.0999999992675131 -4.2348500474401485 
9000.0000000000000 3000.0000000000000 -2833.3333333330002 -33622214.798772603 -10671395.129471505 -69429581.257581472 8.2530172684658535e-05 0.0058752951691175290 0.00013060564865989099 0.39999999984155160 -2.0999999993279990 -4.4909844325483688 
9000.0000000000000 3000.0000000000000 -2666.6666666669998 -32471114.175231300 -9520294.5056616645 -65348406.316209167 8.2090586885159104e-05 0.0062109140062599341 0.00014803932243763707 0.39999999986209656 -2.0999999993911911 -4.7322249397150289 
9000.0000000000000 3000.0000000000000 -2500.0000000000000 -31319910.527413454 -8369090.8575724084 -61266866.106929615 8.0266855520790475e-05 0.0065006681060622087 0.00016572815447640402 0.39999999988260854 -2.0999999994572609 -4.9585702359310746 
9000.0000000000000 3000.0000000000000 -2333.3333333330002 -30168603.846078224 -7217784.1759624826 -57184960.596996993 7.6862992871935232e-05 0.0067389668427856831 0.00018273415993050278 0.39999999990299850 -2.0999999995264464 -5.1700189880635392 
9000.0000000000000 3000.0000000000000 -2166.6666666669998 -29017194.121985499 -6066374.4515909078 -53102689.753667079 7.1727692471220311e-05 0.0069198857208526126 0.00019809088462145573 0.39999999992318402 -2.0999999995990408 -5.3665698628602989 
9000.0000000000000 3000.0000000000000 -2000.0000000000000 -27865681.345890522 -4914861.6752115786 -49020053.544178665 6.4745829002472454e-05 0.0070370720348159436 0.00021081654793446512 0.39999999994308771 -2.0999999996753953 -5.5482215269532098 
9000.0000000000000 3000.0000000000000 -1833.3333333329999 -26714065.508554257 -3763245.8375835330 -44937051.935790509 5.5828609806983184e-05 0.0070836851327078648 0.00021993003230101553 0.39999999996263863 -2.0999999997559153 -5.7149726468510469 
9000.0000000000000 3000.0000000000000 -1666.6666666670001 -25562346.600738212 -2611526.9294656701 -40853684.895763218 4.4900445872826331e-05 0.0070523312500460136 0.00022447320459990217 0.39999999998177133 -2.0999999998410597 -5.8668218889434494 
7.2332027070000006e-30 3000.0000000000000 -4833.3333333330002 -47427389.758475684 -24476570.060895436 -118375201.45643198 3.8769808858710907e-06 0.00033466777188628555 -0.00015826149829604351 4.0000000000000000 -2.0999999988529043 -0.43475698842701260 
1000.0000000000000 3000.0000000000000 -4833.3333333330002 -47427389.757551886 -24476570.062060788 -118375201.46233109 4.0845546410673760e-05 0.00032805518180379885 -0.00029760031179344449 3.5999999993831513 -2.0999999988535500 -0.43475698845456862 
0.0000000000000000 3000.0000000000000 -5000.0000000000000 -48002296.556657895 -25051476.858958110 -120413507.37683988 3.3573053440515114e-07 0.00015930995671958883 -7.6123868103569975e-05 4.0000000000000000 -2.0999999988475984 0.0000000000000000 
1000.0000000000000 3000.0000000000000 -5000.0000000000000 -48002296.555822156 -25051476.860233627 -120413507.38313714 3.7829970260588243e-05 0.00015616801297382320 -0.00014318897919474307 3.5999999993799925 -2.0999999988484728 0.0000000000000000 
0.0000000000000000 3000.0000000000000 -4666.6666666669998 -46277524.707454845 -23326705.010212392 -114298407.18579727 1.2254317249434390e-05 0.00071264435919436253 -0.00033191865702704166 4.0000000000000000 -2.0999999988678018 -0.85463608577664096 
1000.0000000000000 3000.0000000000000 -4666.6666666669998 -46277524.706394494 -23326705.011184826 -114298407.19099469 4.7910280250392338e-05 0.00069908129793387402 -0.00062436469870034397 3.5999999993916978 -2.0999999988679448 -0.85463608582763739 
0.0000000000000000 3000.0000000000000 -4500.0000000000000 -45127556.742546320 -22176737.045816619 -110221248.03920732 2.1287777831148295e-05 0.0011364873501368935 -0.00052043350439236961 4.0000000000000000 -2.0999999988904792 -1.2596359604715921 
1000.0000000000000 3000.0000000000000 -4500.0000000000000 -45127556.741412342 -22176737.046644080 -110221248.04387186 5.5335270394074886e-05 0.0011168024467720103 -0.00097976350997734619 3.5999999994040839 -2.0999999988901128 -1.2596359605431715 
0.0000000000000000 3000.0000000000000 -4333.3333333330002 -43977485.854592934 -21026666.158512402 -106143723.98403385 2.8252297953156474e-05 0.0015907927423929710 -0.00071793560738642799 4.0000000000000000 -2.0999999989195257 -1.6497552808080533 
1000.0000000000000 3000.0000000000000 -4333.3333333330002 -43977485.853423029 -21026666.159231689 -106143723.98829967 6.0709868016728683e-05 0.0015668137013585873 -0.0013519875112100569 3.5999999994192753 -2.0999999989187685 -1.6497552808982978 
0.0000000000000000 3000.0000000000000 -4166.6666666669998 -42827312.034417376 -19876492.339094944 -102065834.98763248 3.2196812359338579e-05 0.0020634192628971554 -0.00092159495256061716 4.0000000000000000 -2.0999999989538436 -2.0249927149635027 
1000.0000000000000 3000.0000000000000 -4166.6666666669998 -42827312.033234730 -19876492.339735165 -102065834.99160719 6.3199273548583527e-05 0.0020369556485844518 -0.0017335613016443699 3.5999999994365828 -2.0999999989528502 -2.0249927150712304 
0.0000000000000000 3000.0000000000000 -4000.0000000000000 -41677035.272824153 -18726215.578349270 -97987581.017333254 3.3133040653095950e-05 0.0025445466130028767 -0.0011299779158230302 4.0000000000000000 -2.0999999989925775 -2.3853469310030411 
1000.0000000000000 3000.0000000000000 -4000.0000000000000 -41677035.271643102 -18726215.578933049 -97987581.021100134 6.2835257668054486e-05 0.0025169460652452740 -0.0021195404826657798 3.5999999994555560 -2.0999999989915001 -2.3853469311276156 
5.6604683390000002e-31 3000.0000000000000 -3833.3333333330002 -40526655.560612537 -17575835.867060985 -93908962.040474892 3.1550921965485125e-05 0.0030260137066351637 -0.0013421705555664723 4.0000000000000000 -2.0999999990350728 -2.7308165968658713 
1000.0000000000000 3000.0000000000000 -3833.3333333330002 -40526655.559442326 -17575835.867605712 -93908962.044096693 6.0073083227058226e-05 0.0029980241624679807 -0.0025064736866157330 3.5999999994759229 -2.0999999990340363 -2.7308165970070246 
6.4691066730000002e-31 3000.0000000000000 -3666.6666666669998 -39376172.888573170 -16425353.196011322 -89829978.024384558 2.8107038745595366e-05 0.0035008149009167072 -0.0015573216731078836 4.0000000000000000 -2.0999999990808349 -3.0614003803723682 
1000.0000000000000 3000.0000000000000 -3666.6666666669998 -39376172.887420669 -16425353.196530534 -89829978.027908459 5.5520426936319567e-05 0.0034726176878766943 -0.0028916360779318419 3.5999999994975229 -2.0999999990799298 -3.0614003805300687 
0.0000000000000000 3000.0000000000000 -3500.0000000000000 -38225587.247485019 -15274767.555973012 -85750628.936362043 2.3457008380387529e-05 0.0039627505256481909 -0.0017743542313403654 4.0000000000000000 -2.0999999991295035 -3.3770969492295766 
1000.0000000000000 3000.0000000000000 -3500.0000000000000 -38225587.246356353 -15274767.556477398 -85750628.939823166 4.9791359911025873e-05 0.0039340773495207511 -0.0032725633079831260 3.5999999995202852 -2.0999999991287903 -3.3770969494039456 
0.0000000000000000 3000.0000000000000 -3333.3333333330002 -37074898.628127307 -14124078.937721506 -81670914.743718386 1.8185727948619728e-05 0.0044062060993105626 -0.0019920290349478699 4.0000000000000000 -2.0999999991808345 -3.6779049710192799 
1000.0000000000000 3000.0000000000000 -3333.3333333330002 -37074898.627028748 -14124078.938219588 -81670914.747142613 4.3429462073631061e-05 0.0043764627873118774 -0.0036469032843042411 3.5999999995442069 -2.0999999991803424 -3.6779049712105261 
-3.2380848400000000e-29 3000.0000000000000 -3166.6666666669998 -35924107.021275349 -12973287.332030399 -77590835.413759306 1.2772007123852998e-05 0.0048259641627786719 -0.0022088095661640778 4.0000000000000000 -2.0999999992346825 -3.9638231132043114 
1000.0000000000000 3000.0000000000000 -3166.6666666669998 -35924107.020213924 -12973287.332529023 -77590835.417165101 3.6877960771018495e-05 0.0047943889268018645 -0.0040120979778088183 3.5999999995693419 -2.0999999992344196 -3.9638231134126869 
0.0000000000000000 3000.0000000000000 -3000.0000000000000 -34773212.417696133 -11822392.729666689 -73510390.913768232 7.5941988606826151e-06 0.0052169575427894648 -0.0024228738710052318 4.0000000000000000 -2.0999999992909899 -4.2348500431332834 
1000.0000000000000 3000.0000000000000 -3000.0000000000000 -34773212.416680023 -11822392.730171440 -73510390.917168081 3.0484097854204359e-05 0.0051827464097097334 -0.0043653500205311927 3.5999999995957883 -2.0999999992909442 -4.2348500433590521 
0.0000000000000000 3000.0000000000000 -2833.3333333330002 -33622214.808159165 -10671395.121401399 -69429581.211043864 2.9338096991034349e-06 0.0055742048246943546 -0.0026321588271559682 4.0000000000000000 -2.0999999993497780 -4.4909844280302762 
1000.0000000000000 3000.0000000000000 -2833.3333333330002 -33622214.807197973 -10671395.121916823 -69429581.214445159 2.4499202578714322e-05 0.0055365888135676649 -0.0047035485312289264 3.5999999996236904 -2.0999999993499254 -4.4909844282736877 
-6.3602258699999998e-29 3000.0000000000000 -2666.6666666669998 -32471114.183431640 -9520294.4980045967 -65348406.272882886 -1.0217716785370562e-06 0.0058927493660870132 -0.0028342472247574000 4.0000000000000000 -2.0999999994111387 -4.7322249350003815 
1000.0000000000000 3000.0000000000000 -2666.6666666669998 -32471114.182536654 -9520294.4985344596 -65348406.276288487 1.9083801573839107e-05 0.0058510652917730223 -0.0050230953139420833 3.5999999996532317 -2.0999999994114451 -4.7322249352616543 
-6.8145277199999996e-29 3000.0000000000000 -2500.0000000000000 -31319910.534273438 -8369090.8502403563 -61266866.066562265 -4.1584041111498334e-06 0.0061674688115907431 -0.0030263308024447285 4.0000000000000000 -2.0999999994752292 -4.9585702310336339 
1000.0000000000000 3000.0000000000000 -2500.0000000000000 -31319910.533457972 -8369090.8507878343 -61266866.069971003 1.4323892983850559e-05 0.0061212231871400668 -0.0053198241121475203 3.5999999996846404 -2.0999999994756546 -4.9585702313129287 
0.0000000000000000 3000.0000000000000 -2333.3333333330002 -30168603.851447672 -7217784.1688772328 -57184960.559376806 -6.4227661804159384e-06 0.0063930150507197228 -0.0032052535987712005 4.0000000000000000 -2.0999999995422671 -5.1700189829963277 
1000.0000000000000 3000.0000000000000 -2333.3333333330002 -30168603.850727350 -7217784.1694450229 -57184960.562783502 1.0243318703345978e-05 0.0063419388390282142 -0.0055889574725646101 3.5999999997181824 -2.0999999995427685 -5.1700189832937404 
-4.8621958700000000e-29 3000.0000000000000 -2166.6666666669998 -29017194.125715476 -6066374.4446830265 -53102689.718621008 -7.8201761423812455e-06 0.0065637567862680312 -0.0033673912291844440 4.0000000000000000 -2.0999999996125274 -5.3665698576357670 
1000.0000000000000 3000.0000000000000 -2166.6666666669998 -29017194.125108581 -6066374.4452734673 -53102689.722016498 6.8040420929685400e-06 0.0065078097602135889 -0.0058249818911102411 3.5999999997541718 -2.0999999996130612 -5.3665698579512986 
0.0000000000000000 3000.0000000000000 -2000.0000000000000 -27865681.347830832 -4914861.6684196442 -49020053.511571452 -8.4065242857785205e-06 0.0066737109940698458 -0.0035084486534388685 4.0000000000000000 -2.0999999996863390 -5.5482215215833968 
1000.0000000000000 3000.0000000000000 -2000.0000000000000 -27865681.347358778 -4914861.6690348117 -49020053.514942423 3.9132262588312716e-06 0.0066130805423348154 -0.0060214185932860849 3.5999999997929701 -2.0999999996868648 -5.5482215219169353 
0.0000000000000000 3000.0000000000000 -1833.3333333329999 -26714065.508550785 -3763245.8308533253 -44937051.905523732 -8.2792610569000672e-06 0.0067164096749967872 -0.0036234878083098408 4.0000000000000000 -2.0999999997640848 -5.7149726413477469 
1000.0000000000000 3000.0000000000000 -1833.3333333329999 -26714065.508238666 -3763245.8314951691 -44937051.908852622 1.4274969888253616e-06 0.0066515271456381118 -0.0061707177244891172 3.5999999998349881 -2.0999999997645635 -5.7149726416990383 
0.0000000000000000 3000.0000000000000 -1666.6666666670001 -25562346.598630019 -2611526.9227493657 -40853684.867774516 -7.5917202478779437e-06 0.0066849487606962859 -0.0037067692263183377 4.0000000000000000 -2.0999999998461996 -5.8668218833183676 
1000.0000000000000 3000.0000000000000 -1666.6666666670001 -25562346.598507252 -2611526.9234197629 -40853684.871039078 -8.5020584935999818e-07 0.0066164547189088820 -0.0062640801953769698 3.5999999998806986 -2.0999999998466001 -5.8668218836869954 
3000.0000000000000 8000.0000000000000 -4833.3333333330002 -47427389.739253424 -24476570.069233097 -118375201.43903616 0.00020313022903359885 -0.00017900696501843550 -0.00024094944822436064 2.7999999986461983 -0.59999999949932181 -0.43475698837382126 
2000.0000000000000 8000.0000000000000 -4833.3333333330002 -47427389.741483487 -24476570.065577395 -118375201.42058875 0.00010071718767207006 -0.00018336657416902325 -0.00043893341229345808 3.1999999989123853 -0.59999999950514782 -0.43475698830116816 
3000.0000000000000 8000.0000000000000 -5000.0000000000000 -48002296.537278220 -25051476.867275529 -120413507.35919575 0.00020638176113836203 -9.1599156578459550e-05 -0.00011164896624990039 2.7999999986415474 -0.59999999949718719 0.0000000000000000 
2000.0000000000000 8000.0000000000000 -5000.0000000000000 -48002296.539314784 -25051476.863432527 -120413507.34009576 0.00010122071144116280 -9.3621624783800952e-05 -0.00020954949599593761 3.1999999989075127 -0.59999999950312088 0.0000000000000000 
3000.0000000000000 8000.0000000000000 -4666.6666666669998 -46277524.688670680 -23326705.018602557 -114298407.16912757 0.00019419201973681625 -0.00034550819327430174 -0.00053424473328847922 2.7999999986598527 -0.59999999950554128 -0.85463608567036509 
2000.0000000000000 8000.0000000000000 -4666.6666666669998 -46277524.691263095 -23326705.015301719 -114298407.15191618 9.9217218162418492e-05 -0.00035495609770420163 -0.00093094540567636302 3.1999999989260428 -0.59999999951108485 -0.85463608552704939 
3000.0000000000000 8000.0000000000000 -4500.0000000000000 -45127556.724401698 -22176737.054266751 -110221248.02366941 0.00018127511096439214 -0.00049563979123505206 -0.00089410909618837468 2.7999999986818023 -0.59999999951547878 -1.2596359603146305 
2000.0000000000000 8000.0000000000000 -4500.0000000000000 -45127556.727296218 -22176737.051279128 -110221248.00755824 9.6759178885460833e-05 -0.00051065924406935165 -0.0014779549654015994 3.1999999989467294 -0.59999999952063299 -1.2596359601028018 
3000.0000000000000 8000.0000000000000 -4333.3333333330002 -43977485.837213486 -21026666.167003270 -106143723.96993893 0.00016590945120406578 -0.00063004795825327893 -0.0013124786539548041 2.7999999987112014 -0.59999999952877603 -1.6497552806046125 
2000.0000000000000 8000.0000000000000 -4333.3333333330002 -43977485.840337016 -21026666.164285749 -106143723.95480078 9.3404787386819566e-05 -0.00065058695548760796 -0.0020593428526167338 3.1999999989730137 -0.59999999953348082 -1.6497552803265090 
3000.0000000000000 8000.0000000000000 -4166.6666666669998 -42827312.017876051 -19876492.347589828 -102065834.97521311 0.00014919961481213792 -0.00074962296414245806 -0.0017779987363966800 2.7999999987471931 -0.59999999954508498 -2.0249927147192217 
2000.0000000000000 8000.0000000000000 -4166.6666666669998 -42827312.021155454 -19876492.345101442 -102065834.96093228 8.9235964596846146e-05 -0.00077533285798996564 -0.0026589844196101028 3.1999999990037860 -0.59999999954931138 -2.0249927143771438 
3000.0000000000000 8000.0000000000000 -4000.0000000000000 -41677035.257156812 -18726215.586798768 -97987581.006749570 0.00013194986564705804 -0.00085544653246227029 -0.0022782058611982943 2.7999999987889748 -0.59999999956407069 -2.3853469307246384 
2000.0000000000000 8000.0000000000000 -4000.0000000000000 -41677035.260524064 -18726215.584501565 -97987580.993220180 8.4356864325034426e-05 -0.00088581303159466660 -0.0032645550037402912 3.1999999990382042 -0.59999999956781103 -2.3853469303208965 
3000.0000000000000 8000.0000000000000 -3833.3333333330002 -40526655.545830622 -17575835.875407610 -93908962.031824350 0.00011474091595882226 -0.00094868661403213776 -0.0028006805691927934 2.7999999988358444 -0.59999999958541295 -2.7308165965608135 
2000.0000000000000 8000.0000000000000 -3833.3333333330002 -40526655.549224712 -17575835.873267021 -93908962.018949941 7.8885612953061247e-05 -0.00098312290513219371 -0.0038667129198975648 3.1999999990756640 -0.59999999958867323 -2.7308165960976538 
3000.0000000000000 8000.0000000000000 -3666.6666666669998 -39376172.874674268 -16425353.204193989 -89829978.017714605 9.7988754823242130e-05 -0.0010305438641690073 -0.0033337021114014766 2.7999999988872171 -0.59999999960880690 -3.0614003800486000 
2000.0000000000000 8000.0000000000000 -3666.6666666669998 -39376172.878041342 -16425353.202179121 -89829978.005408794 7.2945900289558873e-05 -0.0010684392642533245 -0.0044583238352112232 3.1999999991157542 -0.59999999961160355 -3.0614003795281555 
3000.0000000000000 8000.0000000000000 -3500.0000000000000 -38225587.234460585 -15274767.563930355 -85750628.931680202 8.1984745084802239e-05 -0.0011021895350379273 -0.0038665498139835212 2.7999999989426345 -0.59999999963396522 -3.3770969488953075 
2000.0000000000000 8000.0000000000000 -3500.0000000000000 -38225587.237753101 -15274767.562013887 -85750628.919867069 6.6658578669572368e-05 -0.0011429391931532362 -0.0050337469129403461 3.1999999991582260 -0.59999999963632000 -3.3770969483195690 
3000.0000000000000 8000.0000000000000 -3333.3333333330002 -37074898.615968347 -14124078.945394164 -81670914.741000175 6.6925133689469584e-05 -0.0011647062874891351 -0.0043895316031119192 2.7999999990017583 -0.59999999966061612 -3.6779049706828002 
2000.0000000000000 8000.0000000000000 -3333.3333333330002 -37074898.619143635 -14124078.943552125 -81670914.729614437 6.0135192178274114e-05 -0.0012077326382516963 -0.0055882612809108959 3.1999999992029586 -0.59999999966255624 -3.6779049700536115 
3000.0000000000000 8000.0000000000000 -3166.6666666669998 -35924107.009976625 -12973287.339362584 -77590835.412954181 5.2930806818892691e-05 -0.0012190423818499751 -0.0048937967273774158 2.7999999990643683 -0.59999999968850626 -3.9638231128738477 
2000.0000000000000 8000.0000000000000 -3166.6666666669998 -35924107.012995407 -12973287.337574033 -77590835.401941121 5.3473579196103372e-05 -0.0012638078509397883 -0.0061175787723413613 3.1999999992499442 -0.59999999969006013 -3.9638231121929088 
3000.0000000000000 8000.0000000000000 -3000.0000000000000 -34773212.407259390 -11822392.736607322 -73510390.914804161 4.0064927876163363e-05 -0.0012659801919050963 -0.0053712630066840997 2.7999999991303550 -0.59999999971739693 -4.2348500428168689 
2000.0000000000000 8000.0000000000000 -3000.0000000000000 -34773212.410084359 -11822392.734854002 -73510390.904119432 4.6755667162373885e-05 -0.0013119845299949852 -0.0066175149056144451 3.1999999992992683 -0.59999999971859486 -4.2348500420857489 
3000.0000000000000 8000.0000000000000 -2833.3333333330002 -33622214.798595749 -10671395.127904892 -69429581.213830709 2.8343674669857219e-05 -0.0013060922876267176 -0.0058144182238519535 2.7999999991997084 -0.59999999974706586 -4.4909844277356372 
2000.0000000000000 8000.0000000000000 -2833.3333333330002 -33622214.801190123 -10671395.126170896 -69429581.203440189 4.0043672209212402e-05 -0.0013528760557146196 -0.0070837269914098243 3.1999999993510930 -0.59999999974793783 -4.4909844269558059 
3000.0000000000000 8000.0000000000000 -2666.6666666669998 -32471114.174764547 -9520294.5040313639 -65348406.277314350 1.7738681142719107e-05 -0.0013397166421036863 -0.0062160492129315938 2.7999999992725084 -0.59999999977730412 -4.7322249347348375 
2000.0000000000000 8000.0000000000000 -2666.6666666669998 -32471114.177090894 -9520294.5023028757 -65348406.267194010 3.3380044486276231e-05 -0.0013868687931518210 -0.0075114360281817363 3.1999999994056614 -0.59999999977787943 -4.7322249339076947 
3000.0000000000000 8000.0000000000000 -2500.0000000000000 -31319910.526539326 -8369090.8557572691 -61266866.072517306 8.1879555048526705e-06 -0.0013669354800179229 -0.0065691160192684539 2.7999999993489251 -0.59999999980791563 -4.9585702308040007 
2000.0000000000000 8000.0000000000000 -2500.0000000000000 -31319910.528558448 -8369090.8540222934 -61266866.062653154 2.6787837001944373e-05 -0.0014140856835845681 -0.0078952816373524075 3.1999999994632766 -0.59999999980822161 -4.9585702299309062 
3000.0000000000000 8000.0000000000000 -2333.3333333330002 -30168603.844698686 -7217784.1738579515 -57184960.566719890 -4.0119029936015220e-07 -0.0013875417261139493 -0.0068665689265003981 2.7999999994292044 -0.59999999983871455 -5.1700189828088199 
2000.0000000000000 8000.0000000000000 -2333.3333333330002 -30168603.846368521 -7217784.1721060853 -57184960.557107903 2.0269177318993681e-05 -0.0014343543037363975 -0.0082291597593021678 3.1999999995243127 -0.59999999983877661 -5.1700189818911388 
3000.0000000000000 8000.0000000000000 -2166.6666666669998 -29017194.120021213 -6066374.4491083957 -53102689.727201872 -8.1542395146023063e-06 -0.0014010379255790255 -0.0071011549511866244 2.7999999995136693 -0.59999999986952435 -5.3665698574958958 
2000.0000000000000 8000.0000000000000 -2166.6666666669998 -29017194.121295854 -6066374.4473306695 -53102689.717848256 1.3802110274002394e-05 -0.0014472064353170354 -0.0085060141444065589 3.1999999995892088 -0.59999999986936381 -5.3665698565350377 
3000.0000000000000 8000.0000000000000 -2000.0000000000000 -27865681.343280457 -4914861.6722781109 -49020053.521224052 -1.5224026912570739e-05 -0.0014065996306968599 -0.0072652997164259969 2.7999999996027132 -0.59999999990017383 -5.5482215214958615 
2000.0000000000000 8000.0000000000000 -2000.0000000000000 -27865681.344109103 -4914861.6704667797 -49020053.512145258 7.3480724356065222e-06 -0.0014518402366698318 -0.0087177212745846860 3.1999999996584672 -0.59999999989980857 -5.5482215204933416 
3000.0000000000000 8000.0000000000000 -1833.3333333329999 -26714065.505255520 -3763245.8341415888 -44937051.916064903 -2.1791931667781726e-05 -0.0014030740296262392 -0.0073509286931906998 2.7999999996967970 -0.59999999993049691 -5.7149726413163160 
2000.0000000000000 8000.0000000000000 -1833.3333333329999 -26714065.505581520 -3763245.8322899928 -44937051.907287963 8.5344384108766924e-07 -0.0014471143031267893 -0.0088548594635063788 3.1999999997326687 -0.59999999992993847 -5.7149726402737935 
3000.0000000000000 8000.0000000000000 -1666.6666666670001 -25562346.596726123 -2611526.9254731731 -40853684.879001975 -2.8066321715605757e-05 -0.0013889658245566459 -0.0073494001875229155 2.7999999997964475 -0.59999999996032694 -5.8668218833457511 
2000.0000000000000 8000.0000000000000 -1666.6666666670001 -25562346.596485913 -2611526.9235756164 -40853684.870564915 -5.7539594663896212e-06 -0.0014315361140345944 -0.0089065002851432696 3.1999999998124689 -0.59999999995958297 -5.8668218822650928 
3000.0000000000000 9000.0000000000000 -4833.3333333330002 -47427389.738423727 -24476570.068440851 -118375201.43630055 0.00010563507354782209 -0.00010559918790350603 -0.00023104462159111467 2.7999999986515260 -0.29999999975096386 -0.43475698836421917 
3000.0000000000000 10000.000000000000 -4833.3333333330002 -47427389.738155067 -24476570.068146192 -118375201.43546239 5.4300115421398884e-05 -5.6996597076593504e-05 -0.00022786890067085403 2.7999999986533681 0.0000000000000000 -0.43475698836137583 
4000.0000000000000 10000.000000000000 -4833.3333333330002 -47427389.736650445 -24476570.071935408 -118375201.45355502 5.8440750065750527e-05 -5.4942486636357740e-05 -0.00019821555641551814 2.3999999985475955 0.0000000000000000 -0.43475698843365790 
3000.0000000000000 9000.0000000000000 -5000.0000000000000 -48002296.536411941 -25051476.866447549 -120413507.35633418 0.00010734080654010366 -5.3815731472612230e-05 -0.00010672451109556819 2.7999999986469866 -0.29999999974990271 0.0000000000000000 
3000.0000000000000 10000.000000000000 -5000.0000000000000 -48002296.536131546 -25051476.866141297 -120413507.35545591 5.5213608344132476e-05 -2.9006684936081579e-05 -0.00010514796581532136 2.7999999986488677 0.0000000000000000 0.0000000000000000 
4000.0000000000000 10000.000000000000 -5000.0000000000000 -48002296.534780115 -25051476.870074295 -120413507.37403914 5.9268301255217985e-05 -2.8010428389357307e-05 -9.2998218948961317e-05 2.3999999985418610 0.0000000000000000 0.0000000000000000 
3000.0000000000000 9000.0000000000000 -4666.6666666669998 -46277524.687914297 -23326705.017880850 -114298407.16664141 0.00010095245888392457 -0.00020507256410353883 -0.00051447168295393761 2.7999999986648940 -0.29999999975405994 -0.85463608565205207 
3000.0000000000000 10000.000000000000 -4666.6666666669998 -46277524.687669277 -23326705.017609321 -114298407.16588277 5.1808419602712266e-05 -0.00011093221842570726 -0.00050813410173144969 2.7999999986666326 0.0000000000000000 -0.85463608564664917 
4000.0000000000000 10000.000000000000 -4666.6666666669998 -46277524.685862772 -23326705.021115694 -114298407.18301877 5.6112072507083692e-05 -0.00010668917003442259 -0.00043133568644312633 2.3999999985640739 0.0000000000000000 -0.85463608578840988 
3000.0000000000000 9000.0000000000000 -4500.0000000000000 -45127556.723718569 -22176737.053613201 -110221248.02142753 9.4193994713914466e-05 -0.00029637190226168894 -0.00086497075143641597 2.7999999986864541 -0.29999999975901642 -1.2596359602884790 
3000.0000000000000 10000.000000000000 -4500.0000000000000 -45127556.723497383 -22176737.053364471 -110221248.02074695 4.8239695355743007e-05 -0.00016075617521941641 -0.00085565601343017667 2.7999999986880528 0.0000000000000000 -1.2596359602807934 
4000.0000000000000 10000.000000000000 -4500.0000000000000 -45127556.721410476 -22176737.056600701 -110221248.03697535 5.2618839203676850e-05 -0.00015426775009980224 -0.00070661710880006346 2.3999999985899696 0.0000000000000000 -1.2596359604894207 
3000.0000000000000 9000.0000000000000 -4333.3333333330002 -43977485.836602762 -21026666.166414563 -106143723.96793565 8.6155341783939750e-05 -0.00037959496872588046 -0.0012749856708922556 2.7999999987154087 -0.29999999976566039 -1.6497552805714746 
3000.0000000000000 10000.000000000000 -4333.3333333330002 -43977485.836405292 -21026666.166187935 -106143723.96733151 4.4023437852861758e-05 -0.00020646653039057107 -0.0012630614309265928 2.7999999987168480 0.0000000000000000 -1.6497552805617750 
4000.0000000000000 10000.000000000000 -4333.3333333330002 -43977485.834079131 -21026666.169171788 -106143723.98270035 4.8304228678411951e-05 -0.00019782137887202920 -0.0010174061679274100 2.3999999986241556 0.0000000000000000 -1.6497552808347733 
3000.0000000000000 9000.0000000000000 -4166.6666666669998 -42827312.017336115 -19876492.347061947 -102065834.97344214 7.7407447164977666e-05 -0.00045497696441117641 -0.0017333830116233124 2.7999999987509296 -0.29999999977382186 -2.0249927146799269 
3000.0000000000000 10000.000000000000 -4166.6666666669998 -42827312.017161980 -19876492.346856467 -102065834.97291255 3.9459548829094113e-05 -0.00024813864904279787 -0.0017192729701585180 2.7999999987522015 0.0000000000000000 -2.0249927146684756 
4000.0000000000000 10000.000000000000 -4166.6666666669998 -42827312.014648564 -19876492.349608626 -102065834.98746875 4.3466544065198980e-05 -0.00023751959138407496 -0.0013565619577705084 2.3999999986656535 0.0000000000000000 -2.0249927150034268 
3000.0000000000000 9000.0000000000000 -4000.0000000000000 -41677035.256685384 -18726215.586327333 -97987581.005203962 6.8370314226792140e-05 -0.00052286798816906653 -0.0022277577279086217 2.7999999987922362 -0.29999999978333486 -2.3853469306799919 
3000.0000000000000 10000.000000000000 -4000.0000000000000 -41677035.256533965 -18726215.586141869 -97987581.004746765 3.4763672805616123e-05 -0.00028589993326283539 -0.0022118865313741605 2.7999999987933397 0.0000000000000000 -2.3853469306670427 
4000.0000000000000 10000.000000000000 -4000.0000000000000 -41677035.253890380 -18726215.588684727 -97987581.018537372 3.8358765292376793e-05 -0.00027355018594897465 -0.0017164722487755285 2.3999999987136111 0.0000000000000000 -2.3853469310615849 
3000.0000000000000 9000.0000000000000 -3833.3333333330002 -40526655.545424923 -17575835.874988090 -93908962.030496418 5.9350152756639429e-05 -0.00058368370406118347 -0.0027456872432223682 2.7999999988386395 -0.29999999979403874 -2.7308165965115978 
3000.0000000000000 10000.000000000000 -3833.3333333330002 -40526655.545295417 -17575835.874821458 -93908962.030109286 3.0094528655950972e-05 -0.00031991708191186051 -0.0027284800119001524 2.7999999988395801 0.0000000000000000 -2.7308165964973958 
4000.0000000000000 10000.000000000000 -3833.3333333330002 -40526655.542579934 -17575835.877178147 -93908962.043181404 3.3185700760855683e-05 -0.00030611067398708474 -0.0020891857135511248 2.3999999987672882 0.0000000000000000 -2.7308165969492033 
3000.0000000000000 9000.0000000000000 -3666.6666666669998 -39376172.874331109 -16425353.203821938 -89829978.016595870 5.0569268547608179e-05 -0.00063788001715704733 -0.0032753903047447130 2.7999999988895650 -0.29999999980577902 -3.0614003799955682 
3000.0000000000000 10000.000000000000 -3666.6666666669998 -39376172.874222547 -16425353.203672949 -89829978.016276166 2.5563213082602675e-05 -0.00035038569017175892 -0.0032572403847667933 2.7999999988903501 0.0000000000000000 -3.0614003799803533 
4000.0000000000000 10000.000000000000 -3666.6666666669998 -39376172.871492043 -16425353.205866423 -89829978.028675914 2.8106833930251563e-05 -0.00033540739827867081 -0.0024666247473678809 2.3999999988260541 0.0000000000000000 -3.0614003804871319 
3000.0000000000000 9000.0000000000000 -3500.0000000000000 -38225587.234176509 -15274767.563601652 -85750628.930761456 4.2186665131834964e-05 -0.00068591128426103679 -0.0038060444384660709 2.7999999989445610 -0.29999999981840769 -3.3770969488391822 
3000.0000000000000 10000.000000000000 -3500.0000000000000 -38225587.234087825 -15274767.563469185 -85750628.930506259 2.1248486263879860e-05 -0.00037750097830819369 -0.0037873096873668769 2.7999999989451996 0.0000000000000000 -3.3770969488231848 
4000.0000000000000 10000.000000000000 -3500.0000000000000 -38225587.231396332 -15274767.565521518 -85750628.942277506 2.3241825561596630e-05 -0.00036163743978472268 -0.0028408056897817019 2.3999999988893803 0.0000000000000000 -3.3770969493826692 
3000.0000000000000 9000.0000000000000 -3333.3333333330002 -37074898.615739733 -14124078.945105175 -81670914.740271419 3.4312382156362964e-05 -0.00072820336160172368 -0.0043278514900971293 2.7999999990032935 -0.29999999983178371 -3.6779049706242763 
3000.0000000000000 10000.000000000000 -3333.3333333330002 -37074898.615669765 -14124078.944988254 -81670914.740077481 1.7207003942469669e-05 -0.00040144265616384300 -0.0043088472992059926 2.7999999990037976 0.0000000000000000 -3.6779049706077123 
4000.0000000000000 10000.000000000000 -3333.3333333330002 -37074898.613067932 -14124078.946920279 -81670914.751260996 1.8674622174278190e-05 -0.00038497171170247453 -0.0032040133620212020 2.3999999989568388 0.0000000000000000 -3.6779049712176679 
3000.0000000000000 9000.0000000000000 -3166.6666666669998 -35924107.009799778 -12973287.339110352 -77590835.412404656 2.7020034247918590e-05 -0.00076513289071057590 -0.0048318292757925018 2.7999999990655451 -0.29999999984577336 -3.9638231128135812 
3000.0000000000000 10000.000000000000 -3166.6666666669998 -35924107.009747341 -12973287.339008216 -77590835.412268549 1.3478519388025714e-05 -0.00042237256951766931 -0.0048128143650745577 2.7999999990659270 0.0000000000000000 -3.9638231127966566 
4000.0000000000000 10000.000000000000 -3166.6666666669998 -35924107.007282421 -12973287.340839276 -77590835.422901198 1.4461655602683808e-05 -0.00040554612810549535 -0.0035488703154025860 2.3999999990280969 0.0000000000000000 -3.9638231134548763 
3000.0000000000000 9000.0000000000000 -3000.0000000000000 -34773212.407130621 -11822392.736389687 -73510390.914422303 2.0349463631972137e-05 -0.00079699711419459641 -0.0053097570839120440 2.7999999991312086 -0.29999999986024967 -4.2348500427554745 
3000.0000000000000 10000.000000000000 -3000.0000000000000 -34773212.407094508 -11822392.736301800 -73510390.914340198 1.0085966711884216e-05 -0.00044041329514576922 -0.0052909541883179546 2.7999999991314803 0.0000000000000000 -4.2348500427383833 
4000.0000000000000 10000.000000000000 -3000.0000000000000 -34773212.404810667 -11822392.738049602 -73510390.924454257 1.0636076425214328e-05 -0.00042345603574349568 -0.0038684165912845534 2.3999999991029117 0.0000000000000000 -4.2348500434426821 
3000.0000000000000 9000.0000000000000 -2833.3333333330002 -33622214.798511431 -10671395.127720645 -69429581.213604361 1.4311043858542594e-05 -0.00082399813619786792 -0.0057540020228523271 2.7999999992002707 -0.29999999987509257 -4.4909844276736868 
3000.0000000000000 10000.000000000000 -2833.3333333330002 -33622214.798490457 -10671395.127646780 -69429581.213572204 7.0329319182849808e-06 -0.00045564256567828598 -0.0057355953026191897 2.7999999992004461 0.0000000000000000 -4.4909844276566089 
4000.0000000000000 10000.000000000000 -2833.3333333330002 -33622214.796429224 -10671395.129327327 -69429581.223194659 7.2071777041640083e-06 -0.00043874788257071412 -0.0041561506980228452 2.3999999991811243 0.0000000000000000 -4.4909844284048166 
3000.0000000000000 9000.0000000000000 -2666.6666666669998 -32471114.174721207 -9520294.5038803723 -65348406.277230710 8.8893278585437136e-06 -0.00084623061612369287 -0.0061572472762142158 2.7999999992728140 -0.29999999989018794 -4.7322249346728595 
3000.0000000000000 10000.000000000000 -2666.6666666669998 -32471114.174714219 -9520294.5038206577 -65348406.277244277 4.3074211595527498e-06 -0.00046809048549931219 -0.0061393861562853988 2.7999999992729050 0.0000000000000000 -4.7322249346559566 
4000.0000000000000 10000.000000000000 -2666.6666666669998 -32471114.172915097 -9520294.5054482557 -65348406.286396585 4.1641059620345275e-06 -0.00045141502423853987 -0.0044059862873178576 2.3999999992626520 0.0000000000000000 -4.7322249354459043 
3000.0000000000000 9000.0000000000000 -2500.0000000000000 -31319910.526533630 -8369090.8556405390 -61266866.072562888 4.0511424891723741e-06 -0.00086366712954468014 -0.0065123208216323024 2.7999999993490046 -0.29999999990542719 -4.9585702307424677 
3000.0000000000000 10000.000000000000 -2500.0000000000000 -31319910.526539534 -8369090.8555954807 -61266866.072617710 1.8926248238480052e-06 -0.00047772832491757100 -0.0064951084317405802 2.7999999993490214 0.0000000000000000 -4.9585702307258863 
4000.0000000000000 10000.000000000000 -2500.0000000000000 -31319910.525040600 -8369090.8571827849 -61266866.081315450 1.4845562871687305e-06 -0.00046139025354263328 -0.0046122146487066031 2.3999999993474823 0.0000000000000000 -4.9585702315553917 
3000.0000000000000 9000.0000000000000 -2333.3333333330002 -30168603.844727505 -7217784.1737777414 -57184960.566880614 -2.5415588084248298e-07 -0.00087613545105681679 -0.0068120519072906024 2.7999999994290863 -0.29999999992070642 -5.1700189827481529 
3000.0000000000000 10000.000000000000 -2333.3333333330002 -30168603.844745275 -7217784.1737482520 -57184960.566972002 -2.3678302680750716e-07 -0.00048445464132328944 -0.0067955434920356564 2.7999999994290401 0.0000000000000000 -5.1700189827320191 
4000.0000000000000 10000.000000000000 -2333.3333333330002 -30168603.843583744 -7217784.1753063053 -57184960.575224645 -8.6442576210668104e-07 -0.00046853812158325692 -0.0047695172345417012 2.3999999994356678 0.0000000000000000 -5.1700189835988688 
3000.0000000000000 9000.0000000000000 -2166.6666666669998 -29017194.120081674 -6066374.4490683060 -53102689.727463163 -4.0996941399932697e-06 -0.00088331804744827796 -0.0070491147188006375 2.7999999995133780 -0.29999999993592552 -5.3665698574364518 
3000.0000000000000 10000.000000000000 -2166.6666666669998 -29017194.120110333 -6066374.4490557220 -53102689.727586165 -2.1230811393998939e-06 -0.00048809098153742420 -0.0070333516578248113 2.7999999995132776 0.0000000000000000 -5.3665698574208740 
4000.0000000000000 10000.000000000000 -2166.6666666669998 -29017194.119322997 -6066374.4505939726 -53102689.735396847 -2.9289028094684181e-06 -0.00047265593754186868 -0.0048729677567450648 2.3999999995273162 0.0000000000000000 -5.3665698583228032 
3000.0000000000000 9000.0000000000000 -2000.0000000000000 -27865681.343369938 -4914861.6722831372 -49020053.521570787 -7.5744133513265673e-06 -0.00088473631038939963 -0.0072158384147057858 2.7999999996022682 -0.29999999995098664 -5.5482215214379371 
3000.0000000000000 10000.000000000000 -2000.0000000000000 -27865681.343408603 -4914861.6722892607 -49020053.521720253 -3.8159736849897574e-06 -0.00048838424933817849 -0.0072008254569478989 2.7999999996021208 0.0000000000000000 -5.5482215214230024 
4000.0000000000000 10000.000000000000 -2000.0000000000000 -27865681.343032233 -4914861.6738156406 -49020053.529085800 -4.7657041699288836e-06 -0.00047346168804728381 -0.0049179927372898172 2.3999999996225845 0.0000000000000000 -5.5482215223576690 
3000.0000000000000 9000.0000000000000 -1833.3333333329999 -26714065.505371675 -3763245.8341981713 -44937051.916481368 -1.0783033170116444e-05 -0.00087974935878363538 -0.0073040957971918568 2.7999999996962126 -0.29999999996579380 -5.7149726412601396 
3000.0000000000000 10000.000000000000 -1833.3333333329999 -26714065.505419575 -3763245.8342253016 -44937051.916652024 -5.3698261194324783e-06 -0.00048499836010360361 -0.0072898194040105363 2.7999999996960239 0.0000000000000000 -5.7149726412459101 
4000.0000000000000 10000.000000000000 -1833.3333333329999 -26714065.505491197 -3763245.8357462790 -44937051.923563041 -6.4371084616519272e-06 -0.00047060597895165306 -0.0049003389043747146 2.3999999997216728 0.0000000000000000 -5.7149726422108769 
3000.0000000000000 9000.0000000000000 -1666.6666666670001 -25562346.596866939 -2611526.9255893067 -40853684.879472084 -1.3845516807171857e-05 -0.00086754574201040858 -0.0073052092567154883 2.7999999997957339 -0.29999999998025112 -5.8668218832914780 
3000.0000000000000 10000.000000000000 -1666.6666666670001 -25562346.596923403 -2611526.9256402506 -40853684.879658468 -6.8483672576694259e-06 -0.00047751249120256043 -0.0072916515779328063 2.7999999997955052 0.0000000000000000 -5.8668218832779937 
4000.0000000000000 10000.000000000000 -1666.6666666670001 -25562346.597480379 -2611526.9271608377 -40853684.886099398 -8.0121844521654510e-06 -0.00046366576589807395 -0.0048162014554296237 2.3999999998248187 0.0000000000000000 -5.8668218842706992 
10000.000000000000 8000.0000000000000 -4833.3333333330002 -47427389.740320019 -24476570.087101031 -118375201.51730779 4.0454645912685658e-05 -0.00017131679801911826 6.6535132296126324e-05 0.0000000000000000 -0.59999999947420168 -0.43475698869691726 
10000.000000000000 7000.0000000000000 -4833.3333333330002 -47427389.741766676 -24476570.088223055 -118375201.52341884 8.4660453604110103e-05 -0.00017448100762276788 6.6406695718329139e-05 0.0000000000000000 -0.89999999921445673 -0.43475698872017665 
10000.000000000000 8000.0000000000000 -5000.0000000000000 -48002296.539178424 -25051476.886044033 -120413507.44071105 4.0913479147332860e-05 -8.8200853451182287e-05 3.4092267279949893e-05 0.0000000000000000 -0.59999999947183869 0.0000000000000000 
10000.000000000000 7000.0000000000000 -5000.0000000000000 -48002296.540703148 -25051476.887244150 -120413507.44710925 8.5937879960518230e-05 -9.1181923423006700e-05 3.4262295258325173e-05 0.0000000000000000 -0.89999999921092133 0.0000000000000000 
10000.000000000000 8000.0000000000000 -4666.6666666669998 -46277524.688200168 -23326705.034734212 -114298407.24108995 3.9179245145313275e-05 -0.00032778108159492263 0.00012829908595118515 0.0000000000000000 -0.59999999948105942 -0.85463608629219190 
10000.000000000000 7000.0000000000000 -4666.6666666669998 -46277524.689495876 -23326705.035706222 -114298407.24663630 8.1052384850313221e-05 -0.00032632619836461823 0.00012684279504932290 0.0000000000000000 -0.89999999922469065 -0.85463608633666011 
10000.000000000000 8000.0000000000000 -4500.0000000000000 -45127556.722650498 -22176737.068790659 -110221248.08967364 3.7297066771860860e-05 -0.00046547198728627060 0.00018415122522258019 0.0000000000000000 -0.59999999949195815 -1.2596359612120538 
10000.000000000000 7000.0000000000000 -4500.0000000000000 -45127556.723805234 -22176737.069625627 -110221248.09467490 7.5639497172707719e-05 -0.00045056422824327398 0.00018024663592265371 0.0000000000000000 -0.89999999924089891 -1.2596359612757262 
10000.000000000000 8000.0000000000000 -4333.3333333330002 -43977485.834428951 -21026666.180045027 -106143724.03032573 3.4995985477186637e-05 -0.00058598697410287923 0.00023462828260453398 0.0000000000000000 -0.59999999950646354 -1.6497552817556609 
10000.000000000000 7000.0000000000000 -4333.3333333330002 -43977485.835451990 -21026666.180756867 -106143724.03480244 6.8999925272259725e-05 -0.00055095559375712626 0.00022773513195122497 0.0000000000000000 -0.89999999926240060 -1.6497552818365853 
10000.000000000000 8000.0000000000000 -4166.6666666669998 -42827312.014294080 -19876492.359271415 -102065835.03031342 3.2415154194449154e-05 -0.00069100679841335635 0.00028008995376239986 0.0000000000000000 -0.59999999952416216 -2.0249927161030379 
10000.000000000000 7000.0000000000000 -4166.6666666669998 -42827312.015194178 -19876492.359874390 -102065835.03428704 6.1639632477093482e-05 -0.00063111127967503601 0.00027005922297158218 0.0000000000000000 -0.89999999928856234 -2.0249927161993222 
10000.000000000000 8000.0000000000000 -4000.0000000000000 -41677035.252999708 -18726215.597238101 -97987581.056885645 2.9659841067470283e-05 -0.00078223544056342921 0.00032081114601636648 0.0000000000000000 -0.59999999954466354 -2.3853469323214389 
10000.000000000000 7000.0000000000000 -4000.0000000000000 -41677035.253785223 -18726215.597746328 -97987581.060378492 5.3968495947517451e-05 -0.00069444364153973365 0.00030774535037478344 0.0000000000000000 -0.89999999931879859 -2.3853469324312560 
10000.000000000000 8000.0000000000000 -3833.3333333330002 -40526655.541305266 -17575835.884717975 -93908962.077309862 2.6811515738555935e-05 -0.00086132866944976176 0.00035705431113656192 0.0000000000000000 -0.59999999956760186 -2.7308165983518475 
10000.000000000000 7000.0000000000000 -3833.3333333330002 -40526655.541984223 -17575835.885145038 -93908962.080345169 4.6299758187476450e-05 -0.00074413928672771980 0.00034120708146877211 0.0000000000000000 -0.89999999935257113 -2.7308165984734405 
10000.000000000000 8000.0000000000000 -3666.6666666669998 -39376172.869970649 -16425353.212483354 -89829978.058853626 2.3934599576225255e-05 -0.00092984309557104508 0.00038909301993627043 0.0000000000000000 -0.59999999959263473 -3.0614003820161177 
10000.000000000000 7000.0000000000000 -3666.6666666669998 -39376172.870550774 -16425353.212841969 -89829978.061455399 3.8859674194389547e-05 -0.00078311384150130385 0.00037079767064991133 0.0000000000000000 -0.89999999938938791 -3.0614003821478080 
10000.000000000000 8000.0000000000000 -3500.0000000000000 -38225587.229751058 -15274767.571300864 -85750628.968766332 2.1078734265501740e-05 -0.00098920374771763945 0.00041719580963134345 0.0000000000000000 -0.59999999961944495 -3.3770969510225286 
10000.000000000000 7000.0000000000000 -3500.0000000000000 -38225587.230239794 -15274767.571602562 -85750628.970959246 3.1804066787532992e-05 -0.00081399159444629820 0.00039681811315887578 0.0000000000000000 -0.89999999942880138 -3.3770969511627205 
10000.000000000000 8000.0000000000000 -3333.3333333330002 -37074898.611407310 -14124078.951941825 -81670914.774315685 1.8282983993907743e-05 -0.0010406739685874813 0.00044162683647214332 0.0000000000000000 -0.59999999964773854 -3.6779049729538937 
10000.000000000000 7000.0000000000000 -3333.3333333330002 -37074898.611811832 -14124078.952196755 -81670914.776125178 2.5235579697170761e-05 -0.00083908820866842161 0.00041953396771041574 0.0000000000000000 -0.89999999947040510 -3.6779049731010782 
10000.000000000000 8000.0000000000000 -3166.6666666669998 -35924107.005700670 -12973287.345177062 -77590835.442769408 1.5577019214722709e-05 -0.0010853230331330840 0.00046262434583231772 0.0000000000000000 -0.59999999967724471 -3.9638231152739021 
10000.000000000000 7000.0000000000000 -3166.6666666669998 -35924107.006027892 -12973287.345393792 -77590835.444221586 1.9214230761930251e-05 -0.00086036635670696453 0.00043916842054323981 0.0000000000000000 -0.89999999951383269 -3.9638231154266630 
10000.000000000000 8000.0000000000000 -3000.0000000000000 -34773212.403387718 -11822392.741771836 -73510390.941376925 1.2980694866232778e-05 -0.0011239913230101988 0.00048039412506069155 0.0000000000000000 -0.59999999970771400 -4.2348500453318652 
10000.000000000000 7000.0000000000000 -3000.0000000000000 -34773212.403644271 -11822392.741957175 -73510390.942498505 1.3764354821812484e-05 -0.00087940285287927810 0.00045589148227849062 0.0000000000000000 -0.89999999955875432 -4.2348500454888862 
10000.000000000000 8000.0000000000000 -2833.3333333330002 -33622214.795230627 -10671395.132496189 -69429581.237406030 1.0506206140010515e-05 -0.0011572948672298414 0.00049508354400430092 0.0000000000000000 -0.59999999973891738 -4.4909844303524276 
10000.000000000000 7000.0000000000000 -2833.3333333330002 -33622214.795422845 -10671395.132655064 -69429581.238224268 8.8852194016048794e-06 -0.00089741664702539133 0.00046980617850554771 0.0000000000000000 -0.89999999960487376 -4.4909844305124933 
10000.000000000000 8000.0000000000000 -2666.6666666669998 -32471114.171991989 -9520294.5081198588 -65348406.298124559 8.1586387051859477e-06 -0.0011855789358614127 0.00050677569520669278 0.0000000000000000 -0.59999999977064389 -4.7322249374411145 
10000.000000000000 7000.0000000000000 -2666.6666666669998 -32471114.172125895 -9520294.5082551688 -65348406.298667163 4.5575683875434224e-06 -0.00091520771316373479 0.00048096090118869279 0.0000000000000000 -0.89999999965192523 -4.7322249376031182 
10000.000000000000 8000.0000000000000 -2500.0000000000000 -31319910.524429582 -8369090.8594070664 -61266866.090781912 5.9349810819158682e-06 -0.0012089232888598156 0.00051550021787812831 0.0000000000000000 -0.59999999980269936 -4.9585702335882695 
10000.000000000000 7000.0000000000000 -2500.0000000000000 -31319910.524510823 -8369090.8595195785 -61266866.091076866 7.4499324868219814e-07 -0.00093314682955262943 0.00048934697171166305 0.0000000000000000 -0.89999999969967004 -4.9585702337512139 
10000.000000000000 8000.0000000000000 -2333.3333333330002 -30168603.843306735 -7217784.1771269999 -57184960.582645968 3.8255947989787536e-06 -0.0012271341223095607 0.00052119674356388270 0.0000000000000000 -0.59999999983490326 -5.1700189856603709 
10000.000000000000 7000.0000000000000 -2333.3333333330002 -30168603.843340620 -7217784.1772152940 -57184960.582721606 -2.6032169055258869e-06 -0.00095119142237213607 0.00049487043884624332 0.0000000000000000 -0.89999999974789313 -5.1700189858233756 
10000.000000000000 8000.0000000000000 -2166.6666666669998 -29017194.119387038 -6066374.4520486007 -53102689.740984522 1.8139974283681975e-06 -0.0012397086180130571 0.00052371567374826379 0.0000000000000000 -0.59999999986708763 -5.3665698604047805 
10000.000000000000 7000.0000000000000 -2166.6666666669998 -29017194.119378518 -6066374.4521089792 -53102689.740869403 -5.5498292993402788e-06 -0.00096886801409052574 0.00049734946822449434 0.0000000000000000 -0.89999999979639866 -5.3665698605670826 
10000.000000000000 8000.0000000000000 -2000.0000000000000 -27865681.343429081 -4914861.6749354051 -49020053.533046797 -1.2554139141190388e-07 -0.0012458385954523365 0.00052282897605324184 0.0000000000000000 -0.59999999989909347 -5.5482215244528694 
10000.000000000000 7000.0000000000000 -2000.0000000000000 -27865681.343382712 -4914861.6749618053 -49020053.532769628 -8.1705527095915886e-06 -0.00098525371371151410 0.00049653339363717294 0.0000000000000000 -0.89999999984500723 -5.5482215246138304 
10000.000000000000 8000.0000000000000 -1833.3333333329999 -26714065.506196916 -3763245.8365561059 -44937051.926100783 -2.0264534259293052e-06 -0.0012444041937564123 0.00051820464827795809 0.0000000000000000 -0.59999999993076836 -5.7149726443129527 
10000.000000000000 7000.0000000000000 -1833.3333333329999 -26714065.506116841 -3763245.8365399921 -44937051.925690234 -1.0557842171051227e-05 -0.00099896191441465948 0.00049208806058658719 0.0000000000000000 -0.89999999989355106 -5.7149726444720583 
10000.000000000000 8000.0000000000000 -1666.6666666670001 -25562346.598454684 -2611526.9276792854 -40853684.887414381 -3.9301443533740719e-06 -0.0012339547093165725 0.00050940790563342971 0.0000000000000000 -0.59999999996196385 -5.8668218863742227 
10000.000000000000 7000.0000000000000 -1666.6666666670001 -25562346.598344639 -2611526.9276095862 -40853684.886899143 -1.2820371316562617e-05 -0.0010081585260392218 0.00048358426636973455 0.0000000000000000 -0.89999999994186963 -5.8668218865310893 
8000.0000000000000 10000.000000000000 -4833.3333333330002 -47427389.737854362 -24476570.084453467 -118375201.50771008 8.9327487114300109e-06 -5.6298440584158663e-05 0.00021231255392006946 0.79999999936944532 0.0000000000000000 -0.43475698866184748 
8000.0000000000000 10000.000000000000 -5000.0000000000000 -48002296.536575563 -25051476.883259594 -120413507.43062045 8.6328521835741696e-06 -2.8939484674635070e-05 0.00010946485881666338 0.79999999936650845 0.0000000000000000 0.0000000000000000 
8000.0000000000000 10000.000000000000 -4666.6666666669998 -46277524.686002381 -23326705.032353844 -114298407.23246303 9.7669720210803426e-06 -0.00010803110628123576 0.00040533913269328686 0.79999999937795763 0.0000000000000000 -0.85463608622559917 
8000.0000000000000 10000.000000000000 -4500.0000000000000 -45127556.720706657 -22176737.066663876 -110221248.08198634 1.0965593938236910e-05 -0.00015412977398700893 0.00057409025402938582 0.79999999939145727 0.0000000000000000 -1.2596359611173851 
8000.0000000000000 10000.000000000000 -4333.3333333330002 -43977485.832723565 -21026666.178157408 -106143724.02354456 1.2318814989776655e-05 -0.00019525073802050753 0.00072072947613401614 0.79999999940937883 0.0000000000000000 -1.6497552816362526 
8000.0000000000000 10000.000000000000 -4166.6666666669998 -42827312.012810558 -19876492.357608028 -102065835.02440247 1.3640345206170972e-05 -0.00023199019501886391 0.00084749467741105614 0.79999999943118560 0.0000000000000000 -2.0249927159621084 
8000.0000000000000 10000.000000000000 -4000.0000000000000 -41677035.251720853 -18726215.595783852 -97987581.051806718 1.4793907747690812e-05 -0.00026486532108241394 0.00095660486548118239 0.79999999945637346 0.0000000000000000 -2.3853469321620775 
8000.0000000000000 10000.000000000000 -3833.3333333330002 -40526655.540213786 -17575835.883457810 -93908962.073022306 1.5692607969004372e-05 -0.00029431515005066278 0.0010502133091826033 0.79999999948447054 0.0000000000000000 -2.7308165981770078 
8000.0000000000000 10000.000000000000 -3666.6666666669998 -39376172.869049624 -16425353.211402604 -89829978.055314571 1.6291479355668939e-05 -0.00032069276274764816 0.0011303852831275152 0.79999999951503897 0.0000000000000000 -3.0614003818286069 
8000.0000000000000 10000.000000000000 -3500.0000000000000 -38225587.228984401 -15274767.570385521 -85750628.965930745 1.6572619658057508e-05 -0.00034428392864967335 0.0011990078517503267 0.79999999954767420 0.0000000000000000 -3.3770969508249968 
8000.0000000000000 10000.000000000000 -3333.3333333330002 -37074898.610780127 -14124078.951178763 -81670914.772136539 1.6536560875346989e-05 -0.00036531085504753244 0.0012577503225890715 0.79999999958200418 0.0000000000000000 -3.6779049727488253 
8000.0000000000000 10000.000000000000 -3166.6666666669998 -35924107.005199581 -12973287.344554286 -77590835.441197872 1.6199488626867597e-05 -0.00038392667438946000 0.0013080295318203578 0.79999999961768908 0.0000000000000000 -3.9638231150636036 
8000.0000000000000 10000.000000000000 -3000.0000000000000 -34773212.403001122 -11822392.741278742 -73510390.940362722 1.5583670506226560e-05 -0.00040022219971603065 0.0013509826975476977 0.79999999965441859 0.0000000000000000 -4.2348500451184590 
8000.0000000000000 10000.000000000000 -2833.3333333330002 -33622214.794948913 -10671395.132123739 -69429581.236897543 1.4713132394685949e-05 -0.00041423401313051559 0.0013874226381415905 0.79999999969191105 0.0000000000000000 -4.4909844301378392 
8000.0000000000000 10000.000000000000 -2666.6666666669998 -32471114.171807680 -9520294.5078607127 -65348406.298069023 1.3614058545372423e-05 -0.00042594381316693968 0.0014178335093032153 0.79999999972990921 0.0000000000000000 -4.7322249372270662 
8000.0000000000000 10000.000000000000 -2500.0000000000000 -31319910.524337582 -8369090.8592558904 -61266866.091126025 1.2311091889164344e-05 -0.00043525957177845153 0.0014423861062006253 0.79999999976817993 0.0000000000000000 -4.9585702333762702 
8000.0000000000000 10000.000000000000 -2333.3333333330002 -30168603.843304284 -7217784.1770804627 -57184960.583335660 1.0827836526573414e-05 -0.00044202823983153274 0.0014609110916732992 0.79999999980650971 0.0000000000000000 -5.1700189854517138 
8000.0000000000000 10000.000000000000 -2166.6666666669998 -29017194.119473964 -6066374.4521056339 -53102689.741965599 9.1844754475805237e-06 -0.00044604092650418281 0.0014728631431326384 0.79999999984470249 0.0000000000000000 -5.3665698602005314 
8000.0000000000000 10000.000000000000 -2000.0000000000000 -27865681.343607895 -4914861.6750973621 -49020053.534265205 7.3964444390707789e-06 -0.00044700718975310269 0.0014773479465299874 0.79999999988257464 0.0000000000000000 -5.5482215242538677 
8000.0000000000000 10000.000000000000 -1833.3333333329999 -26714065.506472826 -3763245.8368267976 -44937051.927502528 5.4804628552745597e-06 -0.00044456009768269899 0.0014731125179637814 0.79999999991995385 0.0000000000000000 -5.7149726441197997 
8000.0000000000000 10000.000000000000 -1666.6666666670001 -25562346.598835666 -2611526.9280650644 -40853684.888945557 3.4485340903450214e-06 -0.00043827570335997791 0.0014585048654711542 0.79999999995667381 0.0000000000000000 -5.8668218861872843 
1.4466405410000000e-29 6000.0000000000000 -4833.3333333330002 -47427389.748860806 -24476570.062894866 -118375201.40956116 -7.0185997042438580e-05 -0.00011182053381480072 -0.00029737447163388287 4.0000000000000000 -1.1999999990275791 -0.43475698821828734 
0.0000000000000000 6000.0000000000000 -5000.0000000000000 -48002296.546496786 -25051476.860437877 -120413507.32787284 -7.4841720579914853e-05 -6.0758388424531027e-05 -0.00014675079439530552 4.0000000000000000 -1.1999999990232315 0.0000000000000000 
0.0000000000000000 6000.0000000000000 -4666.6666666669998 -46277524.698851869 -23326705.013136625 -114298407.14293770 -5.8073995213928931e-05 -0.00019638204425062128 -0.00060058842659204835 4.0000000000000000 -1.1999999990400796 -0.85463608537689362 
0.0000000000000000 6000.0000000000000 -4500.0000000000000 -45127556.734812550 -22176737.049449582 -110221248.00000860 -4.2195633613880986e-05 -0.00024917184872322979 -0.00089973817687570416 4.0000000000000000 -1.1999999990597217 -1.2596359598971436 
0.0000000000000000 6000.0000000000000 -4333.3333333330002 -43977485.847616248 -21026666.162662607 -106143723.94816989 -2.5466278146116385e-05 -0.00027642474499912836 -0.0011841441557778197 4.0000000000000000 -1.1999999990856189 -1.6497552800738602 
0.0000000000000000 6000.0000000000000 -4166.6666666669998 -42827312.028106175 -19876492.343592975 -102065834.95480303 -9.5657201171145754e-06 -0.00028360064149883458 -0.0014512080584896741 4.0000000000000000 -1.1999999991169898 -2.0249927140832074 
0.0000000000000000 6000.0000000000000 -4000.0000000000000 -41677035.267101064 -18726215.583045505 -97987580.987264574 4.6141286654516792e-06 -0.00027558475214538650 -0.0017021444087570018 4.0000000000000000 -1.1999999991531409 -2.3853469299890646 
1.1320936680000000e-30 6000.0000000000000 -3833.3333333330002 -40526655.555410296 -17575835.871823303 -93908962.012919039 1.6678967421742492e-05 -0.00025675034970281622 -0.0019395420621111372 4.0000000000000000 -1.1999999991934562 -2.7308165957295341 
1.2938213350000000e-30 6000.0000000000000 -3666.6666666669998 -39376172.883831970 -16425353.200722940 -89829977.999118358 2.6535785685545628e-05 -0.00023106794971162919 -0.0021661574234489848 4.0000000000000000 -1.1999999992373891 -3.0614003791240072 
0.0000000000000000 6000.0000000000000 -3500.0000000000000 -38225587.243151009 -15274767.560530612 -85750628.913185686 3.4267169169218390e-05 -0.00020208906411916080 -0.0023842277567283914 4.0000000000000000 -1.1999999992844552 -3.3770969478786643 
0.0000000000000000 6000.0000000000000 -3333.3333333330002 -37074898.624151617 -14124078.942033522 -81670914.722454116 4.0045759850354424e-05 -0.00017293505099340108 -0.0025952205534733692 4.0000000000000000 -1.1999999993342270 -3.6779049695745303 
-6.4761696799999999e-29 6000.0000000000000 -3166.6666666669998 -35924107.017613441 -12973287.336015433 -77590835.394249707 4.4079122458389094e-05 -0.00014632316425756977 -0.0027998040879648367 4.0000000000000000 -1.1999999993863280 -3.9638231116737841 
-1.0097419600000000e-28 6000.0000000000000 -3000.0000000000000 -34773212.414307438 -11822392.733252162 -73510390.895874709 4.6582538748338695e-05 -0.00012450340113529470 -0.0029978768273354098 4.0000000000000000 -1.1999999994404291 -4.2348500415244725 
-1.0097419600000000e-28 6000.0000000000000 -2833.3333333330002 -33622214.805006877 -10671395.124522401 -69429581.194645256 4.7756790243167549e-05 -0.00010926830551554235 -0.0031885618564263191 4.0000000000000000 -1.1999999994962431 -4.4909844263501935 
-1.2720451700000000e-28 6000.0000000000000 -2666.6666666669998 -32471114.180482477 -9520294.5006028488 -65348406.257873774 4.7778038967225513e-05 -0.00010195821677973338 -0.0033702511317874541 4.0000000000000000 -1.1999999995535193 -4.7322249332556314 
-1.3629055399999999e-28 6000.0000000000000 -2500.0000000000000 -31319910.531497575 -8369090.8522634106 -61266866.052851506 4.6795605720484704e-05 -0.00010343377594542247 -0.0035406969751214505 4.0000000000000000 -1.1999999996120401 -4.9585702292304710 
-2.0194839200000000e-28 6000.0000000000000 -2333.3333333330002 -30168603.848818637 -7217784.1702778228 -57184960.546886191 4.4925822146778900e-05 -0.00011404770974910374 -0.0036970541472153388 4.0000000000000000 -1.1999999996716153 -5.1700189811407160 
-9.7243917399999999e-29 6000.0000000000000 -2166.6666666669998 -29017194.123210013 -6066374.4454185003 -53102689.707283512 4.2259237456748183e-05 -0.00013365007947332730 -0.0038357929923489797 4.0000000000000000 -1.1999999997320767 -5.3665698557334194 
0.0000000000000000 6000.0000000000000 -2000.0000000000000 -27865681.345428787 -4914861.6684516352 -49020053.501329802 3.8868384053670947e-05 -0.00016158300434801083 -0.0039527555785279474 4.0000000000000000 -1.1999999997932751 -5.5482215196398128 
0.0000000000000000 6000.0000000000000 -1833.3333333329999 -26714065.506235067 -3763245.8301476678 -44937051.896329194 3.4810283917840641e-05 -0.00019665005727805072 -0.0040431004598267418 4.0000000000000000 -1.1999999998550743 -5.7149726393682352 
0.0000000000000000 6000.0000000000000 -1666.6666666670001 -25562346.596386317 -2611526.9212759025 -40853684.859584637 3.0132797882223648e-05 -0.00023708299450001647 -0.0041011386574843108 4.0000000000000000 -1.1999999999173458 -5.8668218813080664 
0.0000000000000000 9000.0000000000000 -4833.3333333330002 -47427389.744687326 -24476570.060113564 -118375201.39273956 -1.1287411782911084e-05 -0.00010212165248119542 -0.00036775227824579310 4.0000000000000000 -0.29999999975370617 -0.43475698815079922 
0.0000000000000000 9000.0000000000000 -5000.0000000000000 -48002296.542114131 -25051476.857440848 -120413507.31024626 -1.2353336789547023e-05 -5.2115680804328750e-05 -0.00018226387612955831 4.0000000000000000 -0.29999999975261527 0.0000000000000000 
0.0000000000000000 9000.0000000000000 -4666.6666666669998 -46277524.695074752 -23326705.010764953 -114298407.12768900 -8.5061704219853273e-06 -0.00019806834104785137 -0.00073785867975313581 4.0000000000000000 -0.29999999975686836 -0.85463608524851020 
0.0000000000000000 9000.0000000000000 -4500.0000000000000 -45127556.731394187 -22176737.047444046 -110221247.98625927 -4.8430254336611315e-06 -0.00028617844741594272 -0.0010959260908948649 4.0000000000000000 -0.29999999976189068 -1.2596359597141529 
0.0000000000000000 9000.0000000000000 -4333.3333333330002 -43977485.844529323 -21026666.160980273 -106143723.93584797 -9.6822201261038371e-07 -0.00036698741790876205 -0.0014281589103591753 4.0000000000000000 -0.29999999976857866 -1.6497552798422321 
0.0000000000000000 9000.0000000000000 -4166.6666666669998 -42827312.025329530 -19876492.342191909 -102065834.94383824 2.7203374355779454e-06 -0.00044095439645541859 -0.0017310877745088295 4.0000000000000000 -0.29999999977675090 -2.0249927138085919 
0.0000000000000000 9000.0000000000000 -4000.0000000000000 -41677035.264617041 -18726215.581885315 -97987580.977587894 6.0057586689859266e-06 -0.00050849162427129072 -0.0020063051851279350 4.0000000000000000 -0.29999999978623698 -2.3853469296768015 
0.0000000000000000 9000.0000000000000 -3833.3333333330002 -40526655.553203210 -17575835.870865803 -93908962.004462689 8.7804251102309500e-06 -0.00056997859988832072 -0.0022574206828636072 4.0000000000000000 -0.29999999979687592 -2.7308165953846610 
0.0000000000000000 9000.0000000000000 -3666.6666666669998 -39376172.881887235 -16425353.199932793 -89829977.991815418 1.1002626461692121e-05 -0.00062577136874586165 -0.0024884632215868190 4.0000000000000000 -0.29999999980851544 -3.0614003787512711 
0.0000000000000000 9000.0000000000000 -3500.0000000000000 -38225587.241454512 -15274767.559875865 -85750628.906969503 1.2674317147751836e-05 -0.00067618804725875137 -0.0027030866167734114 4.0000000000000000 -0.29999999982101144 -3.3770969474825265 
0.0000000000000000 9000.0000000000000 -3333.3333333330002 -37074898.622689530 -14124078.941486176 -81670914.717258170 1.3823027474919115e-05 -0.00072149690187001440 -0.0029041666980229603 4.0000000000000000 -0.29999999983422709 -3.6779049691591723 
0.0000000000000000 9000.0000000000000 -3166.6666666669998 -35924107.016372241 -12973287.335551994 -77590835.390007406 1.4487179413112852e-05 -0.00076190776763510059 -0.0030936607432468857 4.0000000000000000 -0.29999999984803299 -3.9638231112431073 
0.0000000000000000 9000.0000000000000 -3000.0000000000000 -34773212.413273863 -11822392.732854016 -73510390.892518997 1.4707880096123671e-05 -0.00079755485067589844 -0.0032726676318934984 4.0000000000000000 -0.29999999986230647 -4.2348500410820940 
0.0000000000000000 9000.0000000000000 -2833.3333333330002 -33622214.804168031 -10671395.124176241 -69429581.192108542 1.4527602671941966e-05 -0.00082848591809631849 -0.0034414123275821155 4.0000000000000000 -0.29999999987693077 -4.4909844258994474 
0.0000000000000000 9000.0000000000000 -2666.6666666669998 -32471114.179825969 -9520294.5003010184 -65348406.256087832 1.3988698787930447e-05 -0.00085464948834469007 -0.0035992691645662257 4.0000000000000000 -0.29999999989179482 -4.7322249327995562 
0.0000000000000000 9000.0000000000000 -2500.0000000000000 -31319910.531011630 -8369090.8520042077 -61266866.051747352 1.3129315301872484e-05 -0.00087587416222126800 -0.0037449129806285258 4.0000000000000000 -0.29999999990679227 -4.9585702287718059 
0.0000000000000000 9000.0000000000000 -2333.3333333330002 -30168603.848492201 -7217784.1700657615 -57184960.546393812 1.1987004586337431e-05 -0.00089186548469059337 -0.0038762816948876046 4.0000000000000000 -0.29999999992182058 -5.1700189806818928 
0.0000000000000000 9000.0000000000000 -2166.6666666669998 -29017194.123032913 -6066374.4452646375 -53102689.707332015 1.0599516886345440e-05 -0.00090219528059782878 -0.0039905421765359010 4.0000000000000000 -0.29999999993678045 -5.3665698552765493 
0.0000000000000000 9000.0000000000000 -2000.0000000000000 -27865681.345391840 -4914861.6683738306 -49020053.501847327 8.9996747286026167e-06 -0.00090628680382061040 -0.0040841568549552449 4.0000000000000000 -0.29999999995157445 -5.5482215191866793 
0.0000000000000000 9000.0000000000000 -1833.3333333329999 -26714065.506330021 -3763245.8301707339 -44937051.897242337 7.2198484839077691e-06 -0.00090341007164494453 -0.0041527945868563912 4.0000000000000000 -0.29999999996610610 -5.7149726389202815 
0.0000000000000000 9000.0000000000000 -1666.6666666670001 -25562346.596606117 -2611526.9214321044 -40853684.860819146 5.2929283721738541e-06 -0.00089268117741879893 -0.0041911722055747369 4.0000000000000000 -0.29999999998027838 -5.8668218808663823 
3000.0000000000000 1000.0000000000000 -4833.3333333330002 -47427389.758436680 -24476570.065052003 -118375201.52865762 -8.6874958758669389e-05 0.00023733973226919709 -0.00034290743502076316 2.7999999985904647 -2.6999999994983166 -0.43475698875929047 
3000.0000000000000 1000.0000000000000 -5000.0000000000000 -48002296.557527319 -25051476.864052866 -120413507.45265524 -9.3150941766508461e-05 0.00011443907368520025 -0.00016081640655200385 2.7999999985847759 -2.6999999994959469 0.0000000000000000 
3000.0000000000000 1000.0000000000000 -4666.6666666669998 -46277524.705836423 -23326705.012711227 -114298407.25141735 -7.0656496073066301e-05 0.00049702283287993262 -0.00074562522898990568 2.7999999986067547 -2.6999999995048758 -0.85463608641185640 
3000.0000000000000 1000.0000000000000 -4500.0000000000000 -45127556.739769854 -22176737.047052801 -110221248.09928629 -4.9574557662440318e-05 0.00077927272412927750 -0.0012171976985702248 2.7999999986321527 -2.6999999995146675 -1.2596359613851702 
3000.0000000000000 1000.0000000000000 -4333.3333333330002 -43977485.850987315 -21026666.158806670 -106143724.03948425 -2.7433904439569580e-05 0.0010752501416244618 -0.0017415008799250187 2.7999999986653026 -2.6999999995269737 -1.6497552819794823 
3000.0000000000000 1000.0000000000000 -4166.6666666669998 -42827312.030242369 -19876492.338709664 -102065835.03923553 -6.2601323830966090e-06 0.0013786882426762943 -0.0023032680108995150 2.7999999987050370 -2.6999999995412631 -2.0249927163757757 
3000.0000000000000 1000.0000000000000 -4000.0000000000000 -41677035.268286444 -18726215.577499069 -97987581.065749079 1.2935859398895632e-05 0.0016850374675243193 -0.0028886744931892511 2.7999999987503910 -2.6999999995571526 -2.3853469326421224 
3000.0000000000000 1000.0000000000000 -3833.3333333330002 -40526655.555879280 -17575835.865922436 -93908962.086256236 2.9715248825138830e-05 0.0019908509509760988 -0.0034855070229495278 2.7999999988005899 -2.6999999995743660 -2.7308165987201787 
3000.0000000000000 1000.0000000000000 -3666.6666666669998 -39376172.883783221 -16425353.194731709 -89829978.067992479 4.3966661477408573e-05 0.0022934053085338856 -0.0040830190119913630 2.7999999988550361 -2.6999999995927197 -3.0614003824323381 
3000.0000000000000 1000.0000000000000 -3500.0000000000000 -38225587.242757499 -15274767.554677401 -85750628.978178546 5.5765080600215859e-05 0.0025903572929780296 -0.0046717901972776520 2.7999999989132900 -2.6999999996120998 -3.3770969514872951 
3000.0000000000000 1000.0000000000000 -3333.3333333330002 -37074898.623568289 -14124078.936518412 -81670914.784056991 6.5271806955422072e-05 0.0028795957857737885 -0.0052433611080205224 2.7999999989750530 -2.6999999996324542 -3.6779049734681637 
3000.0000000000000 1000.0000000000000 -3166.6666666669998 -35924107.016982935 -12973287.331016287 -77590835.452872857 7.2687406836308217e-05 0.0031590998843381954 -0.0057900024505470968 2.7999999990401530 -2.6999999996537802 -3.9638231158388324 
3000.0000000000000 1000.0000000000000 -3000.0000000000000 -34773212.413764641 -11822392.728929710 -73510390.951855123 7.8215942282785960e-05 0.0034267580743916038 -0.0063044981845502852 2.7999999991085258 -2.6999999996761197 -4.2348500459487113 
3000.0000000000000 1000.0000000000000 -2833.3333333330002 -33622214.804682635 -10671395.121024629 -69429581.248253077 8.2043517541995900e-05 0.0036802961141279953 -0.0067798945444493483 2.7999999991802125 -2.6999999996995565 -4.4909844310224516 
3000.0000000000000 1000.0000000000000 -2666.6666666669998 -32471114.180506855 -9520294.4980687555 -65348406.309317417 8.4323442105944558e-05 0.0039171947053896587 -0.0072093210863225701 2.7999999992553408 -2.6999999997242128 -4.7322249381654986 
3000.0000000000000 1000.0000000000000 -2500.0000000000000 -31319910.532002673 -8369090.8508262653 -61266866.102281451 8.5165243583315616e-05 0.0041346035823090835 -0.0075858183583598386 2.7999999993341227 -2.6999999997502488 -4.9585702343680298 
3000.0000000000000 1000.0000000000000 -2333.3333333330002 -30168603.849941313 -7217784.1700680330 -57184960.594397627 8.4641141947202004e-05 0.0043291973768500649 -0.0079022087630526618 2.7999999994168472 -2.6999999997778623 -5.1700189864962773 
3000.0000000000000 1000.0000000000000 -2166.6666666669998 -29017194.125094730 -6066374.4465664076 -53102689.752918839 8.2777672934689035e-05 0.0044971138409456999 -0.0081509159794898589 2.7999999995038749 -2.6999999998072899 -5.3665698612972683 
3000.0000000000000 1000.0000000000000 -2000.0000000000000 -27865681.348230500 -4914861.6710899798 -49020053.545079708 7.9550550306026777e-05 0.0046338308462058175 -0.0083238466356319821 2.7999999995956384 -2.6999999998388109 -5.5482215254019573 
3000.0000000000000 1000.0000000000000 -1833.3333333329999 -26714065.510122303 -3763245.8344139103 -44937051.938132808 7.4894521281258032e-05 0.0047340331498001067 -0.0084122683633385004 2.7999999996926372 -2.6999999998727464 -5.7149726453181575 
3000.0000000000000 1000.0000000000000 -1666.6666666670001 -25562346.601544973 -2611526.9273148859 -40853684.899330311 6.8702200134192849e-05 0.0047914036355510897 -0.0084066833058000275 2.7999999997954395 -2.6999999999094690 -5.8668218874344564 
10000.000000000000 6000.0000000000000 -4833.3333333330002 -47427389.743866034 -24476570.089199677 -118375201.53315917 0.00012843645976800983 -9.4228291303592813e-05 6.7402178132482766e-05 0.0000000000000000 -1.1999999989776191 -0.43475698875906849 
10000.000000000000 6000.0000000000000 -5000.0000000000000 -48002296.542919829 -25051476.888336103 -120413507.45728894 0.00013058541706965904 -5.2523277224283336e-05 3.5172310659522237e-05 0.0000000000000000 -1.1999999989729946 0.0000000000000000 
10000.000000000000 6000.0000000000000 -4666.6666666669998 -46277524.691371426 -23326705.036466148 -114298407.25551641 0.00012237137407825104 -0.00015789897340178844 0.00012653687903322716 0.0000000000000000 -1.1999999989909469 -0.85463608641125377 
10000.000000000000 6000.0000000000000 -4500.0000000000000 -45127556.725477427 -22176737.070196882 -110221248.10273226 0.00011329239936140825 -0.00018574451502504456 0.00017610547795774141 0.0000000000000000 -1.1999999990119365 -1.2596359613829105 
10000.000000000000 6000.0000000000000 -4333.3333333330002 -43977485.836939014 -21026666.181167331 -106143724.04207486 0.00010221005980934184 -0.00018479817093617121 0.00021807991100031488 0.0000000000000000 -1.1999999990396399 -1.6497552819733416 
10000.000000000000 6000.0000000000000 -4166.6666666669998 -42827312.016512237 -19876492.360151246 -102065835.04081255 9.0022984478712025e-05 -0.00016154015281235137 0.00025403728234408163 0.0000000000000000 -1.1999999990732009 -2.0249927163627341 
10000.000000000000 6000.0000000000000 -4000.0000000000000 -41677035.254948854 -18726215.597915616 -97987581.066195190 7.7459212073469901e-05 -0.00012191913138479390 0.00028517635883908989 0.0000000000000000 -1.1999999991118488 -2.3853469326185177 
10000.000000000000 6000.0000000000000 -3833.3333333330002 -40526655.543006651 -17575835.885231275 -93908962.085491285 6.5067824758780008e-05 -7.1334962520923985e-05 0.00031239886607228244 0.0000000000000000 -1.1999999991548957 -2.7308165986818635 
10000.000000000000 6000.0000000000000 -3666.6666666669998 -39376172.871444143 -16425353.212867763 -89829978.065969184 5.3233576836593157e-05 -1.4649615337981349e-05 0.00033637705660227274 0.0000000000000000 -1.1999999992017305 -3.0614003823748281 
10000.000000000000 6000.0000000000000 -3500.0000000000000 -38225587.231015339 -15274767.571588336 -85750628.974878937 4.2208269679159700e-05 4.3823568452466729e-05 0.00035759178131316682 0.0000000000000000 -1.1999999992518144 -3.3770969514059006 
10000.000000000000 6000.0000000000000 -3333.3333333330002 -37074898.612480044 -14124078.952160502 -81670914.779489055 3.2139582092254828e-05 0.00010035524164151981 0.00037637991631671655 0.0000000000000000 -1.1999999993046753 -3.6779049733581157 
10000.000000000000 6000.0000000000000 -3166.6666666669998 -35924107.006598547 -12973287.345350852 -77590835.447067752 2.3094610193929882e-05 0.00015175433951536443 0.00039296057237343351 0.0000000000000000 -1.1999999993599024 -3.9638231156953929 
10000.000000000000 6000.0000000000000 -3000.0000000000000 -34773212.404126525 -11822392.741920136 -73510390.944864959 1.5080789822598882e-05 0.00019540833474894790 0.00040744300979062036 0.0000000000000000 -1.1999999994171420 -4.2348500457672840 
10000.000000000000 6000.0000000000000 -2833.3333333330002 -33622214.795825265 -10671395.132633647 -69429581.240148872 8.0657046107968277e-06 0.00022925585463594601 0.00041983292868343856 0.0000000000000000 -1.1999999994760897 -4.4909844307986830 
10000.000000000000 6000.0000000000000 -2666.6666666669998 -32471114.172456492 -9520294.5082561877 -65348406.300187603 1.9883230575168419e-06 0.00025176485263313757 0.00043007448736340643 0.0000000000000000 -1.1999999995364874 -4.7322249378953716 
10000.000000000000 6000.0000000000000 -2500.0000000000000 -31319910.524777077 -8369090.8595468737 -61266866.092230678 -3.2351243128566254e-06 0.00026197607087065041 0.00043804389404815066 0.0000000000000000 -1.1999999995981163 -4.9585702340479578 
10000.000000000000 6000.0000000000000 -2333.3333333330002 -30168603.843549438 -7217784.1772696683 -57184960.583546013 -7.7017060875003136e-06 0.00025945732814438064 0.00044353183439919730 0.0000000000000000 -1.1999999996607915 -5.1700189861231927 
10000.000000000000 6000.0000000000000 -2166.6666666669998 -29017194.119536329 -6066374.4521882161 -53102689.741401479 -1.1520981118116459e-05 0.00024427883098844825 0.00044625731565063419 0.0000000000000000 -1.1999999997243576 -5.3665698608687169 
10000.000000000000 6000.0000000000000 -2000.0000000000000 -27865681.343495455 -4914861.6750606243 -49020053.533046320 -1.4817907593104101e-05 0.00021702647625820442 0.00044589561175347755 0.0000000000000000 -1.1999999997886825 -5.5482215249161850 
10000.000000000000 6000.0000000000000 -1833.3333333329999 -26714065.506189942 -3763245.8366499175 -44937051.925748125 -1.7738189065177006e-05 0.00017882101351494103 0.00044206959864519495 0.0000000000000000 -1.1999999998536535 -5.7149726447742060 
10000.000000000000 6000.0000000000000 -1666.6666666670001 -25562346.598383024 -2611526.9277188326 -40853684.886774406 -2.0450364262159738e-05 0.00013129985464620301 0.00043433484091551922 0.0000000000000000 -1.1999999999191711 -5.8668218868322635 
10000.000000000000 9000.0000000000000 -4833.3333333330002 -47427389.739472091 -24476570.086255129 -118375201.51404607 1.3074329324954306e-05 -0.00010230771507097796 6.7584121850986924e-05 0.0000000000000000 -0.29999999973784136 -0.43475698868497398 
10000.000000000000 9000.0000000000000 -5000.0000000000000 -48002296.538285717 -25051476.885153376 -120413507.43728817 1.3116497853513875e-05 -5.2387189578388806e-05 3.4553185118223423e-05 0.0000000000000000 -0.29999999973665881 0.0000000000000000 
10000.000000000000 9000.0000000000000 -4666.6666666669998 -46277524.687439911 -23326705.033975437 -114298407.23814580 1.2963280354839741e-05 -0.00019733932339598581 0.00013063895371766130 0.0000000000000000 -0.29999999974127589 -0.85463608626946364 
10000.000000000000 9000.0000000000000 -4500.0000000000000 -45127556.721974112 -22176737.068113804 -110221248.08703732 1.2804225618867210e-05 -0.00028299440890985580 0.00018783462783698515 0.0000000000000000 -0.29999999974674091 -1.2596359611796684 
10000.000000000000 9000.0000000000000 -4333.3333333330002 -43977485.833832584 -21026666.179444194 -106143724.02798694 1.2597908874450442e-05 -0.00035980105152639641 0.00023946852740954448 0.0000000000000000 -0.29999999975402314 -1.6497552817147121 
10000.000000000000 9000.0000000000000 -4166.6666666669998 -42827312.013773687 -19876492.358740281 -102065835.02826115 1.2332027315175222e-05 -0.00042835944698911376 0.00028583990500986845 0.0000000000000000 -0.29999999976291786 -2.0249927160545838 
10000.000000000000 9000.0000000000000 -4000.0000000000000 -41677035.252551071 -18726215.596770249 -97987581.055108130 1.1991809936162171e-05 -0.00048931347919578148 0.00032724953370605553 0.0000000000000000 -0.29999999977323016 -2.3853469322664971 
10000.000000000000 9000.0000000000000 -3833.3333333330002 -40526655.540924035 -17575835.884307094 -93908962.075794473 1.1566609810980027e-05 -0.00054331394022271828 0.00036400800728836710 0.0000000000000000 -0.29999999978477493 -2.7308165982913946 
10000.000000000000 9000.0000000000000 -3666.6666666669998 -39376172.869652405 -16425353.212123498 -89829978.057587072 1.1052207396401792e-05 -0.00059099317487951446 0.00039643679558896522 0.0000000000000000 -0.29999999979737779 -3.0614003819510844 
10000.000000000000 9000.0000000000000 -3500.0000000000000 -38225587.229491375 -15274767.570986651 -85750628.967734590 1.0449987799583016e-05 -0.00063293796871182698 0.00042484685689999431 0.0000000000000000 -0.29999999981087472 -3.3770969509537996 
10000.000000000000 9000.0000000000000 -3333.3333333330002 -37074898.611201778 -14124078.951668549 -81670914.773504019 9.7656016675724388e-06 -0.00066967012178673665 0.00044952936921141247 0.0000000000000000 -0.29999999982511233 -3.6779049728823021 
10000.000000000000 9000.0000000000000 -3166.6666666669998 -35924107.005544960 -12973287.344940864 -77590835.442162439 9.0073943577684242e-06 -0.00070163572886593976 0.00047074254565716530 0.0000000000000000 -0.29999999983994763 -3.9638231152002250 
10000.000000000000 9000.0000000000000 -3000.0000000000000 -34773212.403277621 -11822392.741569811 -73510390.940958768 8.1845495819003167e-06 -0.00072917572765359947 0.00048870446250670564 0.0000000000000000 -0.29999999985524767 -4.2348500452568230 
10000.000000000000 9000.0000000000000 -2833.3333333330002 -33622214.795162067 -10671395.132326473 -69429581.237160251 7.3070824631354485e-06 -0.00075252076105551723 0.00050357005041755788 0.0000000000000000 -0.29999999987088855 -4.4909844302766793 
10000.000000000000 9000.0000000000000 -2666.6666666669998 -32471114.171961088 -9520294.5079817362 -65348406.298034333 6.3847642555241650e-06 -0.00077177587504293843 0.00051542835893547191 0.0000000000000000 -0.29999999988675513 -4.7322249373652525 
10000.000000000000 9000.0000000000000 -2500.0000000000000 -31319910.524432682 -8369090.8593010567 -61266866.090830125 5.4239234060453352e-06 -0.00078691558919851562 0.00052430568773917060 0.0000000000000000 -0.29999999990273984 -4.9585702335128197 
10000.000000000000 9000.0000000000000 -2333.3333333330002 -30168603.843340345 -7217784.1770548522 -57184960.582815006 4.4300100857120320e-06 -0.00079778232762248733 0.00053013794698327605 0.0000000000000000 -0.29999999991874204 -5.1700189855857888 
10000.000000000000 9000.0000000000000 -2166.6666666669998 -29017194.119447943 -6066374.4520134460 -53102689.741256677 3.4065217768781836e-06 -0.00080406496539327666 0.00053276920623367043 0.0000000000000000 -0.29999999993466625 -5.3665698603314453 
10000.000000000000 9000.0000000000000 -2000.0000000000000 -27865681.343514394 -4914861.6749418480 -49020053.533404440 2.3517262277377253e-06 -0.00080529959228572284 0.00053196675360243516 0.0000000000000000 -0.29999999995042176 -5.5482215243810868 
10000.000000000000 9000.0000000000000 -1833.3333333329999 -26714065.506303973 -3763245.8366101654 -44937051.926526010 1.2608033348182684e-06 -0.00080087559474535783 0.00052739513627088536 0.0000000000000000 -0.29999999996592075 -5.7149726442429518 
10000.000000000000 9000.0000000000000 -1666.6666666670001 -25562346.598581057 -2611526.9277884462 -40853684.887889087 1.2719553567160330e-07 -0.00079001473000887281 0.00051859822699692484 0.0000000000000000 -0.29999999998107701 -5.8668218863061501 
4000.0000000000000 5000.0000000000000 -4833.3333333330002 -47427389.743936226 -24476570.075424597 -118375201.48546365 0.00031476974600611225 4.4403102146374355e-05 -0.00023977240915798819 2.3999999985120328 -1.4999999988309833 -0.43475698856214334 
4000.0000000000000 5000.0000000000000 -5000.0000000000000 -48002296.542454153 -25051476.873946685 -120413507.40740301 0.00031970421281216527 1.5637030110457069e-05 -0.00011245287862439107 2.3999999985057432 -1.4999999988257318 0.0000000000000000 
4000.0000000000000 5000.0000000000000 -4666.6666666669998 -46277524.692407183 -23326705.023884080 -114298407.21208137 0.00030138596239321177 0.00012532002247544075 -0.00052098149999477790 2.3999999985300255 -1.4999999988460468 -0.85463608603429642 
4000.0000000000000 5000.0000000000000 -4500.0000000000000 -45127556.727278359 -22176737.058739431 -110221248.06332119 0.00028249291333338371 0.00024756495085046529 -0.00084931176616253722 2.3999999985581115 -1.4999999988696204 -1.2596359608420302 
4000.0000000000000 5000.0000000000000 -4333.3333333330002 -43977485.839325972 -21026666.170771051 -106143724.00645895 0.00026065752523038899 0.00040078103317442828 -0.0012132793710207541 2.3999999985949221 -1.4999999989005539 -1.6497552812838490 
4000.0000000000000 5000.0000000000000 -4166.6666666669998 -42827312.019323297 -19876492.350756176 -102065835.00876981 0.00023762212055660427 0.00057567477842942485 -0.0016023179239613588 2.3999999986392884 -1.4999999989378383 -2.0249927155391449 
4000.0000000000000 5000.0000000000000 -4000.0000000000000 -41677035.258037172 -18726215.589464385 -97987581.037510023 0.00021451896713282524 0.00076396493989115406 -0.0020066009523701731 2.3999999986902121 -1.4999999989805970 -2.3853469316745595 
4000.0000000000000 5000.0000000000000 -3833.3333333330002 -40526655.546239421 -17575835.877668489 -93908962.059954166 0.00019203029445492113 0.00095828109508354754 -0.0024168937871545978 2.3999999987468441 -1.4999999990280732 -2.7308165976304943 
4000.0000000000000 5000.0000000000000 -3666.6666666669998 -39376172.874702081 -16425353.206139719 -89829978.043376461 0.00017052257965899316 0.0011521096995000802 -0.0028245248521452946 2.3999999988084806 -1.4999999990796231 -3.0614003812282506 
4000.0000000000000 5000.0000000000000 -3500.0000000000000 -38225587.234192505 -15274767.565642821 -85750628.955032468 0.00015014758744335302 0.0013397510406671057 -0.0032214573529379615 2.3999999988745429 -1.4999999991347015 -3.3770969501755834 
4000.0000000000000 5000.0000000000000 -3333.3333333330002 -37074898.615483798 -14124078.946946718 -81670914.762196034 0.00013090891769802659 0.0015162239399943971 -0.0036002819104838492 2.3999999989445731 -1.4999999991928581 -3.6779049720548049 
4000.0000000000000 5000.0000000000000 -3166.6666666669998 -35924107.009349681 -12973287.340819510 -77590835.432140872 0.00011271763543499864 0.0016772130353885227 -0.0039541500308174909 2.3999999990182217 -1.4999999992537225 -3.9638231143291343 
4000.0000000000000 5000.0000000000000 -3000.0000000000000 -34773212.406559139 -11822392.738023359 -73510390.932121933 9.5438940915028064e-05 0.0018190256936588189 -0.0042767540817532602 2.3999999990952414 -1.4999999993169988 -4.2348500443474357 
4000.0000000000000 5000.0000000000000 -2833.3333333330002 -33622214.797886901 -10671395.129325077 -69429581.229412645 7.8915494296715876e-05 0.0019385279484435899 -0.0045623380161836256 2.3999999991754764 -1.4999999993824544 -4.4909844293339241 
4000.0000000000000 5000.0000000000000 -2666.6666666669998 -32471114.174108170 -9520294.5054909773 -65348406.291286230 6.2983769620990923e-05 0.0020331204222571444 -0.0048055613469192935 2.3999999992588532 -1.4999999994499140 -4.7322249363937168 
4000.0000000000000 5000.0000000000000 -2500.0000000000000 -31319910.525993340 -8369090.8572816746 -61266866.084997110 4.7490335895218975e-05 0.0021007104716030387 -0.0050014692367061162 2.3999999993453724 -1.4999999995192523 -4.9585702325167640 
4000.0000000000000 5000.0000000000000 -2333.3333333330002 -30168603.844318505 -7217784.1754625607 -57184960.577817865 3.2294471092421189e-05 0.0021396730290575016 -0.0051454372536254168 2.3999999994351047 -1.4999999995903848 -5.1700189845691691 
4000.0000000000000 5000.0000000000000 -2166.6666666669998 -29017194.119860310 -6066374.4507986680 -53102689.737020865 1.7270522734897471e-05 0.0021488544218605855 -0.0052331507368159561 2.3999999995281769 -1.4999999996632649 -5.3665698592979174 
4000.0000000000000 5000.0000000000000 -2000.0000000000000 -27865681.343390755 -4914861.6740494352 -49020053.529859662 2.3087271556018020e-06 0.0021275612216299956 -0.0052605622851400330 2.3999999996247698 -1.4999999997378739 -5.5482215233340222 
4000.0000000000000 5000.0000000000000 -1833.3333333329999 -26714065.505687721 -3763245.8359790980 -44937051.923605725 -1.2691545936756850e-05 0.0020755780459387682 -0.0052238984779039172 2.3999999997251105 -1.4999999998142202 -5.7149726431854413 
4000.0000000000000 5000.0000000000000 -1666.6666666670001 -25562346.597529821 -2611526.9273514445 -40853684.885529876 -2.7833499175329804e-05 0.0019931658225920152 -0.0051197456543009929 2.3999999998294643 -1.4999999998923295 -5.8668218852410030 
2000.0000000000000 3000.0000000000000 -4833.3333333330002 -47427389.755280733 -24476570.065048665 -118375201.47797130 0.00012987633940651902 0.00032386675315182597 -0.00045047551803142005 3.1999999988881758 -2.0999999988516422 -0.43475698852843087 
2000.0000000000000 3000.0000000000000 -5000.0000000000000 -48002296.553755045 -25051476.863460697 -120413507.39964604 0.00013016539981410905 0.00015423727427093360 -0.00021600213570925356 3.1999999988831829 -2.0999999988467186 0.0000000000000000 
2000.0000000000000 3000.0000000000000 -4666.6666666669998 -46277524.703788683 -23326705.013745040 -114298407.20506388 0.00012895021302209160 0.00069034584194167044 -0.00095073539146268028 3.1999999989021548 -2.0999999988657030 -0.85463608596781782 
2000.0000000000000 3000.0000000000000 -4500.0000000000000 -45127556.738596439 -22176737.048868056 -110221248.05667378 0.00012730680247498603 0.0011042937245654466 -0.0015035070316694737 3.1999999989233192 -2.0999999988875495 -1.2596359607436385 
2000.0000000000000 3000.0000000000000 -4333.3333333330002 -43977485.850484967 -21026666.161193799 -106143724.00008747 0.00012495346723179318 0.0015522893705249765 -0.0020905881744677549 3.1999999989502355 -2.0999999989159810 -1.6497552811542735 
2000.0000000000000 3000.0000000000000 -4166.6666666669998 -42827312.030238032 -19876492.341496583 -102065835.00259215 0.00012198204093836004 0.0020221624542190180 -0.0026974223547114756 3.1999999989817889 -2.0999999989499667 -2.0249927153789855 
2000.0000000000000 3000.0000000000000 -4000.0000000000000 -41677035.268634215 -18726215.580543458 -97987581.031454712 0.00011850985848656036 0.0025031646170208702 -0.0033124368597866995 3.1999999990171384 -2.0999999989886420 -2.3853469314842806 
2000.0000000000000 3000.0000000000000 -3833.3333333330002 -40526655.556456216 -17575835.869105168 -93908962.053959489 0.00011463804311308891 0.0029859049330878472 -0.0039265188406015870 3.1999999990556671 -2.0999999990313039 -2.7308165974104091 
2000.0000000000000 3000.0000000000000 -3666.6666666669998 -39376172.884485252 -16425353.197951518 -89829978.037390441 0.00011044456350645112 0.0034622560032618621 -0.0045323163601327108 3.1999999990969457 -2.0999999990774003 -3.0614003809785189 
2000.0000000000000 3000.0000000000000 -3500.0000000000000 -38225587.243495606 -15274767.557846416 -85750628.949012682 0.00010598063391693739 0.0039251264746513947 -0.0051236978128323786 3.1999999991407035 -2.0999999991265113 -3.3770969498962229 
2000.0000000000000 3000.0000000000000 -3333.3333333330002 -37074898.624264903 -14124078.939558387 -81670914.756109118 0.00010126750306860562 0.0043682368754448678 -0.0056953759635006854 3.1999999991868009 -2.0999999991783418 -3.6779049717457082 
2000.0000000000000 3000.0000000000000 -3166.6666666669998 -35924107.017569065 -12973287.333855547 -77590835.425962120 9.6299561103903474e-05 0.0047860044531442868 -0.0062424184108422496 3.1999999992352097 -2.0999999992327054 -3.9638231139900890 
2000.0000000000000 3000.0000000000000 -3000.0000000000000 -34773212.414177373 -11822392.731500572 -73510390.925835356 9.1042437230983664e-05 0.0051732774145065909 -0.0067600356417712873 3.1999999992860002 -2.0999999992895115 -4.2348500439781551 
2000.0000000000000 3000.0000000000000 -2833.3333333330002 -33622214.804862894 -10671395.123260990 -69429581.223010212 8.5435724809210139e-05 0.0055251458011380539 -0.0072433291606104309 3.1999999993393256 -2.0999999993487570 -4.4909844289340777 
2000.0000000000000 3000.0000000000000 -2666.6666666669998 -32471114.180397525 -9520294.4999040961 -65348406.284767754 7.9397862202944673e-05 0.0058368435669312645 -0.0076870420378877639 3.1999999993954193 -2.0999999994105174 -4.7322249359629636 
2000.0000000000000 3000.0000000000000 -2500.0000000000000 -31319910.531547122 -8369090.8521918142 -61266866.078370608 7.2825428077906098e-05 0.0061035779078691529 -0.0080853666755151560 3.1999999994545862 -2.0999999994749405 -4.9585702320547904 
2000.0000000000000 3000.0000000000000 -2333.3333333330002 -30168603.849081863 -7217784.1708909236 -57184960.571099497 6.5597442523390276e-05 0.0063204096915215630 -0.0084317859117388205 3.1999999995172033 -2.0999999995422391 -5.1700189840757309 
2000.0000000000000 3000.0000000000000 -2166.6666666669998 -29017194.123771295 -6066374.4467678890 -53102689.730235100 5.7574985193154489e-05 0.0064821635049234130 -0.0087189313375216626 3.1999999995837163 -2.0999999996126895 -5.3665698587728841 
2000.0000000000000 3000.0000000000000 -2000.0000000000000 -27865681.346379258 -4914861.6705835573 -49020053.523039699 4.8600150400019406e-05 0.0065832577203253743 -0.0089383225700820600 3.1999999996546431 -2.0999999996866259 -5.5482215227774248 
2000.0000000000000 3000.0000000000000 -1833.3333333329999 -26714065.507674463 -3763245.8331035040 -44937051.916794308 3.8494401650225646e-05 0.0066176707527338475 -0.0090801806973586814 3.1999999997305797 -2.0999999997644418 -5.7149726425975222 
2000.0000000000000 3000.0000000000000 -1666.6666666670001 -25562346.598425377 -2611526.9250926566 -40853684.878780104 2.7063379596843394e-05 0.0065788796014220217 -0.0091332513383821090 3.1999999998122020 -2.0999999998465864 -5.8668218846222828 
10000.000000000000 3000.0000000000000 -4833.3333333330002 -47427389.753646493 -24476570.087250635 -118375201.58370954 5.8398585876499088e-05 0.00035963558155728233 6.1950625483703014e-05 0.0000000000000000 -2.0999999988168541 -0.43475698897894477 
10000.000000000000 3000.0000000000000 -5000.0000000000000 -48002296.553302355 -25051476.886947036 -120413507.51010238 5.9900906423296249e-05 0.00017138020398953463 3.3809306203869383e-05 0.0000000000000000 -2.0999999988114442 0.0000000000000000 
10000.000000000000 3000.0000000000000 -4666.6666666669998 -46277524.700029053 -23326705.033519879 -114298407.30172549 5.4674206307547467e-05 0.00076468979875010624 0.00010813627028166250 0.0000000000000000 -2.0999999988320708 -0.85463608683371184 
10000.000000000000 3000.0000000000000 -4500.0000000000000 -45127556.733164117 -22176737.066486452 -110221248.14496151 5.0271422776775252e-05 0.0012176657727954686 0.00013676217572204170 0.0000000000000000 -2.0999999988552784 -1.2596359619917290 
10000.000000000000 3000.0000000000000 -4333.3333333330002 -43977485.843786329 -21026666.176901177 -106143724.08066759 4.6351170310217579e-05 0.0017022074779971070 0.00015298861926316007 0.0000000000000000 -2.0999999988850337 -1.6497552827533852 
10000.000000000000 3000.0000000000000 -4166.6666666669998 -42827312.022633694 -19876492.355514016 -102065835.07609028 4.3466415621678289e-05 0.0022053636000762848 0.00016140147546736398 0.0000000000000000 -2.0999999989202025 -2.0249927172999445 
10000.000000000000 3000.0000000000000 -4000.0000000000000 -41677035.260442615 -18726215.593069986 -97987581.098455757 4.1770523746307983e-05 0.0027168081617169222 0.00016554659088129214 0.0000000000000000 -2.0999999989599032 -2.3853469336998780 
10000.000000000000 3000.0000000000000 -3833.3333333330002 -40526655.547957920 -17575835.880320035 -93908962.115007490 4.1178857346864839e-05 0.0032280573364624645 0.00016793164820264899 0.0000000000000000 -2.0999999990034586 -2.7308165998953506 
10000.000000000000 3000.0000000000000 -3666.6666666669998 -39376172.875927225 -16425353.208016153 -89829978.092988744 4.1474190658289676e-05 0.0037318748385298016 0.00017018675539553241 0.0000000000000000 -2.0999999990503651 -3.0614003837093420 
10000.000000000000 3000.0000000000000 -3500.0000000000000 -38225587.235095426 -15274767.566906298 -85750628.999624923 4.2369372568570268e-05 0.0042219736561255484 0.00017322197993283701 0.0000000000000000 -2.0999999991002625 -3.3770969528511943 
10000.000000000000 3000.0000000000000 -3333.3333333330002 -37074898.616214581 -14124078.947744695 -81670914.802160561 4.3566504367314497e-05 0.0046926629220217526 0.00017742978272775495 0.0000000000000000 -2.0999999991529128 -3.6779049749047137 
10000.000000000000 3000.0000000000000 -3166.6666666669998 -35924107.010038376 -12973287.341286555 -77590835.467841178 4.4789803929814478e-05 0.0051385722529318188 0.00018283678283208772 0.0000000000000000 -2.0999999992081810 -3.9638231173345111 
10000.000000000000 3000.0000000000000 -3000.0000000000000 -34773212.407316782 -11822392.738282885 -73510390.963895425 4.5785824418176402e-05 0.0055544892580424920 0.00018920911583767701 0.0000000000000000 -2.0999999992660268 -4.2348500474907516 
10000.000000000000 3000.0000000000000 -2833.3333333330002 -33622214.798806101 -10671395.129490644 -69429581.257571697 4.6334507366992902e-05 0.0059353020240881611 0.00019612773649399420 0.0000000000000000 -2.0999999993264891 -4.4909844325988653 
10000.000000000000 3000.0000000000000 -2666.6666666669998 -32471114.175263636 -9520294.5056674406 -65348406.316119857 4.6254955698881098e-05 0.0062757738879016100 0.00020306577642206116 0.0000000000000000 -2.0999999993896781 -4.7322249397651026 
10000.000000000000 3000.0000000000000 -2500.0000000000000 -31319910.527442448 -8369090.8575663008 -61266866.106773242 4.5402271236716433e-05 0.0065704482354650524 0.00020942504290300508 0.0000000000000000 -2.0999999994557728 -4.9585702359804715 
10000.000000000000 3000.0000000000000 -2333.3333333330002 -30168603.846101567 -7217784.1759458520 -57184960.596785262 4.3667953919980733e-05 0.0068136083442169679 0.00021454767599542272 0.0000000000000000 -2.0999999995250116 -5.1700189881120746 
10000.000000000000 3000.0000000000000 -2166.6666666669998 -29017194.122000746 -6066374.4515650123 -53102689.753411032 4.0971761262707661e-05 0.0069991837928543195 0.00021775565359660916 0.0000000000000000 -2.0999999995976917 -5.3665698629078484 
10000.000000000000 3000.0000000000000 -2000.0000000000000 -27865681.345895208 -4914861.6751776570 -49020053.543889113 3.7252856164894645e-05 0.0071206693127990502 0.00021837887544478408 0.0000000000000000 -2.0999999996741643 -5.5482215269997104 
10000.000000000000 3000.0000000000000 -1833.3333333329999 -26714065.508545995 -3763245.8375428477 -44937051.935478121 3.2465380818208770e-05 0.0071710655792064882 0.00021579121061960119 0.0000000000000000 -2.0999999997548362 -5.7149726468964985 
10000.000000000000 3000.0000000000000 -1666.6666666670001 -25562346.600714795 -2611526.9294195492 -40853684.895438641 2.6567674393141854e-05 0.0071427958407060902 0.00020943967157857775 0.0000000000000000 -2.0999999998401671 -5.8668218889879027 
10000.000000000000 2000.0000000000000 -4833.3333333330002 -47427389.756972350 -24476570.085174352 -118375201.60101777 -2.3295190372996901e-05 0.00033360846692813493 5.6991879380793021e-05 0.0000000000000000 -2.3999999990819632 -0.43475698905840587 
10000.000000000000 2000.0000000000000 -5000.0000000000000 -48002296.556854397 -25051476.885072105 -120413507.52823815 -2.3953626574519922e-05 0.00015976591038936001 3.1153135853354084e-05 0.0000000000000000 -2.3999999990779517 0.0000000000000000 
10000.000000000000 2000.0000000000000 -4666.6666666669998 -46277524.702943720 -23326705.031101320 -114298407.31750838 -2.1103353764116197e-05 0.00070557600810738561 9.9297675878068148e-05 0.0000000000000000 -2.3999999990931791 -0.85463608698561888 
10000.000000000000 2000.0000000000000 -4500.0000000000000 -45127556.735742033 -22176737.063832663 -110221248.15945910 -1.7100116368853141e-05 0.0011193347316110964 0.00012544501711402807 0.0000000000000000 -2.3999999991101628 -1.2596359622102180 
10000.000000000000 2000.0000000000000 -4333.3333333330002 -43977485.846087895 -21026666.174095437 -106143724.09408334 -1.1385837705671339e-05 0.0015627595413145404 0.00014038544246863812 0.0000000000000000 -2.3999999991318246 -1.6497552830335742 
10000.000000000000 2000.0000000000000 -4166.6666666669998 -42827312.024708569 -19876492.352622390 -102065835.08859570 -4.3670380461087853e-06 0.0020261870132387149 0.00014834651768176998 0.0000000000000000 -2.3999999991573371 -2.0249927176377742 
10000.000000000000 2000.0000000000000 -4000.0000000000000 -41677035.262332112 -18726215.590146087 -97987581.110194713 3.4559569108346351e-06 0.0025017992485101472 0.00015248727295888768 0.0000000000000000 -2.3999999991860768 -2.3853469340919711 
10000.000000000000 2000.0000000000000 -3833.3333333330002 -40526655.549696885 -17575835.877408527 -93908962.126100272 1.1604792251090069e-05 0.0029829827666203223 0.00015496536504658228 0.0000000000000000 -2.3999999992175809 -2.7308166003388856 
10000.000000000000 2000.0000000000000 -3666.6666666669998 -39376172.877545394 -16425353.205155348 -89829978.103535295 1.9667764833487352e-05 0.0034639180624195941 0.00015713214475458892 0.0000000000000000 -2.3999999992515191 -3.0614003842019479 
10000.000000000000 2000.0000000000000 -3500.0000000000000 -38225587.236618377 -15274767.564130135 -85750629.009707540 2.7304454199392891e-05 0.0039393828306434880 0.00015970043890827307 0.0000000000000000 -2.3999999992876724 -3.3770969533908586 
10000.000000000000 2000.0000000000000 -3333.3333333330002 -37074898.617664576 -14124078.945084317 -81670914.811846256 3.4255310707956830e-05 0.0044045042018327381 0.00016294473478279623 0.0000000000000000 -2.3999999993259165 -3.6779049754897049 
10000.000000000000 2000.0000000000000 -3166.6666666669998 -35924107.011434905 -12973287.338771574 -77590835.477183491 4.0339635154247097e-05 0.0048545463036929609 0.00016684616159495658 0.0000000000000000 -2.3999999993662091 -3.9638231179633094 
10000.000000000000 2000.0000000000000 -3000.0000000000000 -34773212.408677012 -11822392.735942427 -73510390.972935811 4.5427748182617664e-05 0.0052847680012168639 0.00017117781171539195 0.0000000000000000 -2.3999999994085837 -4.2348500481619906 
10000.000000000000 2000.0000000000000 -2833.3333333330002 -33622214.800145209 -10671395.127354220 -69429581.266340494 4.9425118833287037e-05 0.0056903567864570147 0.00017558256355633257 0.0000000000000000 -2.3999999994531422 -4.4909844333112767 
10000.000000000000 2000.0000000000000 -2666.6666666669998 -32471114.176595099 -9520294.5037657619 -65348406.324637219 5.2269563085008630e-05 0.0060662056617160542 0.00017963607443988308 0.0000000000000000 -2.3999999995000514 -4.7322249405174635 
10000.000000000000 2000.0000000000000 -2500.0000000000000 -31319910.528778270 -8369090.8559320280 -61266866.115049690 5.3918767476331301e-05 0.0064067943605330795 0.00018286388788639989 0.0000000000000000 -2.3999999995495394 -4.9585702367715649 
10000.000000000000 2000.0000000000000 -2333.3333333330002 -30168603.847452458 -7217784.1746142674 -57184960.604821980 5.4345120121753157e-05 0.0067061243899766403 0.00018474601592387795 0.0000000000000000 -2.3999999996018939 -5.1700189889406332 
10000.000000000000 2000.0000000000000 -2166.6666666669998 -29017194.123376265 -6066374.4505746998 -53102689.761200123 5.3530645871270567e-05 0.0069575321279648997 0.00018474549520690220 0.0000000000000000 -2.3999999996574641 -5.3665698637725185 
10000.000000000000 2000.0000000000000 -2000.0000000000000 -27865681.347303942 -4914861.6745712105 -49020053.551413730 5.1455595665715796e-05 0.0071535127237273280 0.00018232836866273084 0.0000000000000000 -2.3999999997166612 -5.5482215278990026 
10000.000000000000 2000.0000000000000 -1833.3333333329999 -26714065.509995744 -3763245.8373676259 -44937051.942712680 4.8098599280403194e-05 0.0072856400323624958 0.00017699049894410145 0.0000000000000000 -2.3999999997799595 -5.7149726478287421 
10000.000000000000 2000.0000000000000 -1666.6666666670001 -25562346.602212749 -2611526.9297284414 -40853684.902348801 4.3439428596547327e-05 0.0073443381936580494 0.00016829888558553478 0.0000000000000000 -2.3999999998479007 -5.8668218899512077 
0.0000000000000000 1000.0000000000000 -4833.3333333330002 -47427389.764344871 -24476570.056980304 -118375201.48539561 0.00012069385656923246 0.00019779829722421646 -0.00022101860502465100 4.0000000000000000 -2.6999999995068746 -0.43475698855595418 
0.0000000000000000 2000.0000000000000 -4833.3333333330002 -47427389.761863030 -24476570.058775224 -118375201.47340605 0.00010161670281545070 0.00033520606826715864 -0.00016551306365094546 4.0000000000000000 -2.3999999991022145 -0.43475698850508648 
0.0000000000000000 1000.0000000000000 -5000.0000000000000 -48002296.562909350 -25051476.855377506 -120413507.40716967 0.00012638668863590549 9.4452609233861991e-05 -0.00010734156939047317 4.0000000000000000 -2.6999999995049038 0.0000000000000000 
0.0000000000000000 2000.0000000000000 -5000.0000000000000 -48002296.560265012 -25051476.857033208 -120413507.39462218 0.00010390332379970776 0.00016056248239021558 -7.9431917093160086e-05 4.0000000000000000 -2.3999999990981906 0.0000000000000000 
0.0000000000000000 1000.0000000000000 -4666.6666666669998 -46277524.712622650 -23326705.005728468 -114298407.21224318 0.00010624448120856058 0.00042027616991610785 -0.00045715794233538906 4.0000000000000000 -2.6999999995125017 -0.85463608602376950 
0.0000000000000000 2000.0000000000000 -4666.6666666669998 -46277524.710441053 -23326705.007760160 -114298407.20127407 9.5191992624991877e-05 0.00070865620870561074 -0.00034839444068483831 4.0000000000000000 -2.3999999991134753 -0.85463608592556028 
0.0000000000000000 1000.0000000000000 -4500.0000000000000 -45127556.747129098 -22176737.040942911 -110221248.06353039 8.8022282242957838e-05 0.00067046313902637087 -0.00070482117677930789 4.0000000000000000 -2.6999999995212187 -1.2596359608280658 
0.0000000000000000 2000.0000000000000 -4500.0000000000000 -45127556.745200396 -22176737.043136850 -110221248.05340807 8.5644855161019317e-05 0.0011233372191739146 -0.00054848685027486998 4.0000000000000000 -2.3999999991305412 -1.2596359606853591 
0.0000000000000000 1000.0000000000000 -4333.3333333330002 -43977485.858688839 -21026666.153390102 -106143724.00656559 6.9510870126118839e-05 0.00094100765633358568 -0.00095454095861890911 4.0000000000000000 -2.6999999995324986 -1.6497552812665710 
0.0000000000000000 2000.0000000000000 -4333.3333333330002 -43977485.856970511 -21026666.155687444 -106143723.99714743 7.4072413319910664e-05 0.0015664907978190186 -0.00075883035460841907 4.0000000000000000 -2.3999999991523140 -1.6497552810817049 
0.0000000000000000 1000.0000000000000 -4166.6666666669998 -42827312.038109690 -19876492.333836693 -102065835.00865154 5.2336895261422330e-05 0.0012254960439042869 -0.0012012060480492048 4.0000000000000000 -2.6999999995458945 -2.0249927155180267 
0.0000000000000000 2000.0000000000000 -4166.6666666669998 -42827312.036564410 -19876492.336190775 -102065834.99981955 6.1426482190231351e-05 0.0020278690818141022 -0.00097506312975202778 4.0000000000000000 -2.3999999991779446 -2.0249927152929366 
0.0000000000000000 1000.0000000000000 -4000.0000000000000 -41677035.276184157 -18726215.573046379 -97987581.037074238 3.7186148848851863e-05 0.0015185745952808886 -0.0014421547690055226 4.0000000000000000 -2.6999999995610446 -2.3853469316485607 
0.0000000000000000 2000.0000000000000 -4000.0000000000000 -41677035.274779432 -18726215.575419717 -97987581.028730020 4.8499676323821123e-05 0.0024991725576833539 -0.0011943033057892022 4.0000000000000000 -2.3999999992067864 -2.3853469313848592 
0.0000000000000000 1000.0000000000000 -3833.3333333330002 -40526655.563701734 -17575835.861789003 -93908962.059135392 2.4269493492022668e-05 0.0018157306105219260 -0.0016760733178435270 4.0000000000000000 -2.6999999995776718 -2.7308165975981922 
0.0000000000000000 2000.0000000000000 -3833.3333333330002 -40526655.562409304 -17575835.864150837 -93908962.051196426 3.5929360241916790e-05 0.0029734667958030729 -0.0014145402590900766 4.0000000000000000 -2.3999999992383509 -2.7308165972972356 
0.0000000000000000 1000.0000000000000 -3666.6666666669998 -39376172.891444981 -16425353.190834409 -89829978.042131051 1.3538891314196613e-05 0.0021131833511244371 -0.0019023836084625032 4.0000000000000000 -2.6999999995955744 -3.0614003811879456 
0.0000000000000000 2000.0000000000000 -3666.6666666669998 -39376172.890240327 -16425353.193158815 -89829978.034527928 2.4174556373000083e-05 0.0034448199411289213 -0.0016342926540019777 4.0000000000000000 -2.3999999992722834 -3.0614003808508810 
0.0000000000000000 1000.0000000000000 -3500.0000000000000 -38225587.250186078 -15274767.550947471 -85750628.953334317 4.8087865567809300e-06 0.0024076752394595695 -0.0021208438615562607 4.0000000000000000 -2.6999999996146165 -3.3770969501253894 
0.0000000000000000 2000.0000000000000 -3500.0000000000000 -38225587.249047913 -15274767.553211762 -85750628.946008712 1.3519798358418343e-05 0.0039079817918523090 -0.0018522131110499721 4.0000000000000000 -2.3999999993083398 -3.3770969497531893 
0.0000000000000000 1000.0000000000000 -3333.3333333330002 -37074898.630698428 -14124078.932898615 -81670914.760033146 -2.1692652637042838e-06 0.0026963072983224520 -0.0023312687018814250 4.0000000000000000 -2.6999999996347199 -3.6779049719927182 
0.0000000000000000 2000.0000000000000 -3333.3333333330002 -37074898.629608214 -14124078.935082026 -81670914.752936125 4.1197738544406292e-06 0.0043581768595313316 -0.0020670642122986231 4.0000000000000000 -2.3999999993463748 -3.6779049715862144 
0.0000000000000000 1000.0000000000000 -3166.6666666669998 -35924107.023752332 -12973287.327458713 -77590835.429512620 -7.6584692212787870e-06 0.0029764551974699161 -0.0025332837825326688 4.0000000000000000 -2.6999999996558603 -3.9638231142530915 
0.0000000000000000 2000.0000000000000 -3166.6666666669998 -35924107.022693999 -12973287.329541380 -77590835.422603846 -3.9718763475356195e-06 0.0047909732872707406 -0.0022775677017158082 4.0000000000000000 -2.3999999993863246 -3.9638231138129956 
0.0000000000000000 1000.0000000000000 -3000.0000000000000 -34773212.420110375 -11822392.725393984 -73510390.929037243 -1.1909921984552409e-05 0.0032455311540475966 -0.0027263635265091122 4.0000000000000000 -2.6999999996780599 -4.2348500442553645 
0.0000000000000000 2000.0000000000000 -3000.0000000000000 -34773212.419069938 -11822392.727356041 -73510390.922284275 -1.0766128961359663e-05 0.0052019482300504072 -0.0024823271968877274 4.0000000000000000 -2.3999999994282044 -4.2348500437822940 
0.0000000000000000 1000.0000000000000 -2833.3333333330002 -33622214.810538203 -10671395.117476454 -69429581.225888312 -1.5156446527731918e-05 0.0035009353601104347 -0.0029096214374596313 4.0000000000000000 -2.6999999997013844 -4.4909844292237917 
0.0000000000000000 2000.0000000000000 -2833.3333333330002 -33622214.809503466 -10671395.119297130 -69429581.219265863 -1.6316235976420354e-05 0.0055866440172988663 -0.0026797230875045142 4.0000000000000000 -2.3999999994720986 -4.4909844287182912 
0.0000000000000000 1000.0000000000000 -2666.6666666669998 -32471114.185799673 -9520294.4944787994 -65348406.287345946 -1.7603969057502249e-05 0.0037399465904004114 -0.0030818061838911977 4.0000000000000000 -2.6999999997259403 -4.7322249362635631 
0.0000000000000000 2000.0000000000000 -2666.6666666669998 -32471114.184759982 -9520294.4961356893 -65348406.280835830 -2.0703984672378802e-05 0.0059404519288643242 -0.0028678702670275895 4.0000000000000000 -2.3999999995181569 -4.7322249357261352 
0.0000000000000000 1000.0000000000000 -2500.0000000000000 -31319910.536651790 -8369090.8471692689 -61266866.080671251 -1.9424534462658174e-05 0.0039595766515374709 -0.0032412619552497886 4.0000000000000000 -2.6999999997518738 -4.9585702323647451 
0.0000000000000000 2000.0000000000000 -2500.0000000000000 -31319910.535597783 -8369090.8486375604 -61266866.074262172 -2.4017376218140328e-05 0.0062583984372246489 -0.0030445726150830853 4.0000000000000000 -2.3999999995665902 -4.9585702317958713 
0.0000000000000000 1000.0000000000000 -2333.3333333330002 -30168603.853855073 -7217784.1663220217 -57184960.573143147 -2.0761714827759295e-05 0.0041564678493755548 -0.0033858428143922147 4.0000000000000000 -2.6999999997793713 -5.1700189843935895 
0.0000000000000000 2000.0000000000000 -2333.3333333330002 -30168603.852778506 -7217784.1675737146 -57184960.566830844 -2.6350667329212509e-05 0.0065350428414728363 -0.0032072492361665040 4.0000000000000000 -2.3999999996176706 -5.1700189837937636 
0.0000000000000000 1000.0000000000000 -2166.6666666669998 -29017194.128168400 -6066374.4427119698 -53102689.732040241 -2.1725388377586316e-05 0.0043268042866014952 -0.0035128982424828701 4.0000000000000000 -2.6999999998086590 -5.3665698590972806 
0.0000000000000000 2000.0000000000000 -2166.6666666669998 -29017194.127061982 -6066374.4437151086 -53102689.725827746 -2.7795809680623496e-05 0.0067643644036482304 -0.0033528488121145417 4.0000000000000000 -2.3999999996717296 -5.3665698584670416 
0.0000000000000000 1000.0000000000000 -2000.0000000000000 -27865681.350343734 -4914861.6671096878 -49020053.524622776 -2.2396731417215450e-05 0.0044661285703595493 -0.0036190411075093321 4.0000000000000000 -2.6999999998400046 -5.5482215231070677 
0.0000000000000000 2000.0000000000000 -2000.0000000000000 -27865681.349201009 -4914861.6678275028 -49020053.518520892 -2.8439783836006101e-05 0.0069395651983466065 -0.0034776472306596294 4.0000000000000000 -2.3999999997291597 -5.5482215224470357 
0.0000000000000000 1000.0000000000000 -1833.3333333329999 -26714065.511136401 -3763245.8302918915 -44937051.918169811 -2.2839396389764954e-05 0.0045692443618051007 -0.0037001921126834101 4.0000000000000000 -2.6999999998737230 -5.7149726429311913 
0.0000000000000000 2000.0000000000000 -1833.3333333329999 -26714065.509951588 -3763245.8306817589 -44937051.912197478 -2.8372507202736478e-05 0.0070529187021093984 -0.0035772360879991025 4.0000000000000000 -2.3999999997904151 -5.7149726422421194 
0.0000000000000000 1000.0000000000000 -1666.6666666670001 -25562346.601299666 -2611526.9230362596 -40853684.879960842 -2.3101823859767558e-05 0.0046300183925675831 -0.0037514443544843005 4.0000000000000000 -2.6999999999101760 -5.8668218849588314 
0.0000000000000000 2000.0000000000000 -1666.6666666670001 -25562346.600067504 -2611526.9230485871 -40853684.874145843 -2.7696963712836116e-05 0.0070956739815001583 -0.0036463898295945583 4.0000000000000000 -2.3999999998560173 -5.8668218842416424 
4000.0000000000000 0.0000000000000000 -4833.3333333330002 -47427389.757470176 -24476570.068645891 -118375201.55399907 -3.5387522985608432e-05 9.2913029651725136e-05 -0.00023800965028003589 2.3999999984931164 -3.0000000000000000 -0.43475698886484765 
4000.0000000000000 0.0000000000000000 -5000.0000000000000 -48002296.556838609 -25051476.867937207 -120413507.47904265 -3.8601207644849305e-05 4.3770927437662702e-05 -0.00011118717187138429 2.3999999984866909 -3.0000000000000000 0.0000000000000000 
4000.0000000000000 4.7197855770000003e-30 -4666.6666666669998 -46277524.704370856 -23326705.015767675 -114298407.27480170 -2.7191285043325306e-05 0.00020104070116039438 -0.00051952721385327253 2.3999999985114173 -3.0000000000000000 -0.85463608661642765 
4000.0000000000000 7.0796783649999997e-30 -4500.0000000000000 -45127556.737913407 -22176737.049653642 -110221248.12096329 -1.6814812066381650e-05 0.00032704030268229770 -0.00085040006637762200 2.3999999985398413 -3.0000000000000000 -1.2596359616830453 
4000.0000000000000 0.0000000000000000 -4333.3333333330002 -43977485.848837987 -21026666.161024027 -106143724.05966748 -6.3281831489368778e-06 0.00046720804379770542 -0.0012188634253111883 2.3999999985769707 -3.0000000000000000 -1.6497552823656016 
4000.0000000000000 0.0000000000000000 -4166.6666666669998 -42827312.027888179 -19876492.340606980 -102065835.05810884 3.2301393156752472e-06 0.00061798886474095417 -0.0016144660774337731 2.3999999986216265 -3.0000000000000000 -2.0249927168456012 
4000.0000000000000 -6.0354824400000000e-30 -4000.0000000000000 -41677035.265806057 -18726215.579132069 -97987581.083471030 1.1419559337022276e-05 0.00077626163655952307 -0.0020275457651723994 2.3999999986728202 -3.0000000000000000 -2.3853469331915496 
4000.0000000000000 -1.8821719000000001e-29 -3833.3333333330002 -40526655.553342834 -17575835.867340088 -93908962.102963477 1.8128088050848374e-05 0.00093930456467816389 -0.0024491032876509129 2.3999999987297240 -3.0000000000000000 -2.7308165993454745 
4000.0000000000000 -2.6904576700000000e-29 -3666.6666666669998 -39376172.881253555 -16425353.195977222 -89829978.083802551 2.3413365354924900e-05 0.0011047993615775993 -0.0028705808280019476 2.3999999987916536 -3.0000000000000000 -3.0614003831300916 
4000.0000000000000 0.0000000000000000 -3500.0000000000000 -38225587.240291320 -15274767.555789107 -85750628.993192002 2.7410291660441611e-05 0.0012707614846055567 -0.0032840029461667338 2.3999999988580569 -3.0000000000000000 -3.3770969522543743 
4000.0000000000000 0.0000000000000000 -3333.3333333330002 -37074898.621217221 -14124078.937530525 -81670914.798358902 3.0282608156152983e-05 0.0014354417412970257 -0.0036818306323411275 2.3999999989284997 -3.0000000000000000 -3.6779049743016721 
4000.0000000000000 4.6309918630000001e-29 -3166.6666666669998 -35924107.014794670 -12973287.331959635 -77590835.466534168 3.2200735093889381e-05 0.0015972418637952542 -0.0040569873705959721 2.3999999990026559 -3.0000000000000000 -3.9638231167360654 
4000.0000000000000 0.0000000000000000 -3000.0000000000000 -34773212.411783800 -11822392.729832385 -73510390.964933619 3.3316444114855539e-05 0.0017546335547192465 -0.0044028485301365770 2.3999999990802969 -3.0000000000000000 -4.2348500469071189 
4000.0000000000000 0.0000000000000000 -2833.3333333330002 -33622214.802951686 -10671395.121912658 -69429581.260794371 3.3756165300768685e-05 0.0019060919603629406 -0.0047131340420625669 2.3999999991612850 -3.0000000000000000 -4.4909844320395962 
4000.0000000000000 9.6621616689999997e-29 -2666.6666666669998 -32471114.179066785 -9520294.4989666305 -65348406.321355201 3.3627277434925831e-05 0.0020500305463587712 -0.0049819610820400423 2.3999999992455603 -3.0000000000000000 -4.7322249392390132 
4000.0000000000000 1.0352316070000000e-28 -2500.0000000000000 -31319910.530893628 -8369090.8517574854 -61266866.113838062 3.3006791086597009e-05 0.0021847235872201028 -0.0052037165432427682 2.3999999993331365 -3.0000000000000000 -4.9585702354955759 
4000.0000000000000 1.1042470480000000e-28 -2333.3333333330002 -30168603.849203207 -7217784.1710557435 -57184960.605484515 3.1947611100520553e-05 0.0023082121873414427 -0.0053731086914761668 2.3999999994240926 -3.0000000000000000 -5.1700189876755012 
4000.0000000000000 1.0097419590000000e-28 -2166.6666666669998 -29017194.124767665 -6066374.4476339184 -53102689.763536632 3.0484882401114520e-05 0.0024182443221744039 -0.0054851560010053613 2.3999999995185632 -3.0000000000000000 -5.3665698625257541 
4000.0000000000000 0.0000000000000000 -2000.0000000000000 -27865681.348355174 -4914861.6722614318 -49020053.555218473 2.8629991332915767e-05 0.0025122052982113150 -0.0055351086998641609 2.3999999996167340 -3.0000000000000000 -5.5482215266771870 
4000.0000000000000 3.2286888359999998e-30 -1833.3333333329999 -26714065.510740314 -3763245.8357149386 -44937051.947772093 2.6372523556408870e-05 0.0025869931419414700 -0.0055184895246370227 2.3999999997188350 -3.0000000000000000 -5.7149726466374524 
4000.0000000000000 0.0000000000000000 -1666.6666666670001 -25562346.602699097 -2611526.9287734260 -40853684.908439383 2.3688553862280398e-05 0.0026388512761295821 -0.0054311623440135752 2.3999999998251358 -3.0000000000000000 -5.8668218887949362 
3000.0000000000000 0.0000000000000000 -4833.3333333330002 -47427389.759281330 -24476570.064362057 -118375201.53333433 -8.2267109939945497e-05 0.00013620526544500799 -0.00031182092750804387 2.7999999985950388 -3.0000000000000000 -0.43475698878144226 
3000.0000000000000 0.0000000000000000 -5000.0000000000000 -48002296.558439158 -25051476.863422789 -120413507.45758486 -8.7845745302385424e-05 6.5816848356854677e-05 -0.00014526208539025501 2.7999999985896973 -3.0000000000000000 0.0000000000000000 
3000.0000000000000 -2.3598927900000001e-30 -4666.6666666669998 -46277524.706562832 -23326705.011922460 -114298407.25563604 -6.8114807085397529e-05 0.00028429200784190530 -0.00068447834057264482 2.7999999986105149 -3.0000000000000000 -0.85463608645404543 
3000.0000000000000 -3.5398391800000000e-30 -4500.0000000000000 -45127556.740406439 -22176737.046200674 -110221248.10313389 -5.0315444189906945e-05 0.00044406093144683180 -0.0011292437916733554 2.7999999986349655 -3.0000000000000000 -1.2596359614456685 
3000.0000000000000 0.0000000000000000 -4333.3333333330002 -43977485.851555601 -21026666.157916084 -106143724.04303201 -3.2350264180651801e-05 0.00061063527878043580 -0.0016316525113199765 2.7999999986672011 -3.0000000000000000 -1.6497552820568857 
3000.0000000000000 0.0000000000000000 -4166.6666666669998 -42827312.030758820 -19876492.337798566 -102065835.04254189 -1.5855651397011309e-05 0.00078076958756216857 -0.0021767862636439591 2.7999999987061250 -3.0000000000000000 -2.0249927164689598 
3000.0000000000000 3.0177412220000001e-30 -4000.0000000000000 -41677035.268763900 -18726215.576580849 -97987581.068862170 -1.4918749642631931e-06 0.00095225707313449811 -0.0027504988833081763 2.7999999987507951 -3.0000000000000000 -2.3853469327501937 
3000.0000000000000 9.4108595180000002e-30 -3833.3333333330002 -40526655.556327909 -17575835.865007516 -93908962.089215890 1.0584995825614439e-05 0.0011234837975311474 -0.0033399866445820580 2.7999999988004349 -3.0000000000000000 -2.7308165988424347 
3000.0000000000000 1.3452288350000000e-29 -3666.6666666669998 -39376172.884211287 -16425353.193828657 -89829978.070831567 2.0473244566075123e-05 0.0012932166612961327 -0.0039338544826551212 2.7999999988544371 -3.0000000000000000 -3.0614003825682357 
3000.0000000000000 0.0000000000000000 -3500.0000000000000 -38225587.243171796 -15274767.553793663 -85750628.980924189 2.8383115943256189e-05 0.0014603657829704859 -0.0045220263018736200 2.7999999989123454 -3.0000000000000000 -3.3770969516364198 
3000.0000000000000 0.0000000000000000 -3333.3333333330002 -37074898.623974539 -14124078.935660912 -81670914.786731452 3.4560735514372106e-05 0.0016239395646886925 -0.0050954418490317130 2.7999999989738460 -3.0000000000000000 -3.6779049736302070 
3000.0000000000000 -2.3154959300000000e-29 -3166.6666666669998 -35924107.017386034 -12973287.330191845 -77590835.455494195 3.9261157397048570e-05 0.0017829814979665125 -0.0056458773923307969 2.7999999990387505 -3.0000000000000000 -3.9638231160135673 
3000.0000000000000 0.0000000000000000 -3000.0000000000000 -34773212.414168820 -11822392.728145402 -73510390.954437673 4.2715218898091399e-05 0.0019364131848900166 -0.0061657003317689496 2.7999999991069839 -3.0000000000000000 -4.2348500461359784 
3000.0000000000000 0.0000000000000000 -2833.3333333330002 -33622214.805091634 -10671395.120288134 -69429581.250807911 4.5121472871808622e-05 0.0020830437249069376 -0.0066476155474876914 2.7999999991785729 -3.0000000000000000 -4.4909844312221390 
3000.0000000000000 -4.8310808300000000e-29 -2666.6666666669998 -32471114.180924013 -9520294.4973886553 -65348406.311852455 4.6642605187217138e-05 0.0022215350559047619 -0.0070844754561050129 2.7999999992536373 -3.0000000000000000 -4.7322249383775290 
3000.0000000000000 -5.1761580399999997e-29 -2500.0000000000000 -31319910.532430999 -8369090.8502123076 -61266866.104801580 4.7398255776670124e-05 0.0023503219443116795 -0.0074691013839640018 2.7999999993323819 -3.0000000000000000 -4.9585702345923455 
3000.0000000000000 -5.5212352400000001e-29 -2333.3333333330002 -30168603.850383546 -7217784.1695314981 -57184960.596904822 4.7475273288833175e-05 0.0024675343080095861 -0.0077941456118487381 2.7999999994150908 -3.0000000000000000 -5.1700189867328223 
3000.0000000000000 0.0000000000000000 -2166.6666666669998 -29017194.125553396 -6066374.4461204382 -53102689.755411960 4.6921924715913759e-05 0.0025709789426396758 -0.0080518952521425238 2.7999999995021221 -3.0000000000000000 -5.3665698615459769 
3000.0000000000000 0.0000000000000000 -2000.0000000000000 -27865681.348707974 -4914861.6707500182 -49020053.547554411 4.5743417227669608e-05 0.0026580470700391240 -0.0082341329466225389 2.7999999995939064 -3.0000000000000000 -5.5482215256627354 
3000.0000000000000 -1.6143444200000000e-30 -1833.3333333329999 -26714065.510620821 -3763245.8341981582 -44937051.940581270 4.3916450475158204e-05 0.0027256146660690236 -0.0083320064372717495 2.7999999996909439 -3.0000000000000000 -5.7149726455908576 
3000.0000000000000 0.0000000000000000 -1666.6666666670001 -25562346.602066636 -2611526.9272448267 -40853684.901740745 4.1387682211381559e-05 0.0027699092681548795 -0.0083359108981281554 2.7999999997938034 -3.0000000000000000 -5.8668218877188636 
0.0000000000000000 10000.000000000000 -4833.3333333330002 -47427389.744437449 -24476570.059810571 -118375201.39188093 -5.4962544654264452e-06 -5.4930044972083319e-05 -0.00037187993575524692 4.0000000000000000 0.0000000000000000 -0.43475698814757513 
0.0000000000000000 10000.000000000000 -5000.0000000000000 -48002296.541852035 -25051476.857124645 -120413507.30934070 -6.0560148000408469e-06 -2.7975165435758086e-05 -0.00018434958367588390 4.0000000000000000 0.0000000000000000 0.0000000000000000 
0.0000000000000000 10000.000000000000 -4666.6666666669998 -46277524.694848210 -23326705.010487828 -114298407.12692243 -4.0372332708879021e-06 -0.00010686110730837569 -0.00074589642186233371 4.0000000000000000 0.0000000000000000 -0.85463608524246348 
0.0000000000000000 10000.000000000000 -4500.0000000000000 -45127556.731189162 -22176737.047191646 -110221247.98558116 -2.1257159672972953e-06 -0.00015495501319310397 -0.0011073642814852804 4.0000000000000000 0.0000000000000000 -1.2596359597056639 
0.0000000000000000 10000.000000000000 -4333.3333333330002 -43977485.844344631 -21026666.160751343 -106143723.93525468 -1.2124547636179208e-07 -0.00019941889689633680 -0.0014422700349152793 4.0000000000000000 0.0000000000000000 -1.6497552798316590 
0.0000000000000000 10000.000000000000 -4166.6666666669998 -42827312.025164306 -19876492.341985103 -102065834.94332609 1.7699013791366495e-06 -0.00024041947116503712 -0.0017470860745856299 4.0000000000000000 0.0000000000000000 -2.0249927137962720 
0.0000000000000000 10000.000000000000 -4000.0000000000000 -41677035.264470622 -18726215.581699245 -97987580.977153212 3.4444317084375720e-06 -0.00027810341155694014 -0.0020234342255890689 4.0000000000000000 0.0000000000000000 -2.3853469296630507 
0.0000000000000000 10000.000000000000 -3833.3333333330002 -40526655.553075016 -17575835.870699093 -93908962.004101738 4.8495864675558478e-06 -0.00031260724312019998 -0.0022749813213258320 4.0000000000000000 0.0000000000000000 -2.7308165953697756 
0.0000000000000000 10000.000000000000 -3666.6666666669998 -39376172.881776683 -16425353.199784137 -89829977.991524398 5.9593593149982178e-06 -0.00034405704879188345 -0.0025058752543670520 4.0000000000000000 0.0000000000000000 -3.0614003787355264 
0.0000000000000000 10000.000000000000 -3500.0000000000000 -38225587.241361015 -15274767.559744064 -85750628.906744510 6.7800266260459754e-06 -0.00037256459526366982 -0.0027198599519969498 4.0000000000000000 0.0000000000000000 -3.3770969474661796 
0.0000000000000000 10000.000000000000 -3333.3333333330002 -37074898.622612461 -14124078.941370197 -81670914.717095107 7.3295947937212834e-06 -0.00039822698583720105 -0.0029198993352416150 4.0000000000000000 0.0000000000000000 -3.6779049691424617 
0.0000000000000000 10000.000000000000 -3166.6666666669998 -35924107.016310930 -12973287.335451018 -77590835.389902055 7.6261083969578673e-06 -0.00042111319121164139 -0.0031080610948400122 4.0000000000000000 0.0000000000000000 -3.9638231112262505 
0.0000000000000000 10000.000000000000 -3000.0000000000000 -34773212.413227677 -11822392.732767526 -73510390.892467067 7.6892956662444380e-06 -0.00044126100849653863 -0.0032855151360359448 4.0000000000000000 0.0000000000000000 -4.2348500410652914 
0.0000000000000000 10000.000000000000 -2833.3333333330002 -33622214.804136306 -10671395.124104014 -69429581.192105576 7.5452202219415870e-06 -0.00045866149524569555 -0.0034525818594560520 4.0000000000000000 0.0000000000000000 -4.4909844258828757 
0.0000000000000000 10000.000000000000 -2666.6666666669998 -32471114.179807998 -9520294.5002431571 -65348406.256129101 7.2149468014425129e-06 -0.00047326659275369500 -0.0036087112213444876 4.0000000000000000 0.0000000000000000 -4.7322249327833710 
0.0000000000000000 10000.000000000000 -2500.0000000000000 -31319910.531006765 -8369090.8519612215 -61266866.051828071 6.7161884605396932e-06 -0.00048497186602387637 -0.0037526475300714108 4.0000000000000000 0.0000000000000000 -4.9585702287561464 
0.0000000000000000 10000.000000000000 -2333.3333333330002 -30168603.848499790 -7217784.1700385576 -57184960.546508968 6.0711659283125336e-06 -0.00049359792458664002 -0.0038823702926845424 4.0000000000000000 0.0000000000000000 -5.1700189806668684 
0.0000000000000000 10000.000000000000 -2166.6666666669998 -29017194.123052374 -6066374.4452546015 -53102689.707476586 5.2986632018003492e-06 -0.00049891405610725408 -0.0039951225419126435 4.0000000000000000 0.0000000000000000 -5.3665698552622505 
0.0000000000000000 10000.000000000000 -2000.0000000000000 -27865681.345422588 -4914861.6683827732 -49020053.502015978 4.4183286682222343e-06 -0.00050061746713575452 -0.0040873994498209802 4.0000000000000000 0.0000000000000000 -5.5482215191731710 
0.0000000000000000 10000.000000000000 -1833.3333333329999 -26714065.506371513 -3763245.8302009366 -44937051.897429526 3.4466603770938717e-06 -0.00049831695342258400 -0.0041548888966471556 4.0000000000000000 0.0000000000000000 -5.7149726389076028 
0.0000000000000000 10000.000000000000 -1666.6666666670001 -25562346.596657902 -2611526.9214864145 -40853684.861019388 2.3992138802047954e-06 -0.00049156049097541488 -0.0041923340292910772 4.0000000000000000 0.0000000000000000 -5.8668218808545474 
9000.0000000000000 0.0000000000000000 -4833.3333333330002 -47427389.759937823 -24476570.082297374 -118375201.61463532 -8.3836363446808268e-05 9.5759640086065967e-05 8.5564388766753405e-05 0.39999999965633543 -3.0000000000000000 -0.43475698911745952 
10000.000000000000 1000.0000000000000 -4833.3333333330002 -47427389.759298794 -24476570.083503421 -118375201.61268288 -5.0406312773625499e-05 0.00017848418947488681 4.7753060173897767e-05 0.0000000000000000 -2.6999999994993544 -0.43475698911017197 
10000.000000000000 0.0000000000000000 -4833.3333333330002 -47427389.760127887 -24476570.082879458 -118375201.61669743 -4.0741340529482449e-05 8.2347869671441093e-05 4.1889868605708212e-05 0.0000000000000000 -3.0000000000000000 -0.43475698912670174 
9000.0000000000000 0.0000000000000000 -5000.0000000000000 -48002296.559979349 -25051476.882329561 -120413507.54237363 -8.7712413985015989e-05 4.5256977314690285e-05 4.6029259604349386e-05 0.39999999965441602 -3.0000000000000000 0.0000000000000000 
10000.000000000000 1000.0000000000000 -5000.0000000000000 -48002296.559331320 -25051476.883538350 -120413507.54042840 -5.2017098666475774e-05 8.4864869731565284e-05 2.5678966730593344e-05 0.0000000000000000 -2.6999999994973956 0.0000000000000000 
10000.000000000000 0.0000000000000000 -5000.0000000000000 -48002296.560208999 -25051476.882960949 -120413507.54460290 -4.2112325840650623e-05 3.8514435368006814e-05 2.2172587059271540e-05 0.0000000000000000 -3.0000000000000000 0.0000000000000000 
9000.0000000000000 0.0000000000000000 -4666.6666666669998 -46277524.705611289 -23326705.027996760 -114298407.33019942 -7.3707605949578441e-05 0.00020636992003433298 0.00015346612367283518 0.39999999966175265 -3.0000000000000000 -0.85463608710061312 
10000.000000000000 1000.0000000000000 -4666.6666666669998 -46277524.704995923 -23326705.029193498 -114298407.32822432 -4.5829713916340905e-05 0.00038158011888129171 8.5531383989105789e-05 0.0000000000000000 -2.6999999995048833 -0.85463608708515182 
10000.000000000000 0.0000000000000000 -4666.6666666669998 -46277524.705735125 -23326705.028486200 -114298407.33195250 -3.6934961922632906e-05 0.00018003253445944914 7.6938418725875683e-05 0.0000000000000000 -3.0000000000000000 -0.85463608711737948 
9000.0000000000000 0.0000000000000000 -4500.0000000000000 -45127556.738151364 -22176737.060574729 -110221248.17141786 -6.0308242484762947e-05 0.00033426659069947252 0.00020218881960593256 0.39999999967004879 -3.0000000000000000 -1.2596359623788156 
10000.000000000000 1000.0000000000000 -4500.0000000000000 -45127556.737568483 -22176737.061755065 -110221248.16940761 -3.8958631248465089e-05 0.00061318625041605957 0.00011224492856439368 0.0000000000000000 -2.6999999995133561 -1.2596359623543998 
10000.000000000000 0.0000000000000000 -4500.0000000000000 -45127556.738231495 -22176737.060983285 -110221248.17290883 -3.1422770046301353e-05 0.00029622166847128597 0.00010423697146620984 0.0000000000000000 -3.0000000000000000 -1.2596359624017106 
9000.0000000000000 0.0000000000000000 -4333.3333333330002 -43977485.848274790 -21026666.170743685 -106143724.10546166 -4.5987206501386126e-05 0.00047570283308232366 0.00023720924406651537 0.39999999968071875 -3.0000000000000000 -1.6497552832539963 
10000.000000000000 1000.0000000000000 -4333.3333333330002 -43977485.847728550 -21026666.171901569 -106143724.10340989 -3.0630582482381776e-05 0.00086716017191852928 0.00013104057577818058 0.0000000000000000 -2.6999999995242678 -1.6497552832199653 
10000.000000000000 0.0000000000000000 -4333.3333333330002 -43977485.848327532 -21026666.171082404 -106143724.10673019 -2.4994012149217550e-05 0.00042770569029747967 0.00012567870794986111 0.0000000000000000 -3.0000000000000000 -1.6497552832818954 
9000.0000000000000 0.0000000000000000 -4166.6666666669998 -42827312.026706420 -19876492.349225387 -102065835.09951390 -3.2088128312155634e-05 0.00062723778412145613 0.00026247575782349349 0.39999999969335015 -3.0000000000000000 -2.0249927179086531 
10000.000000000000 1000.0000000000000 -4166.6666666669998 -42827312.026197016 -19876492.350355662 -102065835.09741749 -2.1617884622215124e-05 0.0011379870983418301 0.00014452848890044917 0.0000000000000000 -2.6999999995372184 -2.0249927178644569 
10000.000000000000 0.0000000000000000 -4166.6666666669998 -42827312.026742861 -19876492.349504106 -102065835.10059321 -1.8287142786820907e-05 0.00057120608254385944 0.00014281317081043610 0.0000000000000000 -3.0000000000000000 -2.0249927179406488 
9000.0000000000000 0.0000000000000000 -4000.0000000000000 -41677035.264172286 -18726215.586744234 -97987581.120749563 -1.9323501483572561e-05 0.00078583374760965376 0.00028068352251452779 0.39999999970760630 -3.0000000000000000 -2.3853469344122487 
10000.000000000000 1000.0000000000000 -4000.0000000000000 -41677035.263697013 -18726215.587842401 -97987581.118606895 -1.2531696239534642e-05 0.0014208199530742296 0.00015463014134336686 0.0000000000000000 -2.6999999995518955 -2.3853469343574321 
10000.000000000000 0.0000000000000000 -4000.0000000000000 -41677035.264199503 -18726215.586971458 -97987581.121667266 -1.1754012379113535e-05 0.00072363849276217977 0.00015679107513545882 0.0000000000000000 -3.0000000000000000 -2.3853469344476057 
9000.0000000000000 0.0000000000000000 -3833.3333333330002 -40526655.551408738 -17575835.874036327 -93908962.136370406 -8.0140772583723781e-06 0.00094894306367125864 0.00029359724797050664 0.39999999972320849 -3.0000000000000000 -2.7308166007077443 
10000.000000000000 1000.0000000000000 -3833.3333333330002 -40526655.550962977 -17575835.875098303 -93908962.134180441 -3.8066945084815165e-06 0.0017114031453882201 0.00016264668332875790 0.0000000000000000 -2.6999999995680639 -2.7308166006419254 
10000.000000000000 0.0000000000000000 -3833.3333333330002 -40526655.551430874 -17575835.874219295 -93908962.137149364 -5.6751971184269260e-06 0.00088227854362099274 0.00016840853469484614 0.0000000000000000 -3.0000000000000000 -2.7308166007458614 
9000.0000000000000 0.0000000000000000 -3666.6666666669998 -39376172.879156202 -16425353.201843182 -89829978.113585174 1.7483940323140502e-06 0.0011143620025216637 0.00030234447390208567 0.39999999973992451 -3.0000000000000000 -3.0614003846187603 
10000.000000000000 1000.0000000000000 -3666.6666666669998 -39376172.878734224 -16425353.202865081 -89829978.111347049 4.2712712513714698e-06 0.0020059326225461108 0.00016938399727700463 0.0000000000000000 -2.6999999995855544 -3.0614003845416140 
10000.000000000000 0.0000000000000000 -3666.6666666669998 -39376172.879175358 -16425353.201987978 -89829978.114244238 -2.0501668770059240e-07 0.0010447032487744259 0.00017816965906428857 0.0000000000000000 -3.0000000000000000 -3.0614003846591435 
9000.0000000000000 0.0000000000000000 -3500.0000000000000 -38225587.238153234 -15274767.560905736 -85750629.019589886 1.0001237381309997e-05 0.0012801657165026985 0.00030761318546343973 0.39999999975755807 -3.0000000000000000 -3.3770969538551494 
10000.000000000000 1000.0000000000000 -3500.0000000000000 -38225587.237748839 -15274767.561883681 -85750629.017302796 1.1526115387497562e-05 0.0023009714997641647 0.00017526856427704958 0.0000000000000000 -2.6999999996042559 -3.3770969537663933 
10000.000000000000 0.0000000000000000 -3500.0000000000000 -38225587.238170221 -15274767.561017472 -85750629.020144656 4.5850310008455895e-06 0.0012087532851815660 0.00018635613529899926 0.0000000000000000 -3.0000000000000000 -3.3770969538973845 
9000.0000000000000 0.0000000000000000 -3333.3333333330002 -37074898.619146436 -14124078.941974062 -81670914.821603984 1.6852192602349004e-05 0.0014446532107126302 0.00030981412420505688 0.39999999977594014 -3.0000000000000000 -3.6779049760011149 
10000.000000000000 1000.0000000000000 -3333.3333333330002 -37074898.618753344 -14124078.942903977 -81670914.819267243 1.7866156997696000e-05 0.0025933753824553853 0.00018046584735511380 0.0000000000000000 -2.6999999996241106 -3.6779049759004989 
10000.000000000000 0.0000000000000000 -3333.3333333330002 -37074898.619161263 -14124078.942057069 -81670914.822067410 8.6818099936361664e-06 0.0013725236896298238 0.00019308504834670352 0.0000000000000000 -3.0000000000000000 -3.6779049760448581 
9000.0000000000000 0.0000000000000000 -3166.6666666669998 -35924107.012884706 -12973287.335801620 -77590835.486850798 2.2440072426832129e-05 0.0016062349097967551 0.00030918997895211162 0.39999999979492279 -3.0000000000000000 -3.9638231185215718 
10000.000000000000 1000.0000000000000 -3166.6666666669998 -35924107.012496807 -12973287.336679023 -77590835.484464079 2.3264322270673194e-05 0.0028801441354637412 0.00018496766084033817 0.0000000000000000 -2.6999999996451076 -3.9638231184088695 
10000.000000000000 0.0000000000000000 -3166.6666666669998 -35924107.012896910 -12973287.335859574 -77590835.487233758 1.2111231167385510e-05 0.0015342489399698292 0.00019836585442768143 0.0000000000000000 -3.0000000000000000 -3.9638231185665318 
9000.0000000000000 0.0000000000000000 -3000.0000000000000 -34773212.410113737 -11822392.733139647 -73510390.982538581 2.6909629231130724e-05 0.0017634320053154552 0.00030587366444839281 0.39999999981437478 -3.0000000000000000 -4.2348500487669014 
10000.000000000000 1000.0000000000000 -3000.0000000000000 -34773212.409725249 -11822392.733959474 -73510390.980102122 2.7730563843559377e-05 0.0031583468026191567 0.00018865249021925674 0.0000000000000000 -2.6999999996672792 -4.2348500486419072 
10000.000000000000 0.0000000000000000 -3000.0000000000000 -34773212.410122603 -11822392.733175680 -73510390.982850224 1.4919395331681888e-05 0.0016922736283353549 0.00020214775933666978 0.0000000000000000 -3.0000000000000000 -4.2348500488128300 
9000.0000000000000 0.0000000000000000 -2833.3333333330002 -33622214.801586166 -10671395.124747273 -69429581.275896877 3.0398762756214997e-05 0.0019147028417615835 0.00029992688218408268 0.39999999983417844 -3.0000000000000000 -4.4909844339626668 
10000.000000000000 1000.0000000000000 -2833.3333333330002 -33622214.801191665 -10671395.125503648 -69429581.273411751 3.1287935592595192e-05 0.0034250031332111819 0.00019132586505865148 0.0000000000000000 -2.6999999996906991 -4.4909844338251945 
10000.000000000000 0.0000000000000000 -2833.3333333330002 -33622214.801590875 -10671395.124764120 -69429581.276145160 1.7154652793448893e-05 0.0018449153528921490 0.00020432360646294775 0.0000000000000000 -3.0000000000000000 -4.4909844340093521 
9000.0000000000000 0.0000000000000000 -2666.6666666669998 -32471114.178056076 -9520294.5013860166 -65348406.334157288 3.3030056721074452e-05 0.0020584270867644010 0.00029138372176386182 0.39999999985422618 -3.0000000000000000 -4.7322249412151685 
10000.000000000000 1000.0000000000000 -2666.6666666669998 -32471114.177650467 -9520294.5020720363 -65348406.331625849 3.3968218610535196e-05 0.0036769649696048066 0.00019275875320389933 0.0000000000000000 -2.6999999997154815 -4.7322249410650530 
10000.000000000000 0.0000000000000000 -2666.6666666669998 -32471114.178055737 -9520294.5013860911 -65348406.334349260 1.8863166848311889e-05 0.0019904532759502562 0.00020476214735704913 0.0000000000000000 -3.0000000000000000 -4.7322249412624338 
9000.0000000000000 0.0000000000000000 -2500.0000000000000 -31319910.530273736 -8369090.8538145423 -61266866.124535188 3.4904283746306843e-05 0.0021928531039605570 0.00028023123469226609 0.39999999987441998 -3.0000000000000000 -4.9585702375153859 
10000.000000000000 1000.0000000000000 -2500.0000000000000 -31319910.529852271 -8369090.8544220524 -61266866.121961400 3.5805717731743200e-05 0.0039108334046410627 0.00019268677623206180 0.0000000000000000 -2.6999999997417792 -4.9585702373524887 
10000.000000000000 0.0000000000000000 -2500.0000000000000 -31319910.530267440 -8369090.8538000435 -61266866.124677271 2.0091385450509660e-05 0.0021270467532579340 0.00020330373713709556 0.0000000000000000 -3.0000000000000000 -4.9585702375630847 
9000.0000000000000 0.0000000000000000 -2333.3333333330002 -30168603.848995764 -7217784.1727988981 -57184960.614265785 3.6099037604195055e-05 0.0023160065012073610 0.00026641194075806323 0.39999999989466967 -3.0000000000000000 -5.1700189897303028 
10000.000000000000 1000.0000000000000 -2333.3333333330002 -30168603.848553929 -7217784.1733181421 -57184960.611655541 3.6826531291044839e-05 0.0041228658024138280 0.00019081712457332320 0.0000000000000000 -2.6999999997697861 -5.1700189895545208 
10000.000000000000 0.0000000000000000 -2333.3333333330002 -30168603.848982565 -7217784.1727718273 -57184960.614363872 2.0871842996688376e-05 0.0022526548519858809 0.00019976450022460263 0.0000000000000000 -3.0000000000000000 -5.1700189897783178 
9000.0000000000000 0.0000000000000000 -2166.6666666669998 -29017194.124979764 -6066374.4491071710 -53102689.770585336 3.6667021795580138e-05 0.0024256132310997965 0.00024985174540704765 0.39999999991489243 -3.0000000000000000 -5.3665698646076478 
10000.000000000000 1000.0000000000000 -2166.6666666669998 -29017194.124513291 -6066374.4495265037 -53102689.767946899 3.7048662210015767e-05 0.0043088172225934709 0.00018685033042347107 0.0000000000000000 -2.6999999997997368 -5.3665698644189241 
10000.000000000000 0.0000000000000000 -2166.6666666669998 -29017194.124958687 -6066374.4490694115 -53102689.770644963 2.1223722700235441e-05 0.0023649550355642965 0.00019396551826669539 0.0000000000000000 -3.0000000000000000 -5.3665698646558901 
9000.0000000000000 0.0000000000000000 -2000.0000000000000 -27865681.348979145 -4914861.6735044587 -49020053.560712814 3.6635959292252138e-05 0.0025190010852044944 0.00023046532048412287 0.39999999993501234 -3.0000000000000000 -5.5482215287790355 
10000.000000000000 1000.0000000000000 -2000.0000000000000 -27865681.348484013 -4914861.6738099847 -49020053.558057398 3.6478619450853139e-05 0.0044637854828264390 0.00018048856450104345 0.0000000000000000 -2.6999999998319084 -5.5482215285773702 
10000.000000000000 0.0000000000000000 -2000.0000000000000 -27865681.348949306 -4914861.6734578907 -49020053.560739517 2.1160875632706375e-05 0.0024612215797404895 0.00018572951143324936 0.0000000000000000 -3.0000000000000000 -5.5482215288274404 
9000.0000000000000 0.0000000000000000 -1833.3333333329999 -26714065.511753313 -3763245.8367631743 -44937051.951886013 3.6009161854176959e-05 0.0025930289598657440 0.00020816362338643213 0.39999999995496133 -3.0000000000000000 -5.7149726487528829 
10000.000000000000 1000.0000000000000 -1833.3333333329999 -26714065.511225797 -3763245.8369383225 -44937051.949228331 3.5106183075045818e-05 0.0045821289826535804 0.00017144966069120948 0.0000000000000000 -2.6999999998666273 -5.7149726485383603 
10000.000000000000 0.0000000000000000 -1833.3333333329999 -26714065.511713922 -3763245.8367096893 -44937051.951885216 2.0678795856537503e-05 0.0025382786941652693 0.00017488966977679952 0.0000000000000000 -3.0000000000000000 -5.7149726488014174 
9000.0000000000000 0.0000000000000000 -1666.6666666670001 -25562346.604062464 -2611526.9296580208 -40853684.911343142 3.4767408082055650e-05 0.0026439510809897824 0.00018288575105648923 0.39999999997467933 -3.0000000000000000 -5.8668218909183540 
10000.000000000000 1000.0000000000000 -1666.6666666670001 -25562346.603499293 -2611526.9296830678 -40853684.908702150 3.2916457105640233e-05 0.0046572476413498896 0.00015951082850016227 0.0000000000000000 -2.6999999999042692 -5.8668218906911536 
10000.000000000000 0.0000000000000000 -1666.6666666670001 -25562346.604013033 -2611526.9295996320 -40853684.911320403 1.9767312033468761e-05 0.0025923473899447107 0.00016133308797121272 0.0000000000000000 -3.0000000000000000 -5.8668218909670120 
0.0000000000000000 0.0000000000000000 -4833.3333333330002 -47427389.765265688 -24476570.056280412 -118375201.48968367 9.1466700065609413e-05 0.00010201404458242910 -0.00025707252423861872 4.0000000000000000 -3.0000000000000000 -0.43475698857165501 
0.0000000000000000 0.0000000000000000 -5000.0000000000000 -48002296.563889056 -25051476.854726881 -120413507.41164595 9.6717443419852800e-05 4.8369247135729989e-05 -0.00012559287296357499 4.0000000000000000 -3.0000000000000000 0.0000000000000000 
0.0000000000000000 0.0000000000000000 -4666.6666666669998 -46277524.713432632 -23326705.004943591 -114298407.21618828 7.8430585291645302e-05 0.00021900572148311032 -0.00052698638038779810 4.0000000000000000 -3.0000000000000000 -0.85463608605497832 
0.0000000000000000 0.0000000000000000 -4500.0000000000000 -45127556.747843042 -22176737.040098064 -110221248.06719303 6.2643779621723926e-05 0.00035336437178838784 -0.00080361043501657264 4.0000000000000000 -3.0000000000000000 -1.2596359608745462 
0.0000000000000000 0.0000000000000000 -4333.3333333330002 -43977485.859322220 -21026666.152506106 -106143724.00999480 4.7400491388219421e-05 0.00050096329263659670 -0.0010761262479361967 4.0000000000000000 -3.0000000000000000 -1.6497552813280341 
0.0000000000000000 0.0000000000000000 -4166.6666666669998 -42827312.038677081 -19876492.332930416 -102065835.01188767 3.4010816730599771e-05 0.00065792973136370920 -0.0013394708671625687 4.0000000000000000 -3.0000000000000000 -2.0249927155941538 
0.0000000000000000 0.0000000000000000 -4000.0000000000000 -41677035.276698641 -18726215.572131433 -97987581.040151015 2.2849283069411594e-05 0.00082095249732104807 -0.0015916572783735044 4.0000000000000000 -3.0000000000000000 -2.3853469317390248 
0.0000000000000000 0.0000000000000000 -3833.3333333330002 -40526655.564174846 -17575835.860876530 -93908962.062081501 1.3867012437862502e-05 0.00098723792310492211 -0.0018322140244191407 4.0000000000000000 -3.0000000000000000 -2.7308165977026726 
0.0000000000000000 0.0000000000000000 -3666.6666666669998 -39376172.891886719 -16425353.189933725 -89829978.044970915 6.8340284478799424e-06 0.0011544910493165696 -0.0020614023108203108 4.0000000000000000 -3.0000000000000000 -3.0614003813061434 
0.0000000000000000 0.0000000000000000 -3500.0000000000000 -38225587.250605047 -15274767.550066642 -85750628.956088737 1.4536751669206262e-06 0.0013208118560832241 -0.0022798214481016613 4.0000000000000000 -3.0000000000000000 -3.3770969502570307 
0.0000000000000000 0.0000000000000000 -3333.3333333330002 -37074898.631102055 -14124078.932045013 -81670914.762719855 -2.5794236111796527e-06 0.0014845593767561201 -0.0024879907091172179 4.0000000000000000 -3.0000000000000000 -3.6779049721375654 
0.0000000000000000 0.0000000000000000 -3166.6666666669998 -35924107.024146982 -12973287.326639414 -77590835.432146490 -5.5436223529890875e-06 0.0016442549695250721 -0.0026860699748072208 4.0000000000000000 -3.0000000000000000 -3.9638231144109430 
0.0000000000000000 0.0000000000000000 -3000.0000000000000 -34773212.420501508 -11822392.724616136 -73510390.931630403 -7.6852826740844928e-06 0.0017985004468240972 -0.0028739802628207850 4.0000000000000000 -3.0000000000000000 -4.2348500444260528 
0.0000000000000000 0.0000000000000000 -2833.3333333330002 -33622214.810930572 -10671395.116747685 -69429581.228450477 -9.2152463494020888e-06 0.0019459117290458101 -0.0030512040776844969 4.0000000000000000 -3.0000000000000000 -4.4909844294071730 
0.0000000000000000 0.0000000000000000 -2666.6666666669998 -32471114.186197374 -9520294.4938074946 -65348406.289884277 -1.0308196567080548e-05 0.0020850294200794499 -0.0032167710806712399 4.0000000000000000 -3.0000000000000000 -4.7322249364595255 
0.0000000000000000 0.0000000000000000 -2500.0000000000000 -31319910.537058409 -8369090.8465649150 -61266866.083190404 -1.1110711684352928e-05 0.0022142683741360539 -0.0033691931876363339 4.0000000000000000 -3.0000000000000000 -4.9585702325731891 
0.0000000000000000 0.0000000000000000 -2333.3333333330002 -30168603.854273789 -7217784.1657955591 -57184960.575645164 -1.1737488293749069e-05 0.0023318014439478903 -0.0035064457954348356 4.0000000000000000 -3.0000000000000000 -5.1700189846144280 
0.0000000000000000 0.0000000000000000 -2166.6666666669998 -29017194.128601998 -6066374.4422761016 -53102689.734524250 -1.2270452532790291e-05 0.0024355004384063053 -0.0036259979140772056 4.0000000000000000 -3.0000000000000000 -5.3665698593304185 
0.0000000000000000 0.0000000000000000 -2000.0000000000000 -27865681.350794740 -4914861.6667793477 -49020053.527084887 -1.2770424144246659e-05 0.0025228759693366768 -0.0037245116227766790 4.0000000000000000 -3.0000000000000000 -5.5482215233523924 
0.0000000000000000 0.0000000000000000 -1833.3333333329999 -26714065.511607133 -3763245.8300847313 -44937051.920602739 -1.3282087587532338e-05 0.0025909959141629016 -0.0037979674308254536 4.0000000000000000 -3.0000000000000000 -5.7149726431885588 
0.0000000000000000 0.0000000000000000 -1666.6666666670001 -25562346.601792239 -2611526.9229731578 -40853684.882353380 -1.3832853404251918e-05 0.0026362554672908984 -0.0038415179769531833 4.0000000000000000 -3.0000000000000000 -5.8668218852280383 
9000.0000000000000 10000.000000000000 -4833.3333333330002 -47427389.738829136 -24476570.085577447 -118375201.51176518 6.6814106415895672e-06 -5.4745329303544792e-05 0.00012671797919023057 0.39999999968483935 0.0000000000000000 -0.43475698867674611 
9000.0000000000000 10000.000000000000 -5000.0000000000000 -48002296.537608907 -25051476.884442098 -120413507.43488684 6.5580085290864580e-06 -2.7979879660112070e-05 6.4969857066958441e-05 0.39999999968336802 0.0000000000000000 0.0000000000000000 
9000.0000000000000 10000.000000000000 -4666.6666666669998 -46277524.686863415 -23326705.033363540 -114298407.23610219 7.0222815204072106e-06 -0.00010590281797207815 0.00024395790617338738 0.39999999968910582 0.0000000000000000 -0.85463608625388721 
9000.0000000000000 10000.000000000000 -4500.0000000000000 -45127556.721461348 -22176737.067564741 -110221248.08522359 7.5097698102310927e-06 -0.00015241712891080479 0.00034902794148611489 0.39999999969587891 0.0000000000000000 -1.2596359611575949 
9000.0000000000000 10000.000000000000 -4333.3333333330002 -43977485.833380297 -21026666.178954780 -106143724.02639498 8.0604462372031666e-06 -0.00019451905429772605 0.00044266548285214191 0.39999999970488137 0.0000000000000000 -1.6497552816869632 
9000.0000000000000 10000.000000000000 -4166.6666666669998 -42827312.013378285 -19876492.358307183 -102065835.02688222 8.5966736359592212e-06 -0.00023247283022647362 0.00052569846679149804 0.39999999971584865 0.0000000000000000 -2.0249927160219481 
9000.0000000000000 10000.000000000000 -4000.0000000000000 -41677035.252208732 -18726215.596390069 -97987581.053932920 9.0561395417319811e-06 -0.00026656237936380998 0.00059896285927997918 0.39999999972853029 0.0000000000000000 -2.3853469322297309 
9000.0000000000000 10000.000000000000 -3833.3333333330002 -40526655.540630810 -17575835.883976407 -93908962.074813038 9.3957320603741043e-06 -0.00029707837981139663 0.00066329544902620288 0.39999999974268852 0.0000000000000000 -2.7308165982512183 
9000.0000000000000 10000.000000000000 -3666.6666666669998 -39376172.869404390 -16425353.211838963 -89829978.056788877 9.5898310488160290e-06 -0.00032429414549547616 0.00071952334287448403 0.39999999975810080 0.0000000000000000 -3.0614003819081805 
9000.0000000000000 10000.000000000000 -3500.0000000000000 -38225587.229284756 -15274767.570745038 -85750628.967108518 9.6253213821613350e-06 -0.00034846095359987672 0.00076841588974218503 0.39999999977455891 0.0000000000000000 -3.3770969509088107 
9000.0000000000000 10000.000000000000 -3333.3333333330002 -37074898.611032978 -14124078.951466827 -81670914.773038402 9.4996055505625490e-06 -0.00036980047681263066 0.00081067648800596309 0.39999999979186956 0.0000000000000000 -3.6779049728358277 
9000.0000000000000 10000.000000000000 -3166.6666666669998 -35924107.005410731 -12973287.344776258 -77590835.441845134 9.2189998509357735e-06 -0.00038849067536737744 0.00084691169657076884 0.39999999980985346 0.0000000000000000 -3.9638231151528198 
9000.0000000000000 10000.000000000000 -3000.0000000000000 -34773212.403175145 -11822392.741439883 -73510390.940777302 8.7929396748819814e-06 -0.00040465596590686124 0.00087762412534740241 0.39999999982834517 0.0000000000000000 -4.2348500452089954 
9000.0000000000000 10000.000000000000 -2833.3333333330002 -33622214.795088977 -10671395.132229164 -69429581.237101763 8.2332539763674390e-06 -0.00041837776079452069 0.00090317513803126262 0.39999999984719253 0.0000000000000000 -4.4909844302288864 
9000.0000000000000 10000.000000000000 -2666.6666666669998 -32471114.171915486 -9520294.5079153627 -65348406.298085608 7.5547111566866414e-06 -0.00042967758299868768 0.00092377006374023615 0.39999999986625540 0.0000000000000000 -4.7322249373179028 
9000.0000000000000 10000.000000000000 -2500.0000000000000 -31319910.524413295 -8369090.8592644390 -61266866.090977795 6.7698995487288539e-06 -0.00043849607078412425 0.00093947676231060468 0.39999999988540424 0.0000000000000000 -4.9585702334662649 
9000.0000000000000 10000.000000000000 -2333.3333333330002 -30168603.843346484 -7217784.1770473029 -57184960.583045542 5.8905578488512109e-06 -0.00044472205454794986 0.00095019788049657871 0.39999999990451945 0.0000000000000000 -5.1700189855403273 
9000.0000000000000 10000.000000000000 -2166.6666666669998 -29017194.119479571 -6066374.4520348180 -53102689.741556413 4.9278693219700211e-06 -0.00044818054561473320 0.00095563570704587728 0.39999999992348945 0.0000000000000000 -5.3665698602873189 
9000.0000000000000 10000.000000000000 -2000.0000000000000 -27865681.343572143 -4914861.6749925865 -49020053.533759743 3.8894815647361091e-06 -0.00044860517295124201 0.00095531597293696774 0.39999999994220892 0.0000000000000000 -5.5482215243384783 
9000.0000000000000 10000.000000000000 -1833.3333333329999 -26714065.506389212 -3763245.8366913577 -44937051.926923349 2.7820311150056782e-06 -0.00044566387187058040 0.00094857511811328565 0.39999999996057750 0.0000000000000000 -5.7149726442019864 
9000.0000000000000 10000.000000000000 -1666.6666666670001 -25562346.598695841 -2611526.9279017742 -40853684.888314798 1.6106175276947792e-06 -0.00043895251045640609 0.00093452979829713317 0.39999999997849778 0.0000000000000000 -5.8668218862668935 
5000.0000000000000 10000.000000000000 -4833.3333333330002 -47427389.735702187 -24476570.075942993 -118375201.47210988 5.0624652005151192e-05 -5.5522926377803265e-05 -8.3542552364675952e-05 1.9999999986003583 0.0000000000000000 -0.43475698851767419 
5000.0000000000000 10000.000000000000 -5000.0000000000000 -48002296.534005687 -25051476.874286219 -120413507.39334023 5.1251861677498859e-05 -2.8430605331446512e-05 -3.4770924657365359e-05 1.9999999985940495 0.0000000000000000 0.0000000000000000 
5000.0000000000000 10000.000000000000 -4666.6666666669998 -46277524.684611164 -23326705.024736002 -114298407.20014128 4.8809386630947005e-05 -0.00010711918852735386 -0.00020494524359579306 1.9999999986183816 0.0000000000000000 -0.85463608594962903 
5000.0000000000000 10000.000000000000 -4500.0000000000000 -45127556.719933964 -22176737.059873257 -110221248.05277897 4.5994853230175322e-05 -0.00015372424654917140 -0.00036693490880892533 1.9999999986464609 0.0000000000000000 -1.2596359607215875 
5000.0000000000000 10000.000000000000 -4333.3333333330002 -43977485.832440265 -21026666.172130860 -106143723.99728669 4.2443023645484950e-05 -0.00019572699270944079 -0.00055685596972455563 1.9999999986832018 0.0000000000000000 -1.6497552811321556 
5000.0000000000000 10000.000000000000 -4166.6666666669998 -42827312.012900941 -19876492.352285083 -102065835.00092965 3.8422218127321007e-05 -0.00023354320215608263 -0.00076467796111752374 1.9999999987274242 0.0000000000000000 -2.0249927153607685 
5000.0000000000000 10000.000000000000 -4000.0000000000000 -41677035.252082124 -18726215.591106903 -97987581.030955821 3.4167450132634976e-05 -0.00026757524331061481 -0.00098214442239157561 1.9999999987781265 0.0000000000000000 -2.3853469314740550 
5000.0000000000000 10000.000000000000 -3833.3333333330002 -40526655.540755466 -17575835.879372299 -93908962.054632679 2.9862158705513127e-05 -0.00029818084873539213 -0.0012022492385526785 1.9999999988344550 0.0000000000000000 -2.7308165974123453 
5000.0000000000000 10000.000000000000 -3666.6666666669998 -39376172.869692810 -16425353.207856961 -89829978.039228231 2.5641622644814289e-05 -0.00032567204592808257 -0.0014188080137661383 1.9999999988956829 0.0000000000000000 -3.0614003809968171 
5000.0000000000000 10000.000000000000 -3500.0000000000000 -38225587.229661085 -15274767.567331107 -85750628.951992691 2.1603950235943486e-05 -0.00035032044086324830 -0.0016263109792252841 1.9999999989611967 0.0000000000000000 -3.3770969499350514 
5000.0000000000000 10000.000000000000 -3333.3333333330002 -37074898.611432761 -14124078.948569875 -81670914.760195106 1.7810792633108766e-05 -0.00037233627128413374 -0.0018198098656527586 1.9999999990304789 0.0000000000000000 -3.6779049718091446 
5000.0000000000000 10000.000000000000 -3166.6666666669998 -35924107.005780727 -12973287.342348143 -77590835.431104809 1.4296171747783757e-05 -0.00039186049180463348 -0.0019948272430035893 1.9999999991031001 0.0000000000000000 -3.9638231140820523 
5000.0000000000000 10000.000000000000 -3000.0000000000000 -34773212.403473116 -11822392.739435349 -73510390.931972921 1.1076806066337218e-05 -0.00040898655376466603 -0.0021473643103911465 1.9999999991787083 0.0000000000000000 -4.2348500441023429 
5000.0000000000000 10000.000000000000 -2833.3333333330002 -33622214.795283705 -10671395.130605871 -69429581.230069041 8.1526764958133683e-06 -0.00042374268696721121 -0.0022739233910604975 1.9999999992570223 0.0000000000000000 -4.4909844290939009 
5000.0000000000000 10000.000000000000 -2666.6666666669998 -32471114.171986770 -9520294.5066339280 -65348406.292662986 5.5094702622715150e-06 -0.00043609329519980522 -0.0023714960878129287 1.9999999993378210 0.0000000000000000 -4.7322249361614812 
5000.0000000000000 10000.000000000000 -2500.0000000000000 -31319910.524351858 -8369090.8582883524 -61266866.087006055 3.1235832651999538e-06 -0.00044594546866818439 -0.0024375940400219835 1.9999999994209390 0.0000000000000000 -4.9585702322946474 
5000.0000000000000 10000.000000000000 -2333.3333333330002 -30168603.843154129 -7217784.1763430061 -57184960.580367938 9.6239605751313201e-07 -0.00045313796562507816 -0.0024702675583583010 1.9999999995062556 0.0000000000000000 -5.1700189843590856 
5000.0000000000000 10000.000000000000 -2166.6666666669998 -29017194.119169176 -6066374.4515716247 -53102689.740018196 -1.0101874615494023e-06 -0.00045744396175584063 -0.0024681598487840259 1.9999999995936926 0.0000000000000000 -5.3665698591013555 
5000.0000000000000 10000.000000000000 -2000.0000000000000 -27865681.343167871 -4914861.6747427406 -49020053.533208072 -2.8354618838895486e-06 -0.00045856036506610777 -0.0024305592369940321 1.9999999996832032 0.0000000000000000 -5.5482215231520149 
5000.0000000000000 10000.000000000000 -1833.3333333329999 -26714065.505926657 -3763245.8366300012 -44937051.927207008 -4.5605954888959048e-06 -0.00045611814690659722 -0.0023573522900023182 1.9999999997747679 0.0000000000000000 -5.7149726430185579 
5000.0000000000000 10000.000000000000 -1666.6666666670001 -25562346.598222408 -2611526.9280071212 -40853684.889284477 -6.2329466176532251e-06 -0.00044967913435653732 -0.0022491730744559407 1.9999999998683855 0.0000000000000000 -5.8668218850893421 
10000.000000000000 10000.000000000000 -4833.3333333330002 -47427389.739192128 -24476570.085944951 -118375201.51302952 4.6777932586327034e-06 -5.4961537934777951e-05 6.8082383775039501e-05 0.0000000000000000 0.0000000000000000 -0.43475698868131951 
10000.000000000000 10000.000000000000 -5000.0000000000000 -48002296.537991025 -25051476.884828635 -120413507.43621935 4.6406192737324065e-06 -2.8078322940104848e-05 3.4806166782285545e-05 0.0000000000000000 0.0000000000000000 0.0000000000000000 
10000.000000000000 10000.000000000000 -4666.6666666669998 -46277524.687188976 -23326705.033693731 -114298407.23723230 4.7748219241746352e-06 -0.00010638677580080631 0.00013158841516549630 0.0000000000000000 0.0000000000000000 -0.85463608626253629 
10000.000000000000 10000.000000000000 -4500.0000000000000 -45127556.721751302 -22176737.067859158 -110221248.08622383 4.9020469671415329e-06 -0.00015322152555208296 0.00018912419037037527 0.0000000000000000 0.0000000000000000 -1.2596359611698382 
10000.000000000000 10000.000000000000 -4333.3333333330002 -43977485.833636850 -21026666.179214992 -106143724.02727017 5.0331704445337031e-06 -0.00019566393041222841 0.00024095827437710003 0.0000000000000000 0.0000000000000000 -1.6497552817023358 
10000.000000000000 10000.000000000000 -4166.6666666669998 -42827312.013603836 -19876492.358534791 -102065835.02763750 5.1472873054971887e-06 -0.00023394505680351775 0.00028740824899774691 0.0000000000000000 0.0000000000000000 -2.0249927160400061 
10000.000000000000 10000.000000000000 -4000.0000000000000 -41677035.252405807 -18726215.596586704 -97987581.054573819 5.2264710002794452e-06 -0.00026831979221414437 0.00032881252472342307 0.0000000000000000 0.0000000000000000 -2.3853469322500480 
10000.000000000000 10000.000000000000 -3833.3333333330002 -40526655.540801972 -17575835.884143755 -93908962.075345457 5.2566448133021269e-06 -0.00029905467430677317 0.00036551869749268818 0.0000000000000000 0.0000000000000000 -2.7308165982733899 
10000.000000000000 10000.000000000000 -3666.6666666669998 -39376172.869552076 -16425353.211978715 -89829978.057218954 5.2282136664250255e-06 -0.00032641172786361191 0.00039787682797112062 0.0000000000000000 0.0000000000000000 -3.0614003819318252 
10000.000000000000 10000.000000000000 -3500.0000000000000 -38225587.229411274 -15274767.570858918 -85750628.967442721 5.1358454178162449e-06 -0.00035063417631259685 0.00042622211903325675 0.0000000000000000 0.0000000000000000 -3.3770969509335687 
10000.000000000000 10000.000000000000 -3333.3333333330002 -37074898.611140385 -14124078.951556582 -81670914.773283511 4.9779831237182301e-06 -0.00037194391451433667 0.00045085647543875566 0.0000000000000000 0.0000000000000000 -3.6779049728613646 
10000.000000000000 10000.000000000000 -3166.6666666669998 -35924107.005500771 -12973287.344843624 -77590835.442008138 4.7560431343050774e-06 -0.00039053009464600337 0.00047204549061683268 0.0000000000000000 0.0000000000000000 -3.9638231151788279 
10000.000000000000 10000.000000000000 -3000.0000000000000 -34773212.403249189 -11822392.741486575 -73510390.940865383 4.4724554621303859e-06 -0.00040653057479120920 0.00049000756021001931 0.0000000000000000 0.0000000000000000 -4.2348500452351932 
10000.000000000000 10000.000000000000 -2833.3333333330002 -33622214.795147978 -10671395.132256866 -69429581.237122297 4.1323925624868156e-06 -0.00042004022264004648 0.00050489437254480391 0.0000000000000000 0.0000000000000000 -4.4909844302550219 
10000.000000000000 10000.000000000000 -2666.6666666669998 -32471114.171959966 -9520294.5079257078 -65348406.298046082 3.7430871941678249e-06 -0.00043109111435822280 0.00051679535208315908 0.0000000000000000 0.0000000000000000 -4.7322249373437515 
10000.000000000000 10000.000000000000 -2500.0000000000000 -31319910.524443239 -8369090.8592589712 -61266866.090885788 3.3089376798954292e-06 -0.00043963834331374772 0.00052572938349407282 0.0000000000000000 0.0000000000000000 -4.9585702334916348 
10000.000000000000 10000.000000000000 -2333.3333333330002 -30168603.843361359 -7217784.1770274732 -57184960.582908623 2.8338841114529625e-06 -0.00044558668078609220 0.00053162812093875177 0.0000000000000000 0.0000000000000000 -5.1700189855650551 
10000.000000000000 10000.000000000000 -2166.6666666669998 -29017194.119478293 -6066374.4520019870 -53102689.741382241 2.3229080145753004e-06 -0.00044877113586575977 0.00053432976723848439 0.0000000000000000 0.0000000000000000 -5.3665698603112748 
10000.000000000000 10000.000000000000 -2000.0000000000000 -27865681.343553066 -4914861.6749480013 -49020053.533555999 1.7787240604294640e-06 -0.00044893554357224318 0.00053359565350314915 0.0000000000000000 0.0000000000000000 -5.5482215243615647 
10000.000000000000 10000.000000000000 -1833.3333333329999 -26714065.506350048 -3763245.8366360823 -44937051.926697508 1.2017071652380079e-06 -0.00044576186386252755 0.00052908702209698865 0.0000000000000000 0.0000000000000000 -5.7149726442241340 
10000.000000000000 10000.000000000000 -1666.6666666670001 -25562346.598633684 -2611526.9278367418 -40853684.888074346 5.9263146157157851e-07 -0.00043885629584506963 0.00052033644969097883 0.0000000000000000 0.0000000000000000 -5.8668218862880712 
1 2 3 4 5 6 7 8 
9 10 11 12 1 2 3 4 
13 14 15 16 9 10 11 12 
17 18 19 20 13 14 15 16 
21 22 23 24 17 18 19 20 
25 26 27 28 21 22 23 24 
29 30 31 32 25 26 27 28 
33 34 35 36 29 30 31 32 
37 38 39 40 33 34 35 36 
41 42 43 44 45 46 47 48 
49 50 51 52 41 42 43 44 
53 54 55 56 49 50 51 52 
57 58 59 60 53 54 55 56 
61 62 63 64 57 58 59 60 
65 66 67 68 61 62 63 64 
69 70 71 72 65 66 67 68 
73 74 75 76 69 70 71 72 
77 78 79 80 73 74 75 76 
81 82 83 84 85 86 87 88 
89 90 91 92 81 82 83 84 
93 94 95 96 89 90 91 92 
97 98 99 100 93 94 95 96 
101 102 103 104 97 98 99 100 
105 106 107 108 101 102 103 104 
109 110 111 112 105 106 107 108 
113 114 115 116 109 110 111 112 
117 118 119 120 113 114 115 116 
121 122 1 123 124 125 5 126 
127 128 9 129 121 122 1 123 
130 131 13 132 127 128 9 129 
133 134 17 135 130 131 13 132 
136 137 21 138 133 134 17 135 
139 140 25 141 136 137 21 138 
142 143 29 144 139 140 25 141 
145 146 33 147 142 143 29 144 
148 149 37 150 145 146 33 147 
151 152 153 154 155 156 157 158 
159 160 161 162 151 152 153 154 
163 164 165 166 159 160 161 162 
167 168 169 170 163 164 165 166 
171 172 173 174 167 168 169 170 
175 176 177 178 171 172 173 174 
179 180 181 182 175 176 177 178 
183 184 185 186 179 180 181 182 
187 188 189 190 183 184 185 186 
191 192 193 194 195 196 197 198 
199 200 201 202 191 192 193 194 
203 204 205 206 199 200 201 202 
207 208 209 210 203 204 205 206 
211 212 213 214 207 208 209 210 
215 216 217 218 211 212 213 214 
219 220 221 222 215 216 217 218 
223 224 225 226 219 220 221 222 
227 228 229 230 223 224 225 226 
231 191 194 232 233 195 198 234 
235 199 202 236 231 191 194 232 
237 203 206 238 235 199 202 236 
239 207 210 240 237 203 206 238 
241 211 214 242 239 207 210 240 
243 215 218 244 241 211 214 242 
245 219 222 246 243 215 218 244 
247 223 226 248 245 219 222 246 
249 227 230 250 247 223 226 248 
251 252 122 121 253 254 125 124 
255 256 128 127 251 252 122 121 
257 258 131 130 255 256 128 127 
259 260 134 133 257 258 131 130 
261 262 137 136 259 260 134 133 
263 264 140 139 261 262 137 136 
265 266 143 142 263 264 140 139 
267 268 146 145 265 266 143 142 
269 270 149 148 267 268 146 145 
271 272 273 274 275 276 277 278 
279 280 281 282 271 272 273 274 
283 284 285 286 279 280 281 282 
287 288 289 290 283 284 285 286 
291 292 293 294 287 288 289 290 
295 296 297 298 291 292 293 294 
299 300 301 302 295 296 297 298 
303 304 305 306 299 300 301 302 
307 308 309 310 303 304 305 306 
311 312 313 314 315 316 317 318 
319 320 321 322 311 312 313 314 
323 324 325 326 319 320 321 322 
327 328 329 330 323 324 325 326 
331 332 333 334 327 328 329 330 
335 336 337 338 331 332 333 334 
339 340 341 342 335 336 337 338 
343 344 345 346 339 340 341 342 
347 348 349 350 343 344 345 346 
154 153 314 313 158 157 318 317 
162 161 322 321 154 153 314 313 
166 165 326 325 162 161 322 321 
170 169 330 329 166 165 326 325 
174 173 334 333 170 169 330 329 
178 177 338 337 174 173 334 333 
182 181 342 341 178 177 338 337 
186 185 346 345 182 181 342 341 
190 189 350 349 186 185 346 345 
274 273 351 352 278 277 353 354 
282 281 355 356 274 273 351 352 
286 285 357 358 282 281 355 356 
290 289 359 360 286 285 357 358 
294 293 361 362 290 289 359 360 
298 297 363 364 294 293 361 362 
302 301 365 366 298 297 363 364 
306 305 367 368 302 301 365 366 
310 309 369 370 306 305 367 368 
371 372 373 374 375 376 377 378 
379 380 381 382 371 372 373 374 
383 384 385 386 379 380 381 382 
387 388 389 390 383 384 385 386 
391 392 393 394 387 388 389 390 
395 396 397 398 391 392 393 394 
399 400 401 402 395 396 397 398 
403 404 405 406 399 400 401 402 
407 408 409 410 403 404 405 406 
411 412 413 414 415 416 417 418 
419 420 421 422 411 412 413 414 
423 424 425 426 419 420 421 422 
427 428 429 430 423 424 425 426 
431 432 433 434 427 428 429 430 
435 436 437 438 431 432 433 434 
439 440 441 442 435 436 437 438 
443 444 445 446 439 440 441 442 
447 448 449 450 443 444 445 446 
411 451 452 453 415 454 455 456 
419 457 458 459 411 451 452 453 
423 460 461 462 419 457 458 459 
427 463 464 465 423 460 461 462 
431 466 467 468 427 463 464 465 
435 469 470 471 431 466 467 468 
439 472 473 474 435 469 470 471 
443 475 476 477 439 472 473 474 
447 478 479 480 443 475 476 477 
481 482 483 484 485 486 487 488 
489 490 491 492 481 482 483 484 
493 494 495 496 489 490 491 492 
497 498 499 500 493 494 495 496 
501 502 503 504 497 498 499 500 
505 506 507 508 501 502 503 504 
509 510 511 512 505 506 507 508 
513 514 515 516 509 510 511 512 
517 518 519 520 513 514 515 516 
521 352 522 523 524 354 525 526 
527 356 528 529 521 352 522 523 
530 358 531 532 527 356 528 529 
533 360 534 535 530 358 531 532 
536 362 537 538 533 360 534 535 
539 364 540 541 536 362 537 538 
542 366 543 544 539 364 540 541 
545 368 546 547 542 366 543 544 
548 370 549 550 545 368 546 547 
551 552 553 554 555 556 557 558 
559 560 561 562 551 552 553 554 
563 564 565 566 559 560 561 562 
567 568 569 570 563 564 565 566 
571 572 573 574 567 568 569 570 
575 576 577 578 571 572 573 574 
579 580 581 582 575 576 577 578 
583 584 585 586 579 580 581 582 
587 588 589 590 583 584 585 586 
591 154 313 592 593 158 317 594 
595 162 321 596 591 154 313 592 
597 166 325 598 595 162 321 596 
599 170 329 600 597 166 325 598 
601 174 333 602 599 170 329 600 
603 178 337 604 601 174 333 602 
605 182 341 606 603 178 337 604 
607 186 345 608 605 182 341 606 
609 190 349 610 607 186 345 608 
151 611 612 613 155 614 615 616 
159 617 618 619 151 611 612 613 
163 620 621 622 159 617 618 619 
167 623 624 625 163 620 621 622 
171 626 627 628 167 623 624 625 
175 629 630 631 171 626 627 628 
179 632 633 634 175 629 630 631 
183 635 636 637 179 632 633 634 
187 638 639 640 183 635 636 637 
641 84 642 312 643 88 644 316 
645 92 646 320 641 84 642 312 
647 96 648 324 645 92 646 320 
649 100 650 328 647 96 648 324 
651 104 652 332 649 100 650 328 
653 108 654 336 651 104 652 332 
655 112 656 340 653 108 654 336 
657 116 658 344 655 112 656 340 
659 120 660 348 657 116 658 344 
661 662 663 664 665 666 667 668 
669 670 671 672 661 662 663 664 
673 674 675 676 669 670 671 672 
677 678 679 680 673 674 675 676 
681 682 683 684 677 678 679 680 
685 686 687 688 681 682 683 684 
689 690 691 692 685 686 687 688 
693 694 695 696 689 690 691 692 
697 698 699 700 693 694 695 696 
352 351 701 522 354 353 702 525 
356 355 703 528 352 351 701 522 
358 357 704 531 356 355 703 528 
360 359 705 534 358 357 704 531 
362 361 706 537 360 359 705 534 
364 363 707 540 362 361 706 537 
366 365 708 543 364 363 707 540 
368 367 709 546 366 365 708 543 
370 369 710 549 368 367 709 546 
483 711 712 523 487 713 714 526 
491 715 716 529 483 711 712 523 
495 717 718 532 491 715 716 529 
499 719 720 535 495 717 718 532 
503 721 722 538 499 719 720 535 
507 723 724 541 503 721 722 538 
511 725 726 544 507 723 724 541 
515 727 728 547 511 725 726 544 
519 729 730 550 515 727 728 547 
731 732 733 664 734 735 736 668 
737 738 739 672 731 732 733 664 
740 741 742 676 737 738 739 672 
743 744 745 680 740 741 742 676 
746 747 748 684 743 744 745 680 
749 750 751 688 746 747 748 684 
752 753 754 692 749 750 751 688 
755 756 757 696 752 753 754 692 
758 759 760 700 755 756 757 696 
83 761 762 763 87 764 765 766 
91 767 768 769 83 761 762 763 
95 770 771 772 91 767 768 769 
99 773 774 775 95 770 771 772 
103 776 777 778 99 773 774 775 
107 779 780 781 103 776 777 778 
111 782 783 784 107 779 780 781 
115 785 786 787 111 782 783 784 
119 788 789 790 115 785 786 787 
481 451 791 792 485 454 793 794 
489 457 795 796 481 451 791 792 
493 460 797 798 489 457 795 796 
497 463 799 800 493 460 797 798 
501 466 801 802 497 463 799 800 
505 469 803 804 501 466 801 802 
509 472 805 806 505 469 803 804 
513 475 807 808 509 472 805 806 
517 478 809 810 513 475 807 808 
811 812 813 711 814 815 816 713 
817 818 819 715 811 812 813 711 
820 821 822 717 817 818 819 715 
823 824 825 719 820 821 822 717 
826 827 828 721 823 824 825 719 
829 830 831 723 826 827 828 721 
832 833 834 725 829 830 831 723 
835 836 837 727 832 833 834 725 
838 839 840 729 835 836 837 727 
841 842 554 553 843 844 558 557 
845 846 562 561 841 842 554 553 
847 848 566 565 845 846 562 561 
849 850 570 569 847 848 566 565 
851 852 574 573 849 850 570 569 
853 854 578 577 851 852 574 573 
855 856 582 581 853 854 578 577 
857 858 586 585 855 856 582 581 
859 860 590 589 857 858 586 585 
813 591 592 861 816 593 594 862 
819 595 596 863 813 591 592 861 
822 597 598 864 819 595 596 863 
825 599 600 865 822 597 598 864 
828 601 602 866 825 599 600 865 
831 603 604 867 828 601 602 866 
834 605 606 868 831 603 604 867 
837 607 608 869 834 605 606 868 
840 609 610 870 837 607 608 869 
871 872 842 841 873 874 844 843 
875 876 846 845 871 872 842 841 
877 878 848 847 875 876 846 845 
879 880 850 849 877 878 848 847 
881 882 852 851 879 880 850 849 
883 884 854 853 881 882 852 851 
885 886 856 855 883 884 854 853 
887 888 858 857 885 886 856 855 
889 890 860 859 887 888 858 857 
271 871 841 662 275 873 843 666 
279 875 845 670 271 871 841 662 
283 877 847 674 279 875 845 670 
287 879 849 678 283 877 847 674 
291 881 851 682 287 879 849 678 
295 883 853 686 291 881 851 682 
299 885 855 690 295 883 853 686 
303 887 857 694 299 885 855 690 
307 889 859 698 303 887 857 694 
711 813 861 712 713 816 862 714 
715 819 863 716 711 813 861 712 
717 822 864 718 715 819 863 716 
719 825 865 720 717 822 864 718 
721 828 866 722 719 825 865 720 
723 831 867 724 721 828 866 722 
725 834 868 726 723 831 867 724 
727 837 869 728 725 834 868 726 
729 840 870 730 727 837 869 728 
611 812 891 612 614 815 892 615 
617 818 893 618 611 812 891 612 
620 821 894 621 617 818 893 618 
623 824 895 624 620 821 894 621 
626 827 896 627 623 824 895 624 
629 830 897 630 626 827 896 627 
632 833 898 633 629 830 897 630 
635 836 899 636 632 833 898 633 
638 839 900 639 635 836 899 636 
901 551 554 902 903 555 558 904 
905 559 562 906 901 551 554 902 
907 563 566 908 905 559 562 906 
909 567 570 910 907 563 566 908 
911 571 574 912 909 567 570 910 
913 575 578 914 911 571 574 912 
915 579 582 916 913 575 578 914 
917 583 586 918 915 579 582 916 
919 587 590 920 917 583 586 918 
921 272 661 922 923 276 665 924 
925 280 669 926 921 272 661 922 
927 284 673 928 925 280 669 926 
929 288 677 930 927 284 673 928 
931 292 681 932 929 288 677 930 
933 296 685 934 931 292 681 932 
935 300 689 936 933 296 685 934 
937 304 693 938 935 300 689 936 
939 308 697 940 937 304 693 938 
273 251 121 351 277 253 124 353 
281 255 127 355 273 251 121 351 
285 257 130 357 281 255 127 355 
289 259 133 359 285 257 130 357 
293 261 136 361 289 259 133 359 
297 263 139 363 293 261 136 361 
301 265 142 365 297 263 139 363 
305 267 145 367 301 265 142 365 
309 269 148 369 305 267 145 367 
941 942 943 252 944 945 946 254 
947 948 949 256 941 942 943 252 
950 951 952 258 947 948 949 256 
953 954 955 260 950 951 952 258 
956 957 958 262 953 954 955 260 
959 960 961 264 956 957 958 262 
962 963 964 266 959 960 961 264 
965 966 967 268 962 963 964 266 
968 969 970 270 965 966 967 268 
82 872 761 83 86 874 764 87 
90 876 767 91 82 872 761 83 
94 878 770 95 90 876 767 91 
98 880 773 99 94 878 770 95 
102 882 776 103 98 880 773 99 
106 884 779 107 102 882 776 103 
110 886 782 111 106 884 779 107 
114 888 785 115 110 886 782 111 
118 890 788 119 114 888 785 115 
84 83 763 642 88 87 766 644 
92 91 769 646 84 83 763 642 
96 95 772 648 92 91 769 646 
100 99 775 650 96 95 772 648 
104 103 778 652 100 99 775 650 
108 107 781 654 104 103 778 652 
112 111 784 656 108 107 781 654 
116 115 787 658 112 111 784 656 
120 119 790 660 116 115 787 658 
791 414 971 972 793 418 973 974 
795 422 975 976 791 414 971 972 
797 426 977 978 795 422 975 976 
799 430 979 980 797 426 977 978 
801 434 981 982 799 430 979 980 
803 438 983 984 801 434 981 982 
805 442 985 986 803 438 983 984 
807 446 987 988 805 442 985 986 
809 450 989 990 807 446 987 988 
4 3 991 412 8 7 992 416 
12 11 993 420 4 3 991 412 
16 15 994 424 12 11 993 420 
20 19 995 428 16 15 994 424 
24 23 996 432 20 19 995 428 
28 27 997 436 24 23 996 432 
32 31 998 440 28 27 997 436 
36 35 999 444 32 31 998 440 
40 39 1000 448 36 35 999 444 
552 1001 663 553 556 1002 667 557 
560 1003 671 561 552 1001 663 553 
564 1004 675 565 560 1003 671 561 
568 1005 679 569 564 1004 675 565 
572 1006 683 573 568 1005 679 569 
576 1007 687 577 572 1006 683 573 
580 1008 691 581 576 1007 687 577 
584 1009 695 585 580 1008 691 581 
588 1010 699 589 584 1009 695 585 
453 452 701 123 456 455 702 126 
459 458 703 129 453 452 701 123 
462 461 704 132 459 458 703 129 
465 464 705 135 462 461 704 132 
468 467 706 138 465 464 705 135 
471 470 707 141 468 467 706 138 
474 473 708 144 471 470 707 141 
477 476 709 147 474 473 708 144 
480 479 710 150 477 476 709 147 
732 1011 373 733 735 1012 377 736 
738 1013 381 739 732 1011 373 733 
741 1014 385 742 738 1013 381 739 
744 1015 389 745 741 1014 385 742 
747 1016 393 748 744 1015 389 745 
750 1017 397 751 747 1016 393 748 
753 1018 401 754 750 1017 397 751 
756 1019 405 757 753 1018 401 754 
759 1020 409 760 756 1019 405 757 
81 1021 191 231 85 1022 195 233 
89 1023 199 235 81 1021 191 231 
93 1024 203 237 89 1023 199 235 
97 1025 207 239 93 1024 203 237 
101 1026 211 241 97 1025 207 239 
105 1027 215 243 101 1026 211 241 
109 1028 219 245 105 1027 215 243 
113 1029 223 247 109 1028 219 245 
117 1030 227 249 113 1029 223 247 
42 792 1031 43 46 794 1032 47 
50 796 1033 51 42 792 1031 43 
54 798 1034 55 50 796 1033 51 
58 800 1035 59 54 798 1034 55 
62 802 1036 63 58 800 1035 59 
66 804 1037 67 62 802 1036 63 
70 806 1038 71 66 804 1037 67 
74 808 1039 75 70 806 1038 71 
78 810 1040 79 74 808 1039 75 
942 941 372 371 945 944 376 375 
948 947 380 379 942 941 372 371 
951 950 384 383 948 947 380 379 
954 953 388 387 951 950 384 383 
957 956 392 391 954 953 388 387 
960 959 396 395 957 956 392 391 
963 962 400 399 960 959 396 395 
966 965 404 403 963 962 400 399 
969 968 408 407 966 965 404 403 
811 482 42 41 814 486 46 45 
817 490 50 49 811 482 42 41 
820 494 54 53 817 490 50 49 
823 498 58 57 820 494 54 53 
826 502 62 61 823 498 58 57 
829 506 66 65 826 502 62 61 
832 510 70 69 829 506 66 65 
835 514 74 73 832 510 70 69 
838 518 78 77 835 514 74 73 
414 413 1041 971 418 417 1042 973 
422 421 1043 975 414 413 1041 971 
426 425 1044 977 422 421 1043 975 
430 429 1045 979 426 425 1044 977 
434 433 1046 981 430 429 1045 979 
438 437 1047 983 434 433 1046 981 
442 441 1048 985 438 437 1047 983 
446 445 1049 987 442 441 1048 985 
450 449 1050 989 446 445 1049 987 
872 871 1051 761 874 873 1052 764 
876 875 1053 767 872 871 1051 761 
878 877 1054 770 876 875 1053 767 
880 879 1055 773 878 877 1054 770 
882 881 1056 776 880 879 1055 773 
884 883 1057 779 882 881 1056 776 
886 885 1058 782 884 883 1057 779 
888 887 1059 785 886 885 1058 782 
890 889 1060 788 888 887 1059 785 
453 4 412 411 456 8 416 415 
459 12 420 419 453 4 412 411 
462 16 424 423 459 12 420 419 
465 20 428 427 462 16 424 423 
468 24 432 431 465 20 428 427 
471 28 436 435 468 24 432 431 
474 32 440 439 471 28 436 435 
477 36 444 443 474 32 440 439 
480 40 448 447 477 36 444 443 
1061 231 232 902 1062 233 234 904 
1063 235 236 906 1061 231 232 902 
1064 237 238 908 1063 235 236 906 
1065 239 240 910 1064 237 238 908 
1066 241 242 912 1065 239 240 910 
1067 243 244 914 1066 241 242 912 
1068 245 246 916 1067 243 244 914 
1069 247 248 918 1068 245 246 916 
1070 249 250 920 1069 247 248 918 
891 41 44 1071 892 45 48 1072 
893 49 52 1073 891 41 44 1071 
894 53 56 1074 893 49 52 1073 
895 57 60 1075 894 53 56 1074 
896 61 64 1076 895 57 60 1075 
897 65 68 1077 896 61 64 1076 
898 69 72 1078 897 65 68 1077 
899 73 76 1079 898 69 72 1078 
900 77 80 1080 899 73 76 1079 
941 921 922 372 944 923 924 376 
947 925 926 380 941 921 922 372 
950 927 928 384 947 925 926 380 
953 929 930 388 950 927 928 384 
956 931 932 392 953 929 930 388 
959 933 934 396 956 931 932 392 
962 935 936 400 959 933 934 396 
965 937 938 404 962 935 936 400 
968 939 940 408 965 937 938 404 
763 762 712 861 766 765 714 862 
769 768 716 863 763 762 712 861 
772 771 718 864 769 768 716 863 
775 774 720 865 772 771 718 864 
778 777 722 866 775 774 720 865 
781 780 724 867 778 777 722 866 
784 783 726 868 781 780 724 867 
787 786 728 869 784 783 726 868 
790 789 730 870 787 786 728 869 
642 763 861 592 644 766 862 594 
646 769 863 596 642 763 861 592 
648 772 864 598 646 769 863 596 
650 775 865 600 648 772 864 598 
652 778 866 602 650 775 865 600 
654 781 867 604 652 778 866 602 
656 784 868 606 654 781 867 604 
658 787 869 608 656 784 868 606 
660 790 870 610 658 787 869 608 
451 411 414 791 454 415 418 793 
457 419 422 795 451 411 414 791 
460 423 426 797 457 419 422 795 
463 427 430 799 460 423 426 797 
466 431 434 801 463 427 430 799 
469 435 438 803 466 431 434 801 
472 439 442 805 469 435 438 803 
475 443 446 807 472 439 442 805 
478 447 450 809 475 443 446 807 
452 484 522 701 455 488 525 702 
458 492 528 703 452 484 522 701 
461 496 531 704 458 492 528 703 
464 500 534 705 461 496 531 704 
467 504 537 706 464 500 534 705 
470 508 540 707 467 504 537 706 
473 512 543 708 470 508 540 707 
476 516 546 709 473 512 543 708 
479 520 549 710 476 516 546 709 
761 1051 521 762 764 1052 524 765 
767 1053 527 768 761 1051 521 762 
770 1054 530 771 767 1053 527 768 
773 1055 533 774 770 1054 530 771 
776 1056 536 777 773 1055 533 774 
779 1057 539 780 776 1056 536 777 
782 1058 542 783 779 1057 539 780 
785 1059 545 786 782 1058 542 783 
788 1060 548 789 785 1059 545 786 
612 891 1071 1081 615 892 1072 1082 
618 893 1073 1083 612 891 1071 1081 
621 894 1074 1084 618 893 1073 1083 
624 895 1075 1085 621 894 1074 1084 
627 896 1076 1086 624 895 1075 1085 
630 897 1077 1087 627 896 1076 1086 
633 898 1078 1088 630 897 1077 1087 
636 899 1079 1089 633 898 1078 1088 
639 900 1080 1090 636 899 1079 1089 
82 81 231 1061 86 85 233 1062 
90 89 235 1063 82 81 231 1061 
94 93 237 1064 90 89 235 1063 
98 97 239 1065 94 93 237 1064 
102 101 241 1066 98 97 239 1065 
106 105 243 1067 102 101 241 1066 
110 109 245 1068 106 105 243 1067 
114 113 247 1069 110 109 245 1068 
118 117 249 1070 114 113 247 1069 
1091 1092 232 194 1093 1094 234 198 
1095 1096 236 202 1091 1092 232 194 
1097 1098 238 206 1095 1096 236 202 
1099 1100 240 210 1097 1098 238 206 
1101 1102 242 214 1099 1100 240 210 
1103 1104 244 218 1101 1102 242 214 
1105 1106 246 222 1103 1104 244 218 
1107 1108 248 226 1105 1106 246 222 
1109 1110 250 230 1107 1108 248 226 
451 481 484 452 454 485 488 455 
457 489 492 458 451 481 484 452 
460 493 496 461 457 489 492 458 
463 497 500 464 460 493 496 461 
466 501 504 467 463 497 500 464 
469 505 508 470 466 501 504 467 
472 509 512 473 469 505 508 470 
475 513 516 476 472 509 512 473 
478 517 520 479 475 513 516 476 
1092 901 902 232 1094 903 904 234 
1096 905 906 236 1092 901 902 232 
1098 907 908 238 1096 905 906 236 
1100 909 910 240 1098 907 908 238 
1102 911 912 242 1100 909 910 240 
1104 913 914 244 1102 911 912 242 
1106 915 916 246 1104 913 914 244 
1108 917 918 248 1106 915 916 246 
1110 919 920 250 1108 917 918 248 
482 811 711 483 486 814 713 487 
490 817 715 491 482 811 711 483 
494 820 717 495 490 817 715 491 
498 823 719 499 494 820 717 495 
502 826 721 503 498 823 719 499 
506 829 723 507 502 826 721 503 
510 832 725 511 506 829 723 507 
514 835 727 515 510 832 725 511 
518 838 729 519 514 835 727 515 
1111 641 312 311 1112 643 316 315 
1113 645 320 319 1111 641 312 311 
1114 647 324 323 1113 645 320 319 
1115 649 328 327 1114 647 324 323 
1116 651 332 331 1115 649 328 327 
1117 653 336 335 1116 651 332 331 
1118 655 340 339 1117 653 336 335 
1119 657 344 343 1118 655 340 339 
1120 659 348 347 1119 657 344 343 
1121 1021 641 1111 1122 1022 643 1112 
1123 1023 645 1113 1121 1021 641 1111 
1124 1024 647 1114 1123 1023 645 1113 
1125 1025 649 1115 1124 1024 647 1114 
1126 1026 651 1116 1125 1025 649 1115 
1127 1027 653 1117 1126 1026 651 1116 
1128 1028 655 1118 1127 1027 653 1117 
1129 1029 657 1119 1128 1028 655 1118 
1130 1030 659 1120 1129 1029 657 1119 
792 791 972 1031 794 793 974 1032 
796 795 976 1033 792 791 972 1031 
798 797 978 1034 796 795 976 1033 
800 799 980 1035 798 797 978 1034 
802 801 982 1036 800 799 980 1035 
804 803 984 1037 802 801 982 1036 
806 805 986 1038 804 803 984 1037 
808 807 988 1039 806 805 986 1038 
810 809 990 1040 808 807 988 1039 
1011 1131 374 373 1012 1132 378 377 
1013 1133 382 381 1011 1131 374 373 
1014 1134 386 385 1013 1133 382 381 
1015 1135 390 389 1014 1134 386 385 
1016 1136 394 393 1015 1135 390 389 
1017 1137 398 397 1016 1136 394 393 
1018 1138 402 401 1017 1137 398 397 
1019 1139 406 405 1018 1138 402 401 
1020 1140 410 409 1019 1139 406 405 
812 611 591 813 815 614 593 816 
818 617 595 819 812 611 591 813 
821 620 597 822 818 617 595 819 
824 623 599 825 821 620 597 822 
827 626 601 828 824 623 599 825 
830 629 603 831 827 626 601 828 
833 632 605 834 830 629 603 831 
836 635 607 837 833 632 605 834 
839 638 609 840 836 635 607 837 
1141 613 1142 1143 1144 616 1145 1146 
1147 619 1148 1149 1141 613 1142 1143 
1150 622 1151 1152 1147 619 1148 1149 
1153 625 1154 1155 1150 622 1151 1152 
1156 628 1157 1158 1153 625 1154 1155 
1159 631 1160 1161 1156 628 1157 1158 
1162 634 1163 1164 1159 631 1160 1161 
1165 637 1166 1167 1162 634 1163 1164 
1168 640 1169 1170 1165 637 1166 1167 
1171 1091 194 193 1172 1093 198 197 
1173 1095 202 201 1171 1091 194 193 
1174 1097 206 205 1173 1095 202 201 
1175 1099 210 209 1174 1097 206 205 
1176 1101 214 213 1175 1099 210 209 
1177 1103 218 217 1176 1101 214 213 
1178 1105 222 221 1177 1103 218 217 
1179 1107 226 225 1178 1105 222 221 
1180 1109 230 229 1179 1107 226 225 
662 841 553 663 666 843 557 667 
670 845 561 671 662 841 553 663 
674 847 565 675 670 845 561 671 
678 849 569 679 674 847 565 675 
682 851 573 683 678 849 569 679 
686 853 577 687 682 851 573 683 
690 855 581 691 686 853 577 687 
694 857 585 695 690 855 581 691 
698 859 589 699 694 857 585 695 
872 82 1061 842 874 86 1062 844 
876 90 1063 846 872 82 1061 842 
878 94 1064 848 876 90 1063 846 
880 98 1065 850 878 94 1064 848 
882 102 1066 852 880 98 1065 850 
884 106 1067 854 882 102 1066 852 
886 110 1068 856 884 106 1067 854 
888 114 1069 858 886 110 1068 856 
890 118 1070 860 888 114 1069 858 
1001 731 664 663 1002 734 668 667 
1003 737 672 671 1001 731 664 663 
1004 740 676 675 1003 737 672 671 
1005 743 680 679 1004 740 676 675 
1006 746 684 683 1005 743 680 679 
1007 749 688 687 1006 746 684 683 
1008 752 692 691 1007 749 688 687 
1009 755 696 695 1008 752 692 691 
1010 758 700 699 1009 755 696 695 
871 271 274 1051 873 275 278 1052 
875 279 282 1053 871 271 274 1051 
877 283 286 1054 875 279 282 1053 
879 287 290 1055 877 283 286 1054 
881 291 294 1056 879 287 290 1055 
883 295 298 1057 881 291 294 1056 
885 299 302 1058 883 295 298 1057 
887 303 306 1059 885 299 302 1058 
889 307 310 1060 887 303 306 1059 
412 991 1181 413 416 992 1182 417 
420 993 1183 421 412 991 1181 413 
424 994 1184 425 420 993 1183 421 
428 995 1185 429 424 994 1184 425 
432 996 1186 433 428 995 1185 429 
436 997 1187 437 432 996 1186 433 
440 998 1188 441 436 997 1187 437 
444 999 1189 445 440 998 1188 441 
448 1000 1190 449 444 999 1189 445 
611 151 154 591 614 155 158 593 
617 159 162 595 611 151 154 591 
620 163 166 597 617 159 162 595 
623 167 170 599 620 163 166 597 
626 171 174 601 623 167 170 599 
629 175 178 603 626 171 174 601 
632 179 182 605 629 175 178 603 
635 183 186 607 632 179 182 605 
638 187 190 609 635 183 186 607 
1051 274 352 521 1052 278 354 524 
1053 282 356 527 1051 274 352 521 
1054 286 358 530 1053 282 356 527 
1055 290 360 533 1054 286 358 530 
1056 294 362 536 1055 290 360 533 
1057 298 364 539 1056 294 362 536 
1058 302 366 542 1057 298 364 539 
1059 306 368 545 1058 302 366 542 
1060 310 370 548 1059 306 368 545 
272 921 251 273 276 923 253 277 
280 925 255 281 272 921 251 273 
284 927 257 285 280 925 255 281 
288 929 259 289 284 927 257 285 
292 931 261 293 288 929 259 289 
296 933 263 297 292 931 261 293 
300 935 265 301 296 933 263 297 
304 937 267 305 300 935 265 301 
308 939 269 309 304 937 267 305 
484 483 523 522 488 487 526 525 
492 491 529 528 484 483 523 522 
496 495 532 531 492 491 529 528 
500 499 535 534 496 495 532 531 
504 503 538 537 500 499 535 534 
508 507 541 540 504 503 538 537 
512 511 544 543 508 507 541 540 
516 515 547 546 512 511 544 543 
520 519 550 549 516 515 547 546 
922 661 664 733 924 665 668 736 
926 669 672 739 922 661 664 733 
928 673 676 742 926 669 672 739 
930 677 680 745 928 673 676 742 
932 681 684 748 930 677 680 745 
934 685 688 751 932 681 684 748 
936 689 692 754 934 685 688 751 
938 693 696 757 936 689 692 754 
940 697 700 760 938 693 696 757 
312 642 592 313 316 644 594 317 
320 646 596 321 312 642 592 313 
324 648 598 325 320 646 596 321 
328 650 600 329 324 648 598 325 
332 652 602 333 328 650 600 329 
336 654 604 337 332 652 602 333 
340 656 606 341 336 654 604 337 
344 658 608 345 340 656 606 341 
348 660 610 349 344 658 608 345 
122 1191 2 1 125 1192 6 5 
128 1193 10 9 122 1191 2 1 
131 1194 14 13 128 1193 10 9 
134 1195 18 17 131 1194 14 13 
137 1196 22 21 134 1195 18 17 
140 1197 26 25 137 1196 22 21 
143 1198 30 29 140 1197 26 25 
146 1199 34 33 143 1198 30 29 
149 1200 38 37 146 1199 34 33 
1021 1121 192 191 1022 1122 196 195 
1023 1123 200 199 1021 1121 192 191 
1024 1124 204 203 1023 1123 200 199 
1025 1125 208 207 1024 1124 204 203 
1026 1126 212 211 1025 1125 208 207 
1027 1127 216 215 1026 1126 212 211 
1028 1128 220 219 1027 1127 216 215 
1029 1129 224 223 1028 1128 220 219 
1030 1130 228 227 1029 1129 224 223 
123 1 4 453 126 5 8 456 
129 9 12 459 123 1 4 453 
132 13 16 462 129 9 12 459 
135 17 20 465 132 13 16 462 
138 21 24 468 135 17 20 465 
141 25 28 471 138 21 24 468 
144 29 32 474 141 25 28 471 
147 33 36 477 144 29 32 474 
150 37 40 480 147 33 36 477 
413 1181 1201 1041 417 1182 1202 1042 
421 1183 1203 1043 413 1181 1201 1041 
425 1184 1204 1044 421 1183 1203 1043 
429 1185 1205 1045 425 1184 1204 1044 
433 1186 1206 1046 429 1185 1205 1045 
437 1187 1207 1047 433 1186 1206 1046 
441 1188 1208 1048 437 1187 1207 1047 
445 1189 1209 1049 441 1188 1208 1048 
449 1190 1210 1050 445 1189 1209 1049 
152 151 613 1141 156 155 616 1144 
160 159 619 1147 152 151 613 1141 
164 163 622 1150 160 159 619 1147 
168 167 625 1153 164 163 622 1150 
172 171 628 1156 168 167 625 1153 
176 175 631 1159 172 171 628 1156 
180 179 634 1162 176 175 631 1159 
184 183 637 1165 180 179 634 1162 
188 187 640 1168 184 183 637 1165 
372 922 733 373 376 924 736 377 
380 926 739 381 372 922 733 373 
384 928 742 385 380 926 739 381 
388 930 745 389 384 928 742 385 
392 932 748 393 388 930 745 389 
396 934 751 397 392 932 748 393 
400 936 754 401 396 934 751 397 
404 938 757 405 400 936 754 401 
408 940 760 409 404 938 757 405 
272 271 662 661 276 275 666 665 
280 279 670 669 272 271 662 661 
284 283 674 673 280 279 670 669 
288 287 678 677 284 283 674 673 
292 291 682 681 288 287 678 677 
296 295 686 685 292 291 682 681 
300 299 690 689 296 295 686 685 
304 303 694 693 300 299 690 689 
308 307 698 697 304 303 694 693 
842 1061 902 554 844 1062 904 558 
846 1063 906 562 842 1061 902 554 
848 1064 908 566 846 1063 906 562 
850 1065 910 570 848 1064 908 566 
852 1066 912 574 850 1065 910 570 
854 1067 914 578 852 1066 912 574 
856 1068 916 582 854 1067 914 578 
858 1069 918 586 856 1068 916 582 
860 1070 920 590 858 1069 918 586 
1021 81 84 641 1022 85 88 643 
1023 89 92 645 1021 81 84 641 
1024 93 96 647 1023 89 92 645 
1025 97 100 649 1024 93 96 647 
1026 101 104 651 1025 97 100 649 
1027 105 108 653 1026 101 104 651 
1028 109 112 655 1027 105 108 653 
1029 113 116 657 1028 109 112 655 
1030 117 120 659 1029 113 116 657 
351 121 123 701 353 124 126 702 
355 127 129 703 351 121 123 701 
357 130 132 704 355 127 129 703 
359 133 135 705 357 130 132 704 
361 136 138 706 359 133 135 705 
363 139 141 707 361 136 138 706 
365 142 144 708 363 139 141 707 
367 145 147 709 365 142 144 708 
369 148 150 710 367 145 147 709 
482 481 792 42 486 485 794 46 
490 489 796 50 482 481 792 42 
494 493 798 54 490 489 796 50 
498 497 800 58 494 493 798 54 
502 501 802 62 498 497 800 58 
506 505 804 66 502 501 802 62 
510 509 806 70 506 505 804 66 
514 513 808 74 510 509 806 70 
518 517 810 78 514 513 808 74 
921 941 252 251 923 944 254 253 
925 947 256 255 921 941 252 251 
927 950 258 257 925 947 256 255 
929 953 260 259 927 950 258 257 
931 956 262 261 929 953 260 259 
933 959 264 263 931 956 262 261 
935 962 266 265 933 959 264 263 
937 965 268 267 935 962 266 265 
939 968 270 269 937 965 268 267 
812 811 41 891 815 814 45 892 
818 817 49 893 812 811 41 891 
821 820 53 894 818 817 49 893 
824 823 57 895 821 820 53 894 
827 826 61 896 824 823 57 895 
830 829 65 897 827 826 61 896 
833 832 69 898 830 829 65 897 
836 835 73 899 833 832 69 898 
839 838 77 900 836 835 73 899 
613 612 1081 1142 616 615 1082 1145 
619 618 1083 1148 613 612 1081 1142 
622 621 1084 1151 619 618 1083 1148 
625 624 1085 1154 622 621 1084 1151 
628 627 1086 1157 625 624 1085 1154 
631 630 1087 1160 628 627 1086 1157 
634 633 1088 1163 631 630 1087 1160 
637 636 1089 1166 634 633 1088 1163 
640 639 1090 1169 637 636 1089 1166 
762 521 523 712 765 524 526 714 
768 527 529 716 762 521 523 712 
771 530 532 718 768 527 529 716 
774 533 535 720 771 530 532 718 
777 536 538 722 774 533 535 720 
780 539 541 724 777 536 538 722 
783 542 544 726 780 539 541 724 
786 545 547 728 783 542 544 726 
789 548 550 730 786 545 547 728 
252 943 1191 122 254 946 1192 125 
256 949 1193 128 252 943 1191 122 
258 952 1194 131 256 949 1193 128 
260 955 1195 134 258 952 1194 131 
262 958 1196 137 260 955 1195 134 
264 961 1197 140 262 958 1196 137 
266 964 1198 143 264 961 1197 140 
268 967 1199 146 266 964 1198 143 
270 970 1200 149 268 967 1199 146 
1211 1212 1213 1214 1215 1216 1217 1218 
1219 1220 1221 1222 1211 1212 1213 1214 
1223 1224 1225 1226 1219 1220 1221 1222 
1227 1228 1229 1230 1223 1224 1225 1226 
1231 1232 1233 1234 1227 1228 1229 1230 
1235 1236 1237 1238 1231 1232 1233 1234 
1239 1240 1241 1242 1235 1236 1237 1238 
1243 1244 1245 1246 1239 1240 1241 1242 
1247 1248 1249 1250 1243 1244 1245 1246 
1251 1252 1253 1254 1247 1248 1249 1250 
1255 1256 1257 1258 1251 1252 1253 1254 
1259 1260 1261 1262 1255 1256 1257 1258 
1263 1264 1265 1266 1259 1260 1261 1262 
1267 1268 1269 1270 1263 1264 1265 1266 
1271 1272 1273 1274 1267 1268 1269 1270 
1275 1276 1277 1278 1271 1272 1273 1274 
1279 1280 1281 1282 1275 1276 1277 1278 
1283 1284 1285 1286 1279 1280 1281 1282 
1287 1288 1289 1290 1283 1284 1285 1286 
1291 1292 1293 1294 1287 1288 1289 1290 
5 6 7 8 1291 1292 1293 1294 
1295 1296 1297 1298 1299 1300 1301 1302 
1303 1304 1305 1306 1295 1296 1297 1298 
1307 1308 1309 1310 1303 1304 1305 1306 
1311 1312 1313 1314 1307 1308 1309 1310 
1315 1316 1317 1318 1311 1312 1313 1314 
1319 1320 1321 1322 1315 1316 1317 1318 
1323 1324 1325 1326 1319 1320 1321 1322 
1327 1328 1329 1330 1323 1324 1325 1326 
1331 1332 1333 1334 1327 1328 1329 1330 
1335 1336 1337 1338 1331 1332 1333 1334 
1339 1340 1341 1342 1335 1336 1337 1338 
1343 1344 1345 1346 1339 1340 1341 1342 
1347 1348 1349 1350 1343 1344 1345 1346 
1351 1352 1353 1354 1347 1348 1349 1350 
1355 1356 1357 1358 1351 1352 1353 1354 
1359 1360 1361 1362 1355 1356 1357 1358 
1363 1364 1365 1366 1359 1360 1361 1362 
1367 1368 1369 1370 1363 1364 1365 1366 
1371 1372 1373 1374 1367 1368 1369 1370 
1375 1376 1377 1378 1371 1372 1373 1374 
45 46 47 48 1375 1376 1377 1378 
1379 1380 1381 1382 1383 1384 1385 1386 
1387 1388 1389 1390 1379 1380 1381 1382 
1391 1392 1393 1394 1387 1388 1389 1390 
1395 1396 1397 1398 1391 1392 1393 1394 
1399 1400 1401 1402 1395 1396 1397 1398 
1403 1404 1405 1406 1399 1400 1401 1402 
1407 1408 1409 1410 1403 1404 1405 1406 
1411 1412 1413 1414 1407 1408 1409 1410 
1415 1416 1417 1418 1411 1412 1413 1414 
1419 1420 1421 1422 1415 1416 1417 1418 
1423 1424 1425 1426 1419 1420 1421 1422 
1427 1428 1429 1430 1423 1424 1425 1426 
1431 1432 1433 1434 1427 1428 1429 1430 
1435 1436 1437 1438 1431 1432 1433 1434 
1439 1440 1441 1442 1435 1436 1437 1438 
1443 1444 1445 1446 1439 1440 1441 1442 
1447 1448 1449 1450 1443 1444 1445 1446 
1451 1452 1453 1454 1447 1448 1449 1450 
1455 1456 1457 1458 1451 1452 1453 1454 
1459 1460 1461 1462 1455 1456 1457 1458 
85 86 87 88 1459 1460 1461 1462 
1463 1464 1211 1465 1466 1467 1215 1468 
1469 1470 1219 1471 1463 1464 1211 1465 
1472 1473 1223 1474 1469 1470 1219 1471 
1475 1476 1227 1477 1472 1473 1223 1474 
1478 1479 1231 1480 1475 1476 1227 1477 
1481 1482 1235 1483 1478 1479 1231 1480 
1484 1485 1239 1486 1481 1482 1235 1483 
1487 1488 1243 1489 1484 1485 1239 1486 
1490 1491 1247 1492 1487 1488 1243 1489 
1493 1494 1251 1495 1490 1491 1247 1492 
1496 1497 1255 1498 1493 1494 1251 1495 
1499 1500 1259 1501 1496 1497 1255 1498 
1502 1503 1263 1504 1499 1500 1259 1501 
1505 1506 1267 1507 1502 1503 1263 1504 
1508 1509 1271 1510 1505 1506 1267 1507 
1511 1512 1275 1513 1508 1509 1271 1510 
1514 1515 1279 1516 1511 1512 1275 1513 
1517 1518 1283 1519 1514 1515 1279 1516 
1520 1521 1287 1522 1517 1518 1283 1519 
1523 1524 1291 1525 1520 1521 1287 1522 
124 125 5 126 1523 1524 1291 1525 
1526 1527 1528 1529 1530 1531 1532 1533 
1534 1535 1536 1537 1526 1527 1528 1529 
1538 1539 1540 1541 1534 1535 1536 1537 
1542 1543 1544 1545 1538 1539 1540 1541 
1546 1547 1548 1549 1542 1543 1544 1545 
1550 1551 1552 1553 1546 1547 1548 1549 
1554 1555 1556 1557 1550 1551 1552 1553 
1558 1559 1560 1561 1554 1555 1556 1557 
1562 1563 1564 1565 1558 1559 1560 1561 
1566 1567 1568 1569 1562 1563 1564 1565 
1570 1571 1572 1573 1566 1567 1568 1569 
1574 1575 1576 1577 1570 1571 1572 1573 
1578 1579 1580 1581 1574 1575 1576 1577 
1582 1583 1584 1585 1578 1579 1580 1581 
1586 1587 1588 1589 1582 1583 1584 1585 
1590 1591 1592 1593 1586 1587 1588 1589 
1594 1595 1596 1597 1590 1591 1592 1593 
1598 1599 1600 1601 1594 1595 1596 1597 
1602 1603 1604 1605 1598 1599 1600 1601 
1606 1607 1608 1609 1602 1603 1604 1605 
155 156 157 158 1606 1607 1608 1609 
1610 1611 1612 1613 1614 1615 1616 1617 
1618 1619 1620 1621 1610 1611 1612 1613 
1622 1623 1624 1625 1618 1619 1620 1621 
1626 1627 1628 1629 1622 1623 1624 1625 
1630 1631 1632 1633 1626 1627 1628 1629 
1634 1635 1636 1637 1630 1631 1632 1633 
1638 1639 1640 1641 1634 1635 1636 1637 
1642 1643 1644 1645 1638 1639 1640 1641 
1646 1647 1648 1649 1642 1643 1644 1645 
1650 1651 1652 1653 1646 1647 1648 1649 
1654 1655 1656 1657 1650 1651 1652 1653 
1658 1659 1660 1661 1654 1655 1656 1657 
1662 1663 1664 1665 1658 1659 1660 1661 
1666 1667 1668 1669 1662 1663 1664 1665 
1670 1671 1672 1673 1666 1667 1668 1669 
1674 1675 1676 1677 1670 1671 1672 1673 
1678 1679 1680 1681 1674 1675 1676 1677 
1682 1683 1684 1685 1678 1679 1680 1681 
1686 1687 1688 1689 1682 1683 1684 1685 
1690 1691 1692 1693 1686 1687 1688 1689 
195 196 197 198 1690 1691 1692 1693 
1694 1610 1613 1695 1696 1614 1617 1697 
1698 1618 1621 1699 1694 1610 1613 1695 
1700 1622 1625 1701 1698 1618 1621 1699 
1702 1626 1629 1703 1700 1622 1625 1701 
1704 1630 1633 1705 1702 1626 1629 1703 
1706 1634 1637 1707 1704 1630 1633 1705 
1708 1638 1641 1709 1706 1634 1637 1707 
1710 1642 1645 1711 1708 1638 1641 1709 
1712 1646 1649 1713 1710 1642 1645 1711 
1714 1650 1653 1715 1712 1646 1649 1713 
1716 1654 1657 1717 1714 1650 1653 1715 
1718 1658 1661 1719 1716 1654 1657 1717 
1720 1662 1665 1721 1718 1658 1661 1719 
1722 1666 1669 1723 1720 1662 1665 1721 
1724 1670 1673 1725 1722 1666 1669 1723 
1726 1674 1677 1727 1724 1670 1673 1725 
1728 1678 1681 1729 1726 1674 1677 1727 
1730 1682 1685 1731 1728 1678 1681 1729 
1732 1686 1689 1733 1730 1682 1685 1731 
1734 1690 1693 1735 1732 1686 1689 1733 
233 195 198 234 1734 1690 1693 1735 
1736 1737 1464 1463 1738 1739 1467 1466 
1740 1741 1470 1469 1736 1737 1464 1463 
1742 1743 1473 1472 1740 1741 1470 1469 
1744 1745 1476 1475 1742 1743 1473 1472 
1746 1747 1479 1478 1744 1745 1476 1475 
1748 1749 1482 1481 1746 1747 1479 1478 
1750 1751 1485 1484 1748 1749 1482 1481 
1752 1753 1488 1487 1750 1751 1485 1484 
1754 1755 1491 1490 1752 1753 1488 1487 
1756 1757 1494 1493 1754 1755 1491 1490 
1758 1759 1497 1496 1756 1757 1494 1493 
1760 1761 1500 1499 1758 1759 1497 1496 
1762 1763 1503 1502 1760 1761 1500 1499 
1764 1765 1506 1505 1762 1763 1503 1502 
1766 1767 1509 1508 1764 1765 1506 1505 
1768 1769 1512 1511 1766 1767 1509 1508 
1770 1771 1515 1514 1768 1769 1512 1511 
1772 1773 1518 1517 1770 1771 1515 1514 
1774 1775 1521 1520 1772 1773 1518 1517 
1776 1777 1524 1523 1774 1775 1521 1520 
253 254 125 124 1776 1777 1524 1523 
1778 1779 1780 1781 1782 1783 1784 1785 
1786 1787 1788 1789 1778 1779 1780 1781 
1790 1791 1792 1793 1786 1787 1788 1789 
1794 1795 1796 1797 1790 1791 1792 1793 
1798 1799 1800 1801 1794 1795 1796 1797 
1802 1803 1804 1805 1798 1799 1800 1801 
1806 1807 1808 1809 1802 1803 1804 1805 
1810 1811 1812 1813 1806 1807 1808 1809 
1814 1815 1816 1817 1810 1811 1812 1813 
1818 1819 1820 1821 1814 1815 1816 1817 
1822 1823 1824 1825 1818 1819 1820 1821 
1826 1827 1828 1829 1822 1823 1824 1825 
1830 1831 1832 1833 1826 1827 1828 1829 
1834 1835 1836 1837 1830 1831 1832 1833 
1838 1839 1840 1841 1834 1835 1836 1837 
1842 1843 1844 1845 1838 1839 1840 1841 
1846 1847 1848 1849 1842 1843 1844 1845 
1850 1851 1852 1853 1846 1847 1848 1849 
1854 1855 1856 1857 1850 1851 1852 1853 
1858 1859 1860 1861 1854 1855 1856 1857 
275 276 277 278 1858 1859 1860 1861 
1862 1863 1864 1865 1866 1867 1868 1869 
1870 1871 1872 1873 1862 1863 1864 1865 
1874 1875 1876 1877 1870 1871 1872 1873 
1878 1879 1880 1881 1874 1875 1876 1877 
1882 1883 1884 1885 1878 1879 1880 1881 
1886 1887 1888 1889 1882 1883 1884 1885 
1890 1891 1892 1893 1886 1887 1888 1889 
1894 1895 1896 1897 1890 1891 1892 1893 
1898 1899 1900 1901 1894 1895 1896 1897 
1902 1903 1904 1905 1898 1899 1900 1901 
1906 1907 1908 1909 1902 1903 1904 1905 
1910 1911 1912 1913 1906 1907 1908 1909 
1914 1915 1916 1917 1910 1911 1912 1913 
1918 1919 1920 1921 1914 1915 1916 1917 
1922 1923 1924 1925 1918 1919 1920 1921 
1926 1927 1928 1929 1922 1923 1924 1925 
1930 1931 1932 1933 1926 1927 1928 1929 
1934 1935 1936 1937 1930 1931 1932 1933 
1938 1939 1940 1941 1934 1935 1936 1937 
1942 1943 1944 1945 1938 1939 1940 1941 
315 316 317 318 1942 1943 1944 1945 
1529 1528 1865 1864 1533 1532 1869 1868 
1537 1536 1873 1872 1529 1528 1865 1864 
1541 1540 1877 1876 1537 1536 1873 1872 
1545 1544 1881 1880 1541 1540 1877 1876 
1549 1548 1885 1884 1545 1544 1881 1880 
1553 1552 1889 1888 1549 1548 1885 1884 
1557 1556 1893 1892 1553 1552 1889 1888 
1561 1560 1897 1896 1557 1556 1893 1892 
1565 1564 1901 1900 1561 1560 1897 1896 
1569 1568 1905 1904 1565 1564 1901 1900 
1573 1572 1909 1908 1569 1568 1905 1904 
1577 1576 1913 1912 1573 1572 1909 1908 
1581 1580 1917 1916 1577 1576 1913 1912 
1585 1584 1921 1920 1581 1580 1917 1916 
1589 1588 1925 1924 1585 1584 1921 1920 
1593 1592 1929 1928 1589 1588 1925 1924 
1597 1596 1933 1932 1593 1592 1929 1928 
1601 1600 1937 1936 1597 1596 1933 1932 
1605 1604 1941 1940 1601 1600 1937 1936 
1609 1608 1945 1944 1605 1604 1941 1940 
158 157 318 317 1609 1608 1945 1944 
1781 1780 1946 1947 1785 1784 1948 1949 
1789 1788 1950 1951 1781 1780 1946 1947 
1793 1792 1952 1953 1789 1788 1950 1951 
1797 1796 1954 1955 1793 1792 1952 1953 
1801 1800 1956 1957 1797 1796 1954 1955 
1805 1804 1958 1959 1801 1800 1956 1957 
1809 1808 1960 1961 1805 1804 1958 1959 
1813 1812 1962 1963 1809 1808 1960 1961 
1817 1816 1964 1965 1813 1812 1962 1963 
1821 1820 1966 1967 1817 1816 1964 1965 
1825 1824 1968 1969 1821 1820 1966 1967 
1829 1828 1970 1971 1825 1824 1968 1969 
1833 1832 1972 1973 1829 1828 1970 1971 
1837 1836 1974 1975 1833 1832 1972 1973 
1841 1840 1976 1977 1837 1836 1974 1975 
1845 1844 1978 1979 1841 1840 1976 1977 
1849 1848 1980 1981 1845 1844 1978 1979 
1853 1852 1982 1983 1849 1848 1980 1981 
1857 1856 1984 1985 1853 1852 1982 1983 
1861 1860 1986 1987 1857 1856 1984 1985 
278 277 353 354 1861 1860 1986 1987 
1988 1989 1990 1991 1992 1993 1994 1995 
1996 1997 1998 1999 1988 1989 1990 1991 
2000 2001 2002 2003 1996 1997 1998 1999 
2004 2005 2006 2007 2000 2001 2002 2003 
2008 2009 2010 2011 2004 2005 2006 2007 
2012 2013 2014 2015 2008 2009 2010 2011 
2016 2017 2018 2019 2012 2013 2014 2015 
2020 2021 2022 2023 2016 2017 2018 2019 
2024 2025 2026 2027 2020 2021 2022 2023 
2028 2029 2030 2031 2024 2025 2026 2027 
2032 2033 2034 2035 2028 2029 2030 2031 
2036 2037 2038 2039 2032 2033 2034 2035 
2040 2041 2042 2043 2036 2037 2038 2039 
2044 2045 2046 2047 2040 2041 2042 2043 
2048 2049 2050 2051 2044 2045 2046 2047 
2052 2053 2054 2055 2048 2049 2050 2051 
2056 2057 2058 2059 2052 2053 2054 2055 
2060 2061 2062 2063 2056 2057 2058 2059 
2064 2065 2066 2067 2060 2061 2062 2063 
2068 2069 2070 2071 2064 2065 2066 2067 
375 376 377 378 2068 2069 2070 2071 
2072 2073 2074 2075 2076 2077 2078 2079 
2080 2081 2082 2083 2072 2073 2074 2075 
2084 2085 2086 2087 2080 2081 2082 2083 
2088 2089 2090 2091 2084 2085 2086 2087 
2092 2093 2094 2095 2088 2089 2090 2091 
2096 2097 2098 2099 2092 2093 2094 2095 
2100 2101 2102 2103 2096 2097 2098 2099 
2104 2105 2106 2107 2100 2101 2102 2103 
2108 2109 2110 2111 2104 2105 2106 2107 
2112 2113 2114 2115 2108 2109 2110 2111 
2116 2117 2118 2119 2112 2113 2114 2115 
2120 2121 2122 2123 2116 2117 2118 2119 
2124 2125 2126 2127 2120 2121 2122 2123 
2128 2129 2130 2131 2124 2125 2126 2127 
2132 2133 2134 2135 2128 2129 2130 2131 
2136 2137 2138 2139 2132 2133 2134 2135 
2140 2141 2142 2143 2136 2137 2138 2139 
2144 2145 2146 2147 2140 2141 2142 2143 
2148 2149 2150 2151 2144 2145 2146 2147 
2152 2153 2154 2155 2148 2149 2150 2151 
415 416 417 418 2152 2153 2154 2155 
2072 2156 2157 2158 2076 2159 2160 2161 
2080 2162 2163 2164 2072 2156 2157 2158 
2084 2165 2166 2167 2080 2162 2163 2164 
2088 2168 2169 2170 2084 2165 2166 2167 
2092 2171 2172 2173 2088 2168 2169 2170 
2096 2174 2175 2176 2092 2171 2172 2173 
2100 2177 2178 2179 2096 2174 2175 2176 
2104 2180 2181 2182 2100 2177 2178 2179 
2108 2183 2184 2185 2104 2180 2181 2182 
2112 2186 2187 2188 2108 2183 2184 2185 
2116 2189 2190 2191 2112 2186 2187 2188 
2120 2192 2193 2194 2116 2189 2190 2191 
2124 2195 2196 2197 2120 2192 2193 2194 
2128 2198 2199 2200 2124 2195 2196 2197 
2132 2201 2202 2203 2128 2198 2199 2200 
2136 2204 2205 2206 2132 2201 2202 2203 
2140 2207 2208 2209 2136 2204 2205 2206 
2144 2210 2211 2212 2140 2207 2208 2209 
2148 2213 2214 2215 2144 2210 2211 2212 
2152 2216 2217 2218 2148 2213 2214 2215 
415 454 455 456 2152 2216 2217 2218 
2219 2220 2221 2222 2223 2224 2225 2226 
2227 2228 2229 2230 2219 2220 2221 2222 
2231 2232 2233 2234 2227 2228 2229 2230 
2235 2236 2237 2238 2231 2232 2233 2234 
2239 2240 2241 2242 2235 2236 2237 2238 
2243 2244 2245 2246 2239 2240 2241 2242 
2247 2248 2249 2250 2243 2244 2245 2246 
2251 2252 2253 2254 2247 2248 2249 2250 
2255 2256 2257 2258 2251 2252 2253 2254 
2259 2260 2261 2262 2255 2256 2257 2258 
2263 2264 2265 2266 2259 2260 2261 2262 
2267 2268 2269 2270 2263 2264 2265 2266 
2271 2272 2273 2274 2267 2268 2269 2270 
2275 2276 2277 2278 2271 2272 2273 2274 
2279 2280 2281 2282 2275 2276 2277 2278 
2283 2284 2285 2286 2279 2280 2281 2282 
2287 2288 2289 2290 2283 2284 2285 2286 
2291 2292 2293 2294 2287 2288 2289 2290 
2295 2296 2297 2298 2291 2292 2293 2294 
2299 2300 2301 2302 2295 2296 2297 2298 
485 486 487 488 2299 2300 2301 2302 
2303 1947 2304 2305 2306 1949 2307 2308 
2309 1951 2310 2311 2303 1947 2304 2305 
2312 1953 2313 2314 2309 1951 2310 2311 
2315 1955 2316 2317 2312 1953 2313 2314 
2318 1957 2319 2320 2315 1955 2316 2317 
2321 1959 2322 2323 2318 1957 2319 2320 
2324 1961 2325 2326 2321 1959 2322 2323 
2327 1963 2328 2329 2324 1961 2325 2326 
2330 1965 2331 2332 2327 1963 2328 2329 
2333 1967 2334 2335 2330 1965 2331 2332 
2336 1969 2337 2338 2333 1967 2334 2335 
2339 1971 2340 2341 2336 1969 2337 2338 
2342 1973 2343 2344 2339 1971 2340 2341 
2345 1975 2346 2347 2342 1973 2343 2344 
2348 1977 2349 2350 2345 1975 2346 2347 
2351 1979 2352 2353 2348 1977 2349 2350 
2354 1981 2355 2356 2351 1979 2352 2353 
2357 1983 2358 2359 2354 1981 2355 2356 
2360 1985 2361 2362 2357 1983 2358 2359 
2363 1987 2364 2365 2360 1985 2361 2362 
524 354 525 526 2363 1987 2364 2365 
2366 2367 2368 2369 2370 2371 2372 2373 
2374 2375 2376 2377 2366 2367 2368 2369 
2378 2379 2380 2381 2374 2375 2376 2377 
2382 2383 2384 2385 2378 2379 2380 2381 
2386 2387 2388 2389 2382 2383 2384 2385 
2390 2391 2392 2393 2386 2387 2388 2389 
2394 2395 2396 2397 2390 2391 2392 2393 
2398 2399 2400 2401 2394 2395 2396 2397 
2402 2403 2404 2405 2398 2399 2400 2401 
2406 2407 2408 2409 2402 2403 2404 2405 
2410 2411 2412 2413 2406 2407 2408 2409 
2414 2415 2416 2417 2410 2411 2412 2413 
2418 2419 2420 2421 2414 2415 2416 2417 
2422 2423 2424 2425 2418 2419 2420 2421 
2426 2427 2428 2429 2422 2423 2424 2425 
2430 2431 2432 2433 2426 2427 2428 2429 
2434 2435 2436 2437 2430 2431 2432 2433 
2438 2439 2440 2441 2434 2435 2436 2437 
2442 2443 2444 2445 2438 2439 2440 2441 
2446 2447 2448 2449 2442 2443 2444 2445 
555 556 557 558 2446 2447 2448 2449 
2450 1529 1864 2451 2452 1533 1868 2453 
2454 1537 1872 2455 2450 1529 1864 2451 
2456 1541 1876 2457 2454 1537 1872 2455 
2458 1545 1880 2459 2456 1541 1876 2457 
2460 1549 1884 2461 2458 1545 1880 2459 
2462 1553 1888 2463 2460 1549 1884 2461 
2464 1557 1892 2465 2462 1553 1888 2463 
2466 1561 1896 2467 2464 1557 1892 2465 
2468 1565 1900 2469 2466 1561 1896 2467 
2470 1569 1904 2471 2468 1565 1900 2469 
2472 1573 1908 2473 2470 1569 1904 2471 
2474 1577 1912 2475 2472 1573 1908 2473 
2476 1581 1916 2477 2474 1577 1912 2475 
2478 1585 1920 2479 2476 1581 1916 2477 
2480 1589 1924 2481 2478 1585 1920 2479 
2482 1593 1928 2483 2480 1589 1924 2481 
2484 1597 1932 2485 2482 1593 1928 2483 
2486 1601 1936 2487 2484 1597 1932 2485 
2488 1605 1940 2489 2486 1601 1936 2487 
2490 1609 1944 2491 2488 1605 1940 2489 
593 158 317 594 2490 1609 1944 2491 
1526 2492 2493 2494 1530 2495 2496 2497 
1534 2498 2499 2500 1526 2492 2493 2494 
1538 2501 2502 2503 1534 2498 2499 2500 
1542 2504 2505 2506 1538 2501 2502 2503 
1546 2507 2508 2509 1542 2504 2505 2506 
1550 2510 2511 2512 1546 2507 2508 2509 
1554 2513 2514 2515 1550 2510 2511 2512 
1558 2516 2517 2518 1554 2513 2514 2515 
1562 2519 2520 2521 1558 2516 2517 2518 
1566 2522 2523 2524 1562 2519 2520 2521 
1570 2525 2526 2527 1566 2522 2523 2524 
1574 2528 2529 2530 1570 2525 2526 2527 
1578 2531 2532 2533 1574 2528 2529 2530 
1582 2534 2535 2536 1578 2531 2532 2533 
1586 2537 2538 2539 1582 2534 2535 2536 
1590 2540 2541 2542 1586 2537 2538 2539 
1594 2543 2544 2545 1590 2540 2541 2542 
1598 2546 2547 2548 1594 2543 2544 2545 
1602 2549 2550 2551 1598 2546 2547 2548 
1606 2552 2553 2554 1602 2549 2550 2551 
155 614 615 616 1606 2552 2553 2554 
2555 1382 2556 1863 2557 1386 2558 1867 
2559 1390 2560 1871 2555 1382 2556 1863 
2561 1394 2562 1875 2559 1390 2560 1871 
2563 1398 2564 1879 2561 1394 2562 1875 
2565 1402 2566 1883 2563 1398 2564 1879 
2567 1406 2568 1887 2565 1402 2566 1883 
2569 1410 2570 1891 2567 1406 2568 1887 
2571 1414 2572 1895 2569 1410 2570 1891 
2573 1418 2574 1899 2571 1414 2572 1895 
2575 1422 2576 1903 2573 1418 2574 1899 
2577 1426 2578 1907 2575 1422 2576 1903 
2579 1430 2580 1911 2577 1426 2578 1907 
2581 1434 2582 1915 2579 1430 2580 1911 
2583 1438 2584 1919 2581 1434 2582 1915 
2585 1442 2586 1923 2583 1438 2584 1919 
2587 1446 2588 1927 2585 1442 2586 1923 
2589 1450 2590 1931 2587 1446 2588 1927 
2591 1454 2592 1935 2589 1450 2590 1931 
2593 1458 2594 1939 2591 1454 2592 1935 
2595 1462 2596 1943 2593 1458 2594 1939 
643 88 644 316 2595 1462 2596 1943 
2597 2598 2599 2600 2601 2602 2603 2604 
2605 2606 2607 2608 2597 2598 2599 2600 
2609 2610 2611 2612 2605 2606 2607 2608 
2613 2614 2615 2616 2609 2610 2611 2612 
2617 2618 2619 2620 2613 2614 2615 2616 
2621 2622 2623 2624 2617 2618 2619 2620 
2625 2626 2627 2628 2621 2622 2623 2624 
2629 2630 2631 2632 2625 2626 2627 2628 
2633 2634 2635 2636 2629 2630 2631 2632 
2637 2638 2639 2640 2633 2634 2635 2636 
2641 2642 2643 2644 2637 2638 2639 2640 
2645 2646 2647 2648 2641 2642 2643 2644 
2649 2650 2651 2652 2645 2646 2647 2648 
2653 2654 2655 2656 2649 2650 2651 2652 
2657 2658 2659 2660 2653 2654 2655 2656 
2661 2662 2663 2664 2657 2658 2659 2660 
2665 2666 2667 2668 2661 2662 2663 2664 
2669 2670 2671 2672 2665 2666 2667 2668 
2673 2674 2675 2676 2669 2670 2671 2672 
2677 2678 2679 2680 2673 2674 2675 2676 
665 666 667 668 2677 2678 2679 2680 
1947 1946 2681 2304 1949 1948 2682 2307 
1951 1950 2683 2310 1947 1946 2681 2304 
1953 1952 2684 2313 1951 1950 2683 2310 
1955 1954 2685 2316 1953 1952 2684 2313 
1957 1956 2686 2319 1955 1954 2685 2316 
1959 1958 2687 2322 1957 1956 2686 2319 
1961 1960 2688 2325 1959 1958 2687 2322 
1963 1962 2689 2328 1961 1960 2688 2325 
1965 1964 2690 2331 1963 1962 2689 2328 
1967 1966 2691 2334 1965 1964 2690 2331 
1969 1968 2692 2337 1967 1966 2691 2334 
1971 1970 2693 2340 1969 1968 2692 2337 
1973 1972 2694 2343 1971 1970 2693 2340 
1975 1974 2695 2346 1973 1972 2694 2343 
1977 1976 2696 2349 1975 1974 2695 2346 
1979 1978 2697 2352 1977 1976 2696 2349 
1981 1980 2698 2355 1979 1978 2697 2352 
1983 1982 2699 2358 1981 1980 2698 2355 
1985 1984 2700 2361 1983 1982 2699 2358 
1987 1986 2701 2364 1985 1984 2700 2361 
354 353 702 525 1987 1986 2701 2364 
2221 2702 2703 2305 2225 2704 2705 2308 
2229 2706 2707 2311 2221 2702 2703 2305 
2233 2708 2709 2314 2229 2706 2707 2311 
2237 2710 2711 2317 2233 2708 2709 2314 
2241 2712 2713 2320 2237 2710 2711 2317 
2245 2714 2715 2323 2241 2712 2713 2320 
2249 2716 2717 2326 2245 2714 2715 2323 
2253 2718 2719 2329 2249 2716 2717 2326 
2257 2720 2721 2332 2253 2718 2719 2329 
2261 2722 2723 2335 2257 2720 2721 2332 
2265 2724 2725 2338 2261 2722 2723 2335 
2269 2726 2727 2341 2265 2724 2725 2338 
2273 2728 2729 2344 2269 2726 2727 2341 
2277 2730 2731 2347 2273 2728 2729 2344 
2281 2732 2733 2350 2277 2730 2731 2347 
2285 2734 2735 2353 2281 2732 2733 2350 
2289 2736 2737 2356 2285 2734 2735 2353 
2293 2738 2739 2359 2289 2736 2737 2356 
2297 2740 2741 2362 2293 2738 2739 2359 
2301 2742 2743 2365 2297 2740 2741 2362 
487 713 714 526 2301 2742 2743 2365 
2744 2745 2746 2600 2747 2748 2749 2604 
2750 2751 2752 2608 2744 2745 2746 2600 
2753 2754 2755 2612 2750 2751 2752 2608 
2756 2757 2758 2616 2753 2754 2755 2612 
2759 2760 2761 2620 2756 2757 2758 2616 
2762 2763 2764 2624 2759 2760 2761 2620 
2765 2766 2767 2628 2762 2763 2764 2624 
2768 2769 2770 2632 2765 2766 2767 2628 
2771 2772 2773 2636 2768 2769 2770 2632 
2774 2775 2776 2640 2771 2772 2773 2636 
2777 2778 2779 2644 2774 2775 2776 2640 
2780 2781 2782 2648 2777 2778 2779 2644 
2783 2784 2785 2652 2780 2781 2782 2648 
2786 2787 2788 2656 2783 2784 2785 2652 
2789 2790 2791 2660 2786 2787 2788 2656 
2792 2793 2794 2664 2789 2790 2791 2660 
2795 2796 2797 2668 2792 2793 2794 2664 
2798 2799 2800 2672 2795 2796 2797 2668 
2801 2802 2803 2676 2798 2799 2800 2672 
2804 2805 2806 2680 2801 2802 2803 2676 
734 735 736 668 2804 2805 2806 2680 
1381 2807 2808 2809 1385 2810 2811 2812 
1389 2813 2814 2815 1381 2807 2808 2809 
1393 2816 2817 2818 1389 2813 2814 2815 
1397 2819 2820 2821 1393 2816 2817 2818 
1401 2822 2823 2824 1397 2819 2820 2821 
1405 2825 2826 2827 1401 2822 2823 2824 
1409 2828 2829 2830 1405 2825 2826 2827 
1413 2831 2832 2833 1409 2828 2829 2830 
1417 2834 2835 2836 1413 2831 2832 2833 
1421 2837 2838 2839 1417 2834 2835 2836 
1425 2840 2841 2842 1421 2837 2838 2839 
1429 2843 2844 2845 1425 2840 2841 2842 
1433 2846 2847 2848 1429 2843 2844 2845 
1437 2849 2850 2851 1433 2846 2847 2848 
1441 2852 2853 2854 1437 2849 2850 2851 
1445 2855 2856 2857 1441 2852 2853 2854 
1449 2858 2859 2860 1445 2855 2856 2857 
1453 2861 2862 2863 1449 2858 2859 2860 
1457 2864 2865 2866 1453 2861 2862 2863 
1461 2867 2868 2869 1457 2864 2865 2866 
87 764 765 766 1461 2867 2868 2869 
2219 2156 2870 2871 2223 2159 2872 2873 
2227 2162 2874 2875 2219 2156 2870 2871 
2231 2165 2876 2877 2227 2162 2874 2875 
2235 2168 2878 2879 2231 2165 2876 2877 
2239 2171 2880 2881 2235 2168 2878 2879 
2243 2174 2882 2883 2239 2171 2880 2881 
2247 2177 2884 2885 2243 2174 2882 2883 
2251 2180 2886 2887 2247 2177 2884 2885 
2255 2183 2888 2889 2251 2180 2886 2887 
2259 2186 2890 2891 2255 2183 2888 2889 
2263 2189 2892 2893 2259 2186 2890 2891 
2267 2192 2894 2895 2263 2189 2892 2893 
2271 2195 2896 2897 2267 2192 2894 2895 
2275 2198 2898 2899 2271 2195 2896 2897 
2279 2201 2900 2901 2275 2198 2898 2899 
2283 2204 2902 2903 2279 2201 2900 2901 
2287 2207 2904 2905 2283 2204 2902 2903 
2291 2210 2906 2907 2287 2207 2904 2905 
2295 2213 2908 2909 2291 2210 2906 2907 
2299 2216 2910 2911 2295 2213 2908 2909 
485 454 793 794 2299 2216 2910 2911 
2912 2913 2914 2702 2915 2916 2917 2704 
2918 2919 2920 2706 2912 2913 2914 2702 
2921 2922 2923 2708 2918 2919 2920 2706 
2924 2925 2926 2710 2921 2922 2923 2708 
2927 2928 2929 2712 2924 2925 2926 2710 
2930 2931 2932 2714 2927 2928 2929 2712 
2933 2934 2935 2716 2930 2931 2932 2714 
2936 2937 2938 2718 2933 2934 2935 2716 
2939 2940 2941 2720 2936 2937 2938 2718 
2942 2943 2944 2722 2939 2940 2941 2720 
2945 2946 2947 2724 2942 2943 2944 2722 
2948 2949 2950 2726 2945 2946 2947 2724 
2951 2952 2953 2728 2948 2949 2950 2726 
2954 2955 2956 2730 2951 2952 2953 2728 
2957 2958 2959 2732 2954 2955 2956 2730 
2960 2961 2962 2734 2957 2958 2959 2732 
2963 2964 2965 2736 2960 2961 2962 2734 
2966 2967 2968 2738 2963 2964 2965 2736 
2969 2970 2971 2740 2966 2967 2968 2738 
2972 2973 2974 2742 2969 2970 2971 2740 
814 815 816 713 2972 2973 2974 2742 
2975 2976 2369 2368 2977 2978 2373 2372 
2979 2980 2377 2376 2975 2976 2369 2368 
2981 2982 2381 2380 2979 2980 2377 2376 
2983 2984 2385 2384 2981 2982 2381 2380 
2985 2986 2389 2388 2983 2984 2385 2384 
2987 2988 2393 2392 2985 2986 2389 2388 
2989 2990 2397 2396 2987 2988 2393 2392 
2991 2992 2401 2400 2989 2990 2397 2396 
2993 2994 2405 2404 2991 2992 2401 2400 
2995 2996 2409 2408 2993 2994 2405 2404 
2997 2998 2413 2412 2995 2996 2409 2408 
2999 3000 2417 2416 2997 2998 2413 2412 
3001 3002 2421 2420 2999 3000 2417 2416 
3003 3004 2425 2424 3001 3002 2421 2420 
3005 3006 2429 2428 3003 3004 2425 2424 
3007 3008 2433 2432 3005 3006 2429 2428 
3009 3010 2437 2436 3007 3008 2433 2432 
3011 3012 2441 2440 3009 3010 2437 2436 
3013 3014 2445 2444 3011 3012 2441 2440 
3015 3016 2449 2448 3013 3014 2445 2444 
843 844 558 557 3015 3016 2449 2448 
2914 2450 2451 3017 2917 2452 2453 3018 
2920 2454 2455 3019 2914 2450 2451 3017 
2923 2456 2457 3020 2920 2454 2455 3019 
2926 2458 2459 3021 2923 2456 2457 3020 
2929 2460 2461 3022 2926 2458 2459 3021 
2932 2462 2463 3023 2929 2460 2461 3022 
2935 2464 2465 3024 2932 2462 2463 3023 
2938 2466 2467 3025 2935 2464 2465 3024 
2941 2468 2469 3026 2938 2466 2467 3025 
2944 2470 2471 3027 2941 2468 2469 3026 
2947 2472 2473 3028 2944 2470 2471 3027 
2950 2474 2475 3029 2947 2472 2473 3028 
2953 2476 2477 3030 2950 2474 2475 3029 
2956 2478 2479 3031 2953 2476 2477 3030 
2959 2480 2481 3032 2956 2478 2479 3031 
2962 2482 2483 3033 2959 2480 2481 3032 
2965 2484 2485 3034 2962 2482 2483 3033 
2968 2486 2487 3035 2965 2484 2485 3034 
2971 2488 2489 3036 2968 2486 2487 3035 
2974 2490 2491 3037 2971 2488 2489 3036 
816 593 594 862 2974 2490 2491 3037 
3038 3039 2976 2975 3040 3041 2978 2977 
3042 3043 2980 2979 3038 3039 2976 2975 
3044 3045 2982 2981 3042 3043 2980 2979 
3046 3047 2984 2983 3044 3045 2982 2981 
3048 3049 2986 2985 3046 3047 2984 2983 
3050 3051 2988 2987 3048 3049 2986 2985 
3052 3053 2990 2989 3050 3051 2988 2987 
3054 3055 2992 2991 3052 3053 2990 2989 
3056 3057 2994 2993 3054 3055 2992 2991 
3058 3059 2996 2995 3056 3057 2994 2993 
3060 3061 2998 2997 3058 3059 2996 2995 
3062 3063 3000 2999 3060 3061 2998 2997 
3064 3065 3002 3001 3062 3063 3000 2999 
3066 3067 3004 3003 3064 3065 3002 3001 
3068 3069 3006 3005 3066 3067 3004 3003 
3070 3071 3008 3007 3068 3069 3006 3005 
3072 3073 3010 3009 3070 3071 3008 3007 
3074 3075 3012 3011 3072 3073 3010 3009 
3076 3077 3014 3013 3074 3075 3012 3011 
3078 3079 3016 3015 3076 3077 3014 3013 
873 874 844 843 3078 3079 3016 3015 
1778 3038 2975 2598 1782 3040 2977 2602 
1786 3042 2979 2606 1778 3038 2975 2598 
1790 3044 2981 2610 1786 3042 2979 2606 
1794 3046 2983 2614 1790 3044 2981 2610 
1798 3048 2985 2618 1794 3046 2983 2614 
1802 3050 2987 2622 1798 3048 2985 2618 
1806 3052 2989 2626 1802 3050 2987 2622 
1810 3054 2991 2630 1806 3052 2989 2626 
1814 3056 2993 2634 1810 3054 2991 2630 
1818 3058 2995 2638 1814 3056 2993 2634 
1822 3060 2997 2642 1818 3058 2995 2638 
1826 3062 2999 2646 1822 3060 2997 2642 
1830 3064 3001 2650 1826 3062 2999 2646 
1834 3066 3003 2654 1830 3064 3001 2650 
1838 3068 3005 2658 1834 3066 3003 2654 
1842 3070 3007 2662 1838 3068 3005 2658 
1846 3072 3009 2666 1842 3070 3007 2662 
1850 3074 3011 2670 1846 3072 3009 2666 
1854 3076 3013 2674 1850 3074 3011 2670 
1858 3078 3015 2678 1854 3076 3013 2674 
275 873 843 666 1858 3078 3015 2678 
2702 2914 3017 2703 2704 2917 3018 2705 
2706 2920 3019 2707 2702 2914 3017 2703 
2708 2923 3020 2709 2706 2920 3019 2707 
2710 2926 3021 2711 2708 2923 3020 2709 
2712 2929 3022 2713 2710 2926 3021 2711 
2714 2932 3023 2715 2712 2929 3022 2713 
2716 2935 3024 2717 2714 2932 3023 2715 
2718 2938 3025 2719 2716 2935 3024 2717 
2720 2941 3026 2721 2718 2938 3025 2719 
2722 2944 3027 2723 2720 2941 3026 2721 
2724 2947 3028 2725 2722 2944 3027 2723 
2726 2950 3029 2727 2724 2947 3028 2725 
2728 2953 3030 2729 2726 2950 3029 2727 
2730 2956 3031 2731 2728 2953 3030 2729 
2732 2959 3032 2733 2730 2956 3031 2731 
2734 2962 3033 2735 2732 2959 3032 2733 
2736 2965 3034 2737 2734 2962 3033 2735 
2738 2968 3035 2739 2736 2965 3034 2737 
2740 2971 3036 2741 2738 2968 3035 2739 
2742 2974 3037 2743 2740 2971 3036 2741 
713 816 862 714 2742 2974 3037 2743 
2492 2913 3080 2493 2495 2916 3081 2496 
2498 2919 3082 2499 2492 2913 3080 2493 
2501 2922 3083 2502 2498 2919 3082 2499 
2504 2925 3084 2505 2501 2922 3083 2502 
2507 2928 3085 2508 2504 2925 3084 2505 
2510 2931 3086 2511 2507 2928 3085 2508 
2513 2934 3087 2514 2510 2931 3086 2511 
2516 2937 3088 2517 2513 2934 3087 2514 
2519 2940 3089 2520 2516 2937 3088 2517 
2522 2943 3090 2523 2519 2940 3089 2520 
2525 2946 3091 2526 2522 2943 3090 2523 
2528 2949 3092 2529 2525 2946 3091 2526 
2531 2952 3093 2532 2528 2949 3092 2529 
2534 2955 3094 2535 2531 2952 3093 2532 
2537 2958 3095 2538 2534 2955 3094 2535 
2540 2961 3096 2541 2537 2958 3095 2538 
2543 2964 3097 2544 2540 2961 3096 2541 
2546 2967 3098 2547 2543 2964 3097 2544 
2549 2970 3099 2550 2546 2967 3098 2547 
2552 2973 3100 2553 2549 2970 3099 2550 
614 815 892 615 2552 2973 3100 2553 
3101 2366 2369 3102 3103 2370 2373 3104 
3105 2374 2377 3106 3101 2366 2369 3102 
3107 2378 2381 3108 3105 2374 2377 3106 
3109 2382 2385 3110 3107 2378 2381 3108 
3111 2386 2389 3112 3109 2382 2385 3110 
3113 2390 2393 3114 3111 2386 2389 3112 
3115 2394 2397 3116 3113 2390 2393 3114 
3117 2398 2401 3118 3115 2394 2397 3116 
3119 2402 2405 3120 3117 2398 2401 3118 
3121 2406 2409 3122 3119 2402 2405 3120 
3123 2410 2413 3124 3121 2406 2409 3122 
3125 2414 2417 3126 3123 2410 2413 3124 
3127 2418 2421 3128 3125 2414 2417 3126 
3129 2422 2425 3130 3127 2418 2421 3128 
3131 2426 2429 3132 3129 2422 2425 3130 
3133 2430 2433 3134 3131 2426 2429 3132 
3135 2434 2437 3136 3133 2430 2433 3134 
3137 2438 2441 3138 3135 2434 2437 3136 
3139 2442 2445 3140 3137 2438 2441 3138 
3141 2446 2449 3142 3139 2442 2445 3140 
903 555 558 904 3141 2446 2449 3142 
3143 1779 2597 3144 3145 1783 2601 3146 
3147 1787 2605 3148 3143 1779 2597 3144 
3149 1791 2609 3150 3147 1787 2605 3148 
3151 1795 2613 3152 3149 1791 2609 3150 
3153 1799 2617 3154 3151 1795 2613 3152 
3155 1803 2621 3156 3153 1799 2617 3154 
3157 1807 2625 3158 3155 1803 2621 3156 
3159 1811 2629 3160 3157 1807 2625 3158 
3161 1815 2633 3162 3159 1811 2629 3160 
3163 1819 2637 3164 3161 1815 2633 3162 
3165 1823 2641 3166 3163 1819 2637 3164 
3167 1827 2645 3168 3165 1823 2641 3166 
3169 1831 2649 3170 3167 1827 2645 3168 
3171 1835 2653 3172 3169 1831 2649 3170 
3173 1839 2657 3174 3171 1835 2653 3172 
3175 1843 2661 3176 3173 1839 2657 3174 
3177 1847 2665 3178 3175 1843 2661 3176 
3179 1851 2669 3180 3177 1847 2665 3178 
3181 1855 2673 3182 3179 1851 2669 3180 
3183 1859 2677 3184 3181 1855 2673 3182 
923 276 665 924 3183 1859 2677 3184 
1780 1736 1463 1946 1784 1738 1466 1948 
1788 1740 1469 1950 1780 1736 1463 1946 
1792 1742 1472 1952 1788 1740 1469 1950 
1796 1744 1475 1954 1792 1742 1472 1952 
1800 1746 1478 1956 1796 1744 1475 1954 
1804 1748 1481 1958 1800 1746 1478 1956 
1808 1750 1484 1960 1804 1748 1481 1958 
1812 1752 1487 1962 1808 1750 1484 1960 
1816 1754 1490 1964 1812 1752 1487 1962 
1820 1756 1493 1966 1816 1754 1490 1964 
1824 1758 1496 1968 1820 1756 1493 1966 
1828 1760 1499 1970 1824 1758 1496 1968 
1832 1762 1502 1972 1828 1760 1499 1970 
1836 1764 1505 1974 1832 1762 1502 1972 
1840 1766 1508 1976 1836 1764 1505 1974 
1844 1768 1511 1978 1840 1766 1508 1976 
1848 1770 1514 1980 1844 1768 1511 1978 
1852 1772 1517 1982 1848 1770 1514 1980 
1856 1774 1520 1984 1852 1772 1517 1982 
1860 1776 1523 1986 1856 1774 1520 1984 
277 253 124 353 1860 1776 1523 1986 
3185 3186 3187 1737 3188 3189 3190 1739 
3191 3192 3193 1741 3185 3186 3187 1737 
3194 3195 3196 1743 3191 3192 3193 1741 
3197 3198 3199 1745 3194 3195 3196 1743 
3200 3201 3202 1747 3197 3198 3199 1745 
3203 3204 3205 1749 3200 3201 3202 1747 
3206 3207 3208 1751 3203 3204 3205 1749 
3209 3210 3211 1753 3206 3207 3208 1751 
3212 3213 3214 1755 3209 3210 3211 1753 
3215 3216 3217 1757 3212 3213 3214 1755 
3218 3219 3220 1759 3215 3216 3217 1757 
3221 3222 3223 1761 3218 3219 3220 1759 
3224 3225 3226 1763 3221 3222 3223 1761 
3227 3228 3229 1765 3224 3225 3226 1763 
3230 3231 3232 1767 3227 3228 3229 1765 
3233 3234 3235 1769 3230 3231 3232 1767 
3236 3237 3238 1771 3233 3234 3235 1769 
3239 3240 3241 1773 3236 3237 3238 1771 
3242 3243 3244 1775 3239 3240 3241 1773 
3245 3246 3247 1777 3242 3243 3244 1775 
944 945 946 254 3245 3246 3247 1777 
1380 3039 2807 1381 1384 3041 2810 1385 
1388 3043 2813 1389 1380 3039 2807 1381 
1392 3045 2816 1393 1388 3043 2813 1389 
1396 3047 2819 1397 1392 3045 2816 1393 
1400 3049 2822 1401 1396 3047 2819 1397 
1404 3051 2825 1405 1400 3049 2822 1401 
1408 3053 2828 1409 1404 3051 2825 1405 
1412 3055 2831 1413 1408 3053 2828 1409 
1416 3057 2834 1417 1412 3055 2831 1413 
1420 3059 2837 1421 1416 3057 2834 1417 
1424 3061 2840 1425 1420 3059 2837 1421 
1428 3063 2843 1429 1424 3061 2840 1425 
1436 3067 2849 1437 1432 3065 2846 1433 
1440 3069 2852 1441 1436 3067 2849 1437 
1444 3071 2855 1445 1440 3069 2852 1441 
1448 3073 2858 1449 1444 3071 2855 1445 
1452 3075 2861 1453 1448 3073 2858 1449 
1456 3077 2864 1457 1452 3075 2861 1453 
1460 3079 2867 1461 1456 3077 2864 1457 
86 874 764 87 1460 3079 2867 1461 
1382 1381 2809 2556 1386 1385 2812 2558 
1390 1389 2815 2560 1382 1381 2809 2556 
1394 1393 2818 2562 1390 1389 2815 2560 
1398 1397 2821 2564 1394 1393 2818 2562 
1402 1401 2824 2566 1398 1397 2821 2564 
1406 1405 2827 2568 1402 1401 2824 2566 
1410 1409 2830 2570 1406 1405 2827 2568 
1414 1413 2833 2572 1410 1409 2830 2570 
1418 1417 2836 2574 1414 1413 2833 2572 
1422 1421 2839 2576 1418 1417 2836 2574 
1426 1425 2842 2578 1422 1421 2839 2576 
1430 1429 2845 2580 1426 1425 2842 2578 
1434 1433 2848 2582 1430 1429 2845 2580 
1438 1437 2851 2584 1434 1433 2848 2582 
1442 1441 2854 2586 1438 1437 2851 2584 
1446 1445 2857 2588 1442 1441 2854 2586 
1450 1449 2860 2590 1446 1445 2857 2588 
1454 1453 2863 2592 1450 1449 2860 2590 
1458 1457 2866 2594 1454 1453 2863 2592 
1462 1461 2869 2596 1458 1457 2866 2594 
88 87 766 644 1462 1461 2869 2596 
2870 2075 3248 3249 2872 2079 3250 3251 
2874 2083 3252 3253 2870 2075 3248 3249 
2876 2087 3254 3255 2874 2083 3252 3253 
2878 2091 3256 3257 2876 2087 3254 3255 
2880 2095 3258 3259 2878 2091 3256 3257 
2882 2099 3260 3261 2880 2095 3258 3259 
2884 2103 3262 3263 2882 2099 3260 3261 
2886 2107 3264 3265 2884 2103 3262 3263 
2888 2111 3266 3267 2886 2107 3264 3265 
2890 2115 3268 3269 2888 2111 3266 3267 
2892 2119 3270 3271 2890 2115 3268 3269 
2894 2123 3272 3273 2892 2119 3270 3271 
2896 2127 3274 3275 2894 2123 3272 3273 
2898 2131 3276 3277 2896 2127 3274 3275 
2900 2135 3278 3279 2898 2131 3276 3277 
2902 2139 3280 3281 2900 2135 3278 3279 
2904 2143 3282 3283 2902 2139 3280 3281 
2906 2147 3284 3285 2904 2143 3282 3283 
2908 2151 3286 3287 2906 2147 3284 3285 
2910 2155 3288 3289 2908 2151 3286 3287 
793 418 973 974 2910 2155 3288 3289 
1214 1213 3290 2073 1218 1217 3291 2077 
1222 1221 3292 2081 1214 1213 3290 2073 
1226 1225 3293 2085 1222 1221 3292 2081 
1230 1229 3294 2089 1226 1225 3293 2085 
1234 1233 3295 2093 1230 1229 3294 2089 
1238 1237 3296 2097 1234 1233 3295 2093 
1242 1241 3297 2101 1238 1237 3296 2097 
1246 1245 3298 2105 1242 1241 3297 2101 
1250 1249 3299 2109 1246 1245 3298 2105 
1254 1253 3300 2113 1250 1249 3299 2109 
1258 1257 3301 2117 1254 1253 3300 2113 
1262 1261 3302 2121 1258 1257 3301 2117 
1266 1265 3303 2125 1262 1261 3302 2121 
1270 1269 3304 2129 1266 1265 3303 2125 
1274 1273 3305 2133 1270 1269 3304 2129 
1278 1277 3306 2137 1274 1273 3305 2133 
1282 1281 3307 2141 1278 1277 3306 2137 
1286 1285 3308 2145 1282 1281 3307 2141 
1290 1289 3309 2149 1286 1285 3308 2145 
1294 1293 3310 2153 1290 1289 3309 2149 
8 7 992 416 1294 1293 3310 2153 
2367 3311 2599 2368 2371 3312 2603 2372 
2375 3313 2607 2376 2367 3311 2599 2368 
2379 3314 2611 2380 2375 3313 2607 2376 
2383 3315 2615 2384 2379 3314 2611 2380 
2387 3316 2619 2388 2383 3315 2615 2384 
2391 3317 2623 2392 2387 3316 2619 2388 
2395 3318 2627 2396 2391 3317 2623 2392 
2399 3319 2631 2400 2395 3318 2627 2396 
2403 3320 2635 2404 2399 3319 2631 2400 
2407 3321 2639 2408 2403 3320 2635 2404 
2411 3322 2643 2412 2407 3321 2639 2408 
2415 3323 2647 2416 2411 3322 2643 2412 
2419 3324 2651 2420 2415 3323 2647 2416 
2423 3325 2655 2424 2419 3324 2651 2420 
2427 3326 2659 2428 2423 3325 2655 2424 
2431 3327 2663 2432 2427 3326 2659 2428 
2435 3328 2667 2436 2431 3327 2663 2432 
2439 3329 2671 2440 2435 3328 2667 2436 
2443 3330 2675 2444 2439 3329 2671 2440 
2447 3331 2679 2448 2443 3330 2675 2444 
556 1002 667 557 2447 3331 2679 2448 
2158 2157 2681 1465 2161 2160 2682 1468 
2164 2163 2683 1471 2158 2157 2681 1465 
2167 2166 2684 1474 2164 2163 2683 1471 
2170 2169 2685 1477 2167 2166 2684 1474 
2173 2172 2686 1480 2170 2169 2685 1477 
2176 2175 2687 1483 2173 2172 2686 1480 
2179 2178 2688 1486 2176 2175 2687 1483 
2182 2181 2689 1489 2179 2178 2688 1486 
2185 2184 2690 1492 2182 2181 2689 1489 
2188 2187 2691 1495 2185 2184 2690 1492 
2191 2190 2692 1498 2188 2187 2691 1495 
2194 2193 2693 1501 2191 2190 2692 1498 
2197 2196 2694 1504 2194 2193 2693 1501 
2200 2199 2695 1507 2197 2196 2694 1504 
2203 2202 2696 1510 2200 2199 2695 1507 
2206 2205 2697 1513 2203 2202 2696 1510 
2209 2208 2698 1516 2206 2205 2697 1513 
2212 2211 2699 1519 2209 2208 2698 1516 
2215 2214 2700 1522 2212 2211 2699 1519 
2218 2217 2701 1525 2215 2214 2700 1522 
456 455 702 126 2218 2217 2701 1525 
2745 3332 1990 2746 2748 3333 1994 2749 
2751 3334 1998 2752 2745 3332 1990 2746 
2754 3335 2002 2755 2751 3334 1998 2752 
2757 3336 2006 2758 2754 3335 2002 2755 
2760 3337 2010 2761 2757 3336 2006 2758 
2763 3338 2014 2764 2760 3337 2010 2761 
2766 3339 2018 2767 2763 3338 2014 2764 
2769 3340 2022 2770 2766 3339 2018 2767 
2772 3341 2026 2773 2769 3340 2022 2770 
2775 3342 2030 2776 2772 3341 2026 2773 
2778 3343 2034 2779 2775 3342 2030 2776 
2781 3344 2038 2782 2778 3343 2034 2779 
2784 3345 2042 2785 2781 3344 2038 2782 
2787 3346 2046 2788 2784 3345 2042 2785 
2790 3347 2050 2791 2787 3346 2046 2788 
2793 3348 2054 2794 2790 3347 2050 2791 
2796 3349 2058 2797 2793 3348 2054 2794 
2799 3350 2062 2800 2796 3349 2058 2797 
2802 3351 2066 2803 2799 3350 2062 2800 
2805 3352 2070 2806 2802 3351 2066 2803 
735 1012 377 736 2805 3352 2070 2806 
1379 3353 1610 1694 1383 3354 1614 1696 
1387 3355 1618 1698 1379 3353 1610 1694 
1391 3356 1622 1700 1387 3355 1618 1698 
1395 3357 1626 1702 1391 3356 1622 1700 
1399 3358 1630 1704 1395 3357 1626 1702 
1403 3359 1634 1706 1399 3358 1630 1704 
1407 3360 1638 1708 1403 3359 1634 1706 
1411 3361 1642 1710 1407 3360 1638 1708 
1415 3362 1646 1712 1411 3361 1642 1710 
1419 3363 1650 1714 1415 3362 1646 1712 
1423 3364 1654 1716 1419 3363 1650 1714 
1427 3365 1658 1718 1423 3364 1654 1716 
1431 3366 1662 1720 1427 3365 1658 1718 
1435 3367 1666 1722 1431 3366 1662 1720 
1439 3368 1670 1724 1435 3367 1666 1722 
1443 3369 1674 1726 1439 3368 1670 1724 
1447 3370 1678 1728 1443 3369 1674 1726 
1451 3371 1682 1730 1447 3370 1678 1728 
1455 3372 1686 1732 1451 3371 1682 1730 
1459 3373 1690 1734 1455 3372 1686 1732 
85 1022 195 233 1459 3373 1690 1734 
1296 2871 3374 1297 1300 2873 3375 1301 
1304 2875 3376 1305 1296 2871 3374 1297 
1308 2877 3377 1309 1304 2875 3376 1305 
1312 2879 3378 1313 1308 2877 3377 1309 
1316 2881 3379 1317 1312 2879 3378 1313 
1320 2883 3380 1321 1316 2881 3379 1317 
1324 2885 3381 1325 1320 2883 3380 1321 
1328 2887 3382 1329 1324 2885 3381 1325 
1332 2889 3383 1333 1328 2887 3382 1329 
1336 2891 3384 1337 1332 2889 3383 1333 
1340 2893 3385 1341 1336 2891 3384 1337 
1344 2895 3386 1345 1340 2893 3385 1341 
1348 2897 3387 1349 1344 2895 3386 1345 
1352 2899 3388 1353 1348 2897 3387 1349 
1356 2901 3389 1357 1352 2899 3388 1353 
1360 2903 3390 1361 1356 2901 3389 1357 
1364 2905 3391 1365 1360 2903 3390 1361 
1368 2907 3392 1369 1364 2905 3391 1365 
1372 2909 3393 1373 1368 2907 3392 1369 
1376 2911 3394 1377 1372 2909 3393 1373 
46 794 1032 47 1376 2911 3394 1377 
3186 3185 1989 1988 3189 3188 1993 1992 
3192 3191 1997 1996 3186 3185 1989 1988 
3195 3194 2001 2000 3192 3191 1997 1996 
3198 3197 2005 2004 3195 3194 2001 2000 
3201 3200 2009 2008 3198 3197 2005 2004 
3204 3203 2013 2012 3201 3200 2009 2008 
3207 3206 2017 2016 3204 3203 2013 2012 
3210 3209 2021 2020 3207 3206 2017 2016 
3213 3212 2025 2024 3210 3209 2021 2020 
3216 3215 2029 2028 3213 3212 2025 2024 
3219 3218 2033 2032 3216 3215 2029 2028 
3222 3221 2037 2036 3219 3218 2033 2032 
3225 3224 2041 2040 3222 3221 2037 2036 
3228 3227 2045 2044 3225 3224 2041 2040 
3231 3230 2049 2048 3228 3227 2045 2044 
3234 3233 2053 2052 3231 3230 2049 2048 
3237 3236 2057 2056 3234 3233 2053 2052 
3240 3239 2061 2060 3237 3236 2057 2056 
3243 3242 2065 2064 3240 3239 2061 2060 
3246 3245 2069 2068 3243 3242 2065 2064 
945 944 376 375 3246 3245 2069 2068 
2912 2220 1296 1295 2915 2224 1300 1299 
2918 2228 1304 1303 2912 2220 1296 1295 
2921 2232 1308 1307 2918 2228 1304 1303 
2924 2236 1312 1311 2921 2232 1308 1307 
2927 2240 1316 1315 2924 2236 1312 1311 
2930 2244 1320 1319 2927 2240 1316 1315 
2933 2248 1324 1323 2930 2244 1320 1319 
2936 2252 1328 1327 2933 2248 1324 1323 
2939 2256 1332 1331 2936 2252 1328 1327 
2942 2260 1336 1335 2939 2256 1332 1331 
2945 2264 1340 1339 2942 2260 1336 1335 
2948 2268 1344 1343 2945 2264 1340 1339 
2951 2272 1348 1347 2948 2268 1344 1343 
2954 2276 1352 1351 2951 2272 1348 1347 
2957 2280 1356 1355 2954 2276 1352 1351 
2960 2284 1360 1359 2957 2280 1356 1355 
2963 2288 1364 1363 2960 2284 1360 1359 
2966 2292 1368 1367 2963 2288 1364 1363 
2969 2296 1372 1371 2966 2292 1368 1367 
2972 2300 1376 1375 2969 2296 1372 1371 
814 486 46 45 2972 2300 1376 1375 
2075 2074 3395 3248 2079 2078 3396 3250 
2083 2082 3397 3252 2075 2074 3395 3248 
2087 2086 3398 3254 2083 2082 3397 3252 
2091 2090 3399 3256 2087 2086 3398 3254 
2095 2094 3400 3258 2091 2090 3399 3256 
2099 2098 3401 3260 2095 2094 3400 3258 
2103 2102 3402 3262 2099 2098 3401 3260 
2107 2106 3403 3264 2103 2102 3402 3262 
2111 2110 3404 3266 2107 2106 3403 3264 
2115 2114 3405 3268 2111 2110 3404 3266 
2119 2118 3406 3270 2115 2114 3405 3268 
2123 2122 3407 3272 2119 2118 3406 3270 
2127 2126 3408 3274 2123 2122 3407 3272 
2131 2130 3409 3276 2127 2126 3408 3274 
2135 2134 3410 3278 2131 2130 3409 3276 
2139 2138 3411 3280 2135 2134 3410 3278 
2143 2142 3412 3282 2139 2138 3411 3280 
2147 2146 3413 3284 2143 2142 3412 3282 
2151 2150 3414 3286 2147 2146 3413 3284 
2155 2154 3415 3288 2151 2150 3414 3286 
418 417 1042 973 2155 2154 3415 3288 
3039 3038 3416 2807 3041 3040 3417 2810 
3043 3042 3418 2813 3039 3038 3416 2807 
3045 3044 3419 2816 3043 3042 3418 2813 
3047 3046 3420 2819 3045 3044 3419 2816 
3049 3048 3421 2822 3047 3046 3420 2819 
3051 3050 3422 2825 3049 3048 3421 2822 
3053 3052 3423 2828 3051 3050 3422 2825 
3055 3054 3424 2831 3053 3052 3423 2828 
3057 3056 3425 2834 3055 3054 3424 2831 
3059 3058 3426 2837 3057 3056 3425 2834 
3061 3060 3427 2840 3059 3058 3426 2837 
3063 3062 3428 2843 3061 3060 3427 2840 
3065 3064 3429 2846 3063 3062 3428 2843 
3067 3066 3430 2849 3065 3064 3429 2846 
3069 3068 3431 2852 3067 3066 3430 2849 
3071 3070 3432 2855 3069 3068 3431 2852 
3073 3072 3433 2858 3071 3070 3432 2855 
3075 3074 3434 2861 3073 3072 3433 2858 
3077 3076 3435 2864 3075 3074 3434 2861 
3079 3078 3436 2867 3077 3076 3435 2864 
874 873 1052 764 3079 3078 3436 2867 
2158 1214 2073 2072 2161 1218 2077 2076 
2164 1222 2081 2080 2158 1214 2073 2072 
2167 1226 2085 2084 2164 1222 2081 2080 
2170 1230 2089 2088 2167 1226 2085 2084 
2173 1234 2093 2092 2170 1230 2089 2088 
2176 1238 2097 2096 2173 1234 2093 2092 
2179 1242 2101 2100 2176 1238 2097 2096 
2182 1246 2105 2104 2179 1242 2101 2100 
2185 1250 2109 2108 2182 1246 2105 2104 
2188 1254 2113 2112 2185 1250 2109 2108 
2191 1258 2117 2116 2188 1254 2113 2112 
2194 1262 2121 2120 2191 1258 2117 2116 
2197 1266 2125 2124 2194 1262 2121 2120 
2200 1270 2129 2128 2197 1266 2125 2124 
2203 1274 2133 2132 2200 1270 2129 2128 
2206 1278 2137 2136 2203 1274 2133 2132 
2209 1282 2141 2140 2206 1278 2137 2136 
2212 1286 2145 2144 2209 1282 2141 2140 
2215 1290 2149 2148 2212 1286 2145 2144 
2218 1294 2153 2152 2215 1290 2149 2148 
456 8 416 415 2218 1294 2153 2152 
3437 1694 1695 3102 3438 1696 1697 3104 
3439 1698 1699 3106 3437 1694 1695 3102 
3440 1700 1701 3108 3439 1698 1699 3106 
3441 1702 1703 3110 3440 1700 1701 3108 
3442 1704 1705 3112 3441 1702 1703 3110 
3443 1706 1707 3114 3442 1704 1705 3112 
3444 1708 1709 3116 3443 1706 1707 3114 
3445 1710 1711 3118 3444 1708 1709 3116 
3446 1712 1713 3120 3445 1710 1711 3118 
3447 1714 1715 3122 3446 1712 1713 3120 
3448 1716 1717 3124 3447 1714 1715 3122 
3449 1718 1719 3126 3448 1716 1717 3124 
3450 1720 1721 3128 3449 1718 1719 3126 
3451 1722 1723 3130 3450 1720 1721 3128 
3452 1724 1725 3132 3451 1722 1723 3130 
3453 1726 1727 3134 3452 1724 1725 3132 
3454 1728 1729 3136 3453 1726 1727 3134 
3455 1730 1731 3138 3454 1728 1729 3136 
3456 1732 1733 3140 3455 1730 1731 3138 
3457 1734 1735 3142 3456 1732 1733 3140 
1062 233 234 904 3457 1734 1735 3142 
3080 1295 1298 3458 3081 1299 1302 3459 
3082 1303 1306 3460 3080 1295 1298 3458 
3083 1307 1310 3461 3082 1303 1306 3460 
3084 1311 1314 3462 3083 1307 1310 3461 
3085 1315 1318 3463 3084 1311 1314 3462 
3086 1319 1322 3464 3085 1315 1318 3463 
3087 1323 1326 3465 3086 1319 1322 3464 
3088 1327 1330 3466 3087 1323 1326 3465 
3089 1331 1334 3467 3088 1327 1330 3466 
3090 1335 1338 3468 3089 1331 1334 3467 
3091 1339 1342 3469 3090 1335 1338 3468 
3092 1343 1346 3470 3091 1339 1342 3469 
3093 1347 1350 3471 3092 1343 1346 3470 
3094 1351 1354 3472 3093 1347 1350 3471 
3095 1355 1358 3473 3094 1351 1354 3472 
3096 1359 1362 3474 3095 1355 1358 3473 
3097 1363 1366 3475 3096 1359 1362 3474 
3098 1367 1370 3476 3097 1363 1366 3475 
3099 1371 1374 3477 3098 1367 1370 3476 
3100 1375 1378 3478 3099 1371 1374 3477 
892 45 48 1072 3100 1375 1378 3478 
3185 3143 3144 1989 3188 3145 3146 1993 
3191 3147 3148 1997 3185 3143 3144 1989 
3194 3149 3150 2001 3191 3147 3148 1997 
3197 3151 3152 2005 3194 3149 3150 2001 
3200 3153 3154 2009 3197 3151 3152 2005 
3203 3155 3156 2013 3200 3153 3154 2009 
3206 3157 3158 2017 3203 3155 3156 2013 
3209 3159 3160 2021 3206 3157 3158 2017 
3212 3161 3162 2025 3209 3159 3160 2021 
3215 3163 3164 2029 3212 3161 3162 2025 
3218 3165 3166 2033 3215 3163 3164 2029 
3221 3167 3168 2037 3218 3165 3166 2033 
3224 3169 3170 2041 3221 3167 3168 2037 
3227 3171 3172 2045 3224 3169 3170 2041 
3230 3173 3174 2049 3227 3171 3172 2045 
3233 3175 3176 2053 3230 3173 3174 2049 
3236 3177 3178 2057 3233 3175 3176 2053 
3239 3179 3180 2061 3236 3177 3178 2057 
3242 3181 3182 2065 3239 3179 3180 2061 
3245 3183 3184 2069 3242 3181 3182 2065 
944 923 924 376 3245 3183 3184 2069 
2809 2808 2703 3017 2812 2811 2705 3018 
2815 2814 2707 3019 2809 2808 2703 3017 
2818 2817 2709 3020 2815 2814 2707 3019 
2821 2820 2711 3021 2818 2817 2709 3020 
2824 2823 2713 3022 2821 2820 2711 3021 
2827 2826 2715 3023 2824 2823 2713 3022 
2830 2829 2717 3024 2827 2826 2715 3023 
2833 2832 2719 3025 2830 2829 2717 3024 
2836 2835 2721 3026 2833 2832 2719 3025 
2839 2838 2723 3027 2836 2835 2721 3026 
2842 2841 2725 3028 2839 2838 2723 3027 
2845 2844 2727 3029 2842 2841 2725 3028 
2848 2847 2729 3030 2845 2844 2727 3029 
2851 2850 2731 3031 2848 2847 2729 3030 
2854 2853 2733 3032 2851 2850 2731 3031 
2857 2856 2735 3033 2854 2853 2733 3032 
2860 2859 2737 3034 2857 2856 2735 3033 
2863 2862 2739 3035 2860 2859 2737 3034 
2866 2865 2741 3036 2863 2862 2739 3035 
2869 2868 2743 3037 2866 2865 2741 3036 
766 765 714 862 2869 2868 2743 3037 
2556 2809 3017 2451 2558 2812 3018 2453 
2560 2815 3019 2455 2556 2809 3017 2451 
2562 2818 3020 2457 2560 2815 3019 2455 
2564 2821 3021 2459 2562 2818 3020 2457 
2566 2824 3022 2461 2564 2821 3021 2459 
2568 2827 3023 2463 2566 2824 3022 2461 
2570 2830 3024 2465 2568 2827 3023 2463 
2572 2833 3025 2467 2570 2830 3024 2465 
2574 2836 3026 2469 2572 2833 3025 2467 
2576 2839 3027 2471 2574 2836 3026 2469 
2578 2842 3028 2473 2576 2839 3027 2471 
2580 2845 3029 2475 2578 2842 3028 2473 
2582 2848 3030 2477 2580 2845 3029 2475 
2584 2851 3031 2479 2582 2848 3030 2477 
2586 2854 3032 2481 2584 2851 3031 2479 
2588 2857 3033 2483 2586 2854 3032 2481 
2590 2860 3034 2485 2588 2857 3033 2483 
2592 2863 3035 2487 2590 2860 3034 2485 
2594 2866 3036 2489 2592 2863 3035 2487 
2596 2869 3037 2491 2594 2866 3036 2489 
644 766 862 594 2596 2869 3037 2491 
2156 2072 2075 2870 2159 2076 2079 2872 
2162 2080 2083 2874 2156 2072 2075 2870 
2165 2084 2087 2876 2162 2080 2083 2874 
2168 2088 2091 2878 2165 2084 2087 2876 
2171 2092 2095 2880 2168 2088 2091 2878 
2174 2096 2099 2882 2171 2092 2095 2880 
2177 2100 2103 2884 2174 2096 2099 2882 
2180 2104 2107 2886 2177 2100 2103 2884 
2183 2108 2111 2888 2180 2104 2107 2886 
2186 2112 2115 2890 2183 2108 2111 2888 
2189 2116 2119 2892 2186 2112 2115 2890 
2192 2120 2123 2894 2189 2116 2119 2892 
2195 2124 2127 2896 2192 2120 2123 2894 
2198 2128 2131 2898 2195 2124 2127 2896 
2201 2132 2135 2900 2198 2128 2131 2898 
2204 2136 2139 2902 2201 2132 2135 2900 
2207 2140 2143 2904 2204 2136 2139 2902 
2210 2144 2147 2906 2207 2140 2143 2904 
2213 2148 2151 2908 2210 2144 2147 2906 
2216 2152 2155 2910 2213 2148 2151 2908 
454 415 418 793 2216 2152 2155 2910 
2157 2222 2304 2681 2160 2226 2307 2682 
2163 2230 2310 2683 2157 2222 2304 2681 
2166 2234 2313 2684 2163 2230 2310 2683 
2169 2238 2316 2685 2166 2234 2313 2684 
2172 2242 2319 2686 2169 2238 2316 2685 
2175 2246 2322 2687 2172 2242 2319 2686 
2178 2250 2325 2688 2175 2246 2322 2687 
2181 2254 2328 2689 2178 2250 2325 2688 
2184 2258 2331 2690 2181 2254 2328 2689 
2187 2262 2334 2691 2184 2258 2331 2690 
2190 2266 2337 2692 2187 2262 2334 2691 
2193 2270 2340 2693 2190 2266 2337 2692 
2196 2274 2343 2694 2193 2270 2340 2693 
2199 2278 2346 2695 2196 2274 2343 2694 
2202 2282 2349 2696 2199 2278 2346 2695 
2205 2286 2352 2697 2202 2282 2349 2696 
2208 2290 2355 2698 2205 2286 2352 2697 
2211 2294 2358 2699 2208 2290 2355 2698 
2214 2298 2361 2700 2211 2294 2358 2699 
2217 2302 2364 2701 2214 2298 2361 2700 
455 488 525 702 2217 2302 2364 2701 
2807 3416 2303 2808 2810 3417 2306 2811 
2813 3418 2309 2814 2807 3416 2303 2808 
2816 3419 2312 2817 2813 3418 2309 2814 
2819 3420 2315 2820 2816 3419 2312 2817 
2822 3421 2318 2823 2819 3420 2315 2820 
2825 3422 2321 2826 2822 3421 2318 2823 
2828 3423 2324 2829 2825 3422 2321 2826 
2831 3424 2327 2832 2828 3423 2324 2829 
2834 3425 2330 2835 2831 3424 2327 2832 
2837 3426 2333 2838 2834 3425 2330 2835 
2840 3427 2336 2841 2837 3426 2333 2838 
2843 3428 2339 2844 2840 3427 2336 2841 
2846 3429 2342 2847 2843 3428 2339 2844 
2849 3430 2345 2850 2846 3429 2342 2847 
2852 3431 2348 2853 2849 3430 2345 2850 
2855 3432 2351 2856 2852 3431 2348 2853 
2858 3433 2354 2859 2855 3432 2351 2856 
2861 3434 2357 2862 2858 3433 2354 2859 
2864 3435 2360 2865 2861 3434 2357 2862 
2867 3436 2363 2868 2864 3435 2360 2865 
764 1052 524 765 2867 3436 2363 2868 
2493 3080 3458 3479 2496 3081 3459 3480 
2499 3082 3460 3481 2493 3080 3458 3479 
2502 3083 3461 3482 2499 3082 3460 3481 
2505 3084 3462 3483 2502 3083 3461 3482 
2508 3085 3463 3484 2505 3084 3462 3483 
2511 3086 3464 3485 2508 3085 3463 3484 
2514 3087 3465 3486 2511 3086 3464 3485 
2517 3088 3466 3487 2514 3087 3465 3486 
2520 3089 3467 3488 2517 3088 3466 3487 
2523 3090 3468 3489 2520 3089 3467 3488 
2526 3091 3469 3490 2523 3090 3468 3489 
2529 3092 3470 3491 2526 3091 3469 3490 
2532 3093 3471 3492 2529 3092 3470 3491 
2535 3094 3472 3493 2532 3093 3471 3492 
2538 3095 3473 3494 2535 3094 3472 3493 
2541 3096 3474 3495 2538 3095 3473 3494 
2544 3097 3475 3496 2541 3096 3474 3495 
2547 3098 3476 3497 2544 3097 3475 3496 
2550 3099 3477 3498 2547 3098 3476 3497 
2553 3100 3478 3499 2550 3099 3477 3498 
615 892 1072 1082 2553 3100 3478 3499 
1380 1379 1694 3437 1384 1383 1696 3438 
1388 1387 1698 3439 1380 1379 1694 3437 
1392 1391 1700 3440 1388 1387 1698 3439 
1396 1395 1702 3441 1392 1391 1700 3440 
1400 1399 1704 3442 1396 1395 1702 3441 
1404 1403 1706 3443 1400 1399 1704 3442 
1408 1407 1708 3444 1404 1403 1706 3443 
1412 1411 1710 3445 1408 1407 1708 3444 
1416 1415 1712 3446 1412 1411 1710 3445 
1420 1419 1714 3447 1416 1415 1712 3446 
1424 1423 1716 3448 1420 1419 1714 3447 
1428 1427 1718 3449 1424 1423 1716 3448 
1432 1431 1720 3450 1428 1427 1718 3449 
1436 1435 1722 3451 1432 1431 1720 3450 
1440 1439 1724 3452 1436 1435 1722 3451 
1444 1443 1726 3453 1440 1439 1724 3452 
1448 1447 1728 3454 1444 1443 1726 3453 
1452 1451 1730 3455 1448 1447 1728 3454 
1456 1455 1732 3456 1452 1451 1730 3455 
1460 1459 1734 3457 1456 1455 1732 3456 
86 85 233 1062 1460 1459 1734 3457 
3500 3501 1695 1613 3502 3503 1697 1617 
3504 3505 1699 1621 3500 3501 1695 1613 
3506 3507 1701 1625 3504 3505 1699 1621 
3508 3509 1703 1629 3506 3507 1701 1625 
3510 3511 1705 1633 3508 3509 1703 1629 
3512 3513 1707 1637 3510 3511 1705 1633 
3514 3515 1709 1641 3512 3513 1707 1637 
3516 3517 1711 1645 3514 3515 1709 1641 
3518 3519 1713 1649 3516 3517 1711 1645 
3520 3521 1715 1653 3518 3519 1713 1649 
3522 3523 1717 1657 3520 3521 1715 1653 
3524 3525 1719 1661 3522 3523 1717 1657 
3526 3527 1721 1665 3524 3525 1719 1661 
3528 3529 1723 1669 3526 3527 1721 1665 
3530 3531 1725 1673 3528 3529 1723 1669 
3532 3533 1727 1677 3530 3531 1725 1673 
3534 3535 1729 1681 3532 3533 1727 1677 
3536 3537 1731 1685 3534 3535 1729 1681 
3538 3539 1733 1689 3536 3537 1731 1685 
3540 3541 1735 1693 3538 3539 1733 1689 
1093 1094 234 198 3540 3541 1735 1693 
2156 2219 2222 2157 2159 2223 2226 2160 
2162 2227 2230 2163 2156 2219 2222 2157 
2165 2231 2234 2166 2162 2227 2230 2163 
2168 2235 2238 2169 2165 2231 2234 2166 
2171 2239 2242 2172 2168 2235 2238 2169 
2174 2243 2246 2175 2171 2239 2242 2172 
2177 2247 2250 2178 2174 2243 2246 2175 
2180 2251 2254 2181 2177 2247 2250 2178 
2183 2255 2258 2184 2180 2251 2254 2181 
2186 2259 2262 2187 2183 2255 2258 2184 
2189 2263 2266 2190 2186 2259 2262 2187 
2192 2267 2270 2193 2189 2263 2266 2190 
2195 2271 2274 2196 2192 2267 2270 2193 
2198 2275 2278 2199 2195 2271 2274 2196 
2201 2279 2282 2202 2198 2275 2278 2199 
2204 2283 2286 2205 2201 2279 2282 2202 
2207 2287 2290 2208 2204 2283 2286 2205 
2210 2291 2294 2211 2207 2287 2290 2208 
2213 2295 2298 2214 2210 2291 2294 2211 
2216 2299 2302 2217 2213 2295 2298 2214 
454 485 488 455 2216 2299 2302 2217 
3501 3101 3102 1695 3503 3103 3104 1697 
3505 3105 3106 1699 3501 3101 3102 1695 
3507 3107 3108 1701 3505 3105 3106 1699 
3509 3109 3110 1703 3507 3107 3108 1701 
3511 3111 3112 1705 3509 3109 3110 1703 
3513 3113 3114 1707 3511 3111 3112 1705 
3515 3115 3116 1709 3513 3113 3114 1707 
3517 3117 3118 1711 3515 3115 3116 1709 
3519 3119 3120 1713 3517 3117 3118 1711 
3521 3121 3122 1715 3519 3119 3120 1713 
3523 3123 3124 1717 3521 3121 3122 1715 
3525 3125 3126 1719 3523 3123 3124 1717 
3527 3127 3128 1721 3525 3125 3126 1719 
3529 3129 3130 1723 3527 3127 3128 1721 
3531 3131 3132 1725 3529 3129 3130 1723 
3533 3133 3134 1727 3531 3131 3132 1725 
3535 3135 3136 1729 3533 3133 3134 1727 
3537 3137 3138 1731 3535 3135 3136 1729 
3539 3139 3140 1733 3537 3137 3138 1731 
3541 3141 3142 1735 3539 3139 3140 1733 
1094 903 904 234 3541 3141 3142 1735 
2220 2912 2702 2221 2224 2915 2704 2225 
2228 2918 2706 2229 2220 2912 2702 2221 
2232 2921 2708 2233 2228 2918 2706 2229 
2236 2924 2710 2237 2232 2921 2708 2233 
2240 2927 2712 2241 2236 2924 2710 2237 
2244 2930 2714 2245 2240 2927 2712 2241 
2248 2933 2716 2249 2244 2930 2714 2245 
2252 2936 2718 2253 2248 2933 2716 2249 
2256 2939 2720 2257 2252 2936 2718 2253 
2260 2942 2722 2261 2256 2939 2720 2257 
2264 2945 2724 2265 2260 2942 2722 2261 
2268 2948 2726 2269 2264 2945 2724 2265 
2272 2951 2728 2273 2268 2948 2726 2269 
2276 2954 2730 2277 2272 2951 2728 2273 
2280 2957 2732 2281 2276 2954 2730 2277 
2284 2960 2734 2285 2280 2957 2732 2281 
2288 2963 2736 2289 2284 2960 2734 2285 
2292 2966 2738 2293 2288 2963 2736 2289 
2296 2969 2740 2297 2292 2966 2738 2293 
2300 2972 2742 2301 2296 2969 2740 2297 
486 814 713 487 2300 2972 2742 2301 
3542 2555 1863 1862 3543 2557 1867 1866 
3544 2559 1871 1870 3542 2555 1863 1862 
3545 2561 1875 1874 3544 2559 1871 1870 
3546 2563 1879 1878 3545 2561 1875 1874 
3547 2565 1883 1882 3546 2563 1879 1878 
3548 2567 1887 1886 3547 2565 1883 1882 
3549 2569 1891 1890 3548 2567 1887 1886 
3550 2571 1895 1894 3549 2569 1891 1890 
3551 2573 1899 1898 3550 2571 1895 1894 
3552 2575 1903 1902 3551 2573 1899 1898 
3553 2577 1907 1906 3552 2575 1903 1902 
3554 2579 1911 1910 3553 2577 1907 1906 
3555 2581 1915 1914 3554 2579 1911 1910 
3556 2583 1919 1918 3555 2581 1915 1914 
3557 2585 1923 1922 3556 2583 1919 1918 
3558 2587 1927 1926 3557 2585 1923 1922 
3559 2589 1931 1930 3558 2587 1927 1926 
3560 2591 1935 1934 3559 2589 1931 1930 
3561 2593 1939 1938 3560 2591 1935 1934 
3562 2595 1943 1942 3561 2593 1939 1938 
1112 643 316 315 3562 2595 1943 1942 
3563 3353 2555 3542 3564 3354 2557 3543 
3565 3355 2559 3544 3563 3353 2555 3542 
3566 3356 2561 3545 3565 3355 2559 3544 
3567 3357 2563 3546 3566 3356 2561 3545 
3568 3358 2565 3547 3567 3357 2563 3546 
3569 3359 2567 3548 3568 3358 2565 3547 
3570 3360 2569 3549 3569 3359 2567 3548 
3571 3361 2571 3550 3570 3360 2569 3549 
3572 3362 2573 3551 3571 3361 2571 3550 
3573 3363 2575 3552 3572 3362 2573 3551 
3574 3364 2577 3553 3573 3363 2575 3552 
3575 3365 2579 3554 3574 3364 2577 3553 
3576 3366 2581 3555 3575 3365 2579 3554 
3577 3367 2583 3556 3576 3366 2581 3555 
3578 3368 2585 3557 3577 3367 2583 3556 
3579 3369 2587 3558 3578 3368 2585 3557 
3580 3370 2589 3559 3579 3369 2587 3558 
3581 3371 2591 3560 3580 3370 2589 3559 
3582 3372 2593 3561 3581 3371 2591 3560 
3583 3373 2595 3562 3582 3372 2593 3561 
1122 1022 643 1112 3583 3373 2595 3562 
2871 2870 3249 3374 2873 2872 3251 3375 
2875 2874 3253 3376 2871 2870 3249 3374 
2877 2876 3255 3377 2875 2874 3253 3376 
2879 2878 3257 3378 2877 2876 3255 3377 
2881 2880 3259 3379 2879 2878 3257 3378 
2883 2882 3261 3380 2881 2880 3259 3379 
2885 2884 3263 3381 2883 2882 3261 3380 
2887 2886 3265 3382 2885 2884 3263 3381 
2889 2888 3267 3383 2887 2886 3265 3382 
2891 2890 3269 3384 2889 2888 3267 3383 
2893 2892 3271 3385 2891 2890 3269 3384 
2895 2894 3273 3386 2893 2892 3271 3385 
2897 2896 3275 3387 2895 2894 3273 3386 
2899 2898 3277 3388 2897 2896 3275 3387 
2901 2900 3279 3389 2899 2898 3277 3388 
2903 2902 3281 3390 2901 2900 3279 3389 
2905 2904 3283 3391 2903 2902 3281 3390 
2907 2906 3285 3392 2905 2904 3283 3391 
2909 2908 3287 3393 2907 2906 3285 3392 
2911 2910 3289 3394 2909 2908 3287 3393 
794 793 974 1032 2911 2910 3289 3394 
3332 3584 1991 1990 3333 3585 1995 1994 
3334 3586 1999 1998 3332 3584 1991 1990 
3335 3587 2003 2002 3334 3586 1999 1998 
3336 3588 2007 2006 3335 3587 2003 2002 
3337 3589 2011 2010 3336 3588 2007 2006 
3338 3590 2015 2014 3337 3589 2011 2010 
3339 3591 2019 2018 3338 3590 2015 2014 
3340 3592 2023 2022 3339 3591 2019 2018 
3341 3593 2027 2026 3340 3592 2023 2022 
3342 3594 2031 2030 3341 3593 2027 2026 
3343 3595 2035 2034 3342 3594 2031 2030 
3344 3596 2039 2038 3343 3595 2035 2034 
3345 3597 2043 2042 3344 3596 2039 2038 
3346 3598 2047 2046 3345 3597 2043 2042 
3347 3599 2051 2050 3346 3598 2047 2046 
3348 3600 2055 2054 3347 3599 2051 2050 
3349 3601 2059 2058 3348 3600 2055 2054 
3350 3602 2063 2062 3349 3601 2059 2058 
3351 3603 2067 2066 3350 3602 2063 2062 
3352 3604 2071 2070 3351 3603 2067 2066 
1012 1132 378 377 3352 3604 2071 2070 
2913 2492 2450 2914 2916 2495 2452 2917 
2919 2498 2454 2920 2913 2492 2450 2914 
2922 2501 2456 2923 2919 2498 2454 2920 
2925 2504 2458 2926 2922 2501 2456 2923 
2928 2507 2460 2929 2925 2504 2458 2926 
2931 2510 2462 2932 2928 2507 2460 2929 
2934 2513 2464 2935 2931 2510 2462 2932 
2937 2516 2466 2938 2934 2513 2464 2935 
2940 2519 2468 2941 2937 2516 2466 2938 
2943 2522 2470 2944 2940 2519 2468 2941 
2946 2525 2472 2947 2943 2522 2470 2944 
2949 2528 2474 2950 2946 2525 2472 2947 
2952 2531 2476 2953 2949 2528 2474 2950 
2955 2534 2478 2956 2952 2531 2476 2953 
2958 2537 2480 2959 2955 2534 2478 2956 
2961 2540 2482 2962 2958 2537 2480 2959 
2964 2543 2484 2965 2961 2540 2482 2962 
2967 2546 2486 2968 2964 2543 2484 2965 
2970 2549 2488 2971 2967 2546 2486 2968 
2973 2552 2490 2974 2970 2549 2488 2971 
815 614 593 816 2973 2552 2490 2974 
3605 2494 3606 3607 3608 2497 3609 3610 
3611 2500 3612 3613 3605 2494 3606 3607 
3614 2503 3615 3616 3611 2500 3612 3613 
3617 2506 3618 3619 3614 2503 3615 3616 
3620 2509 3621 3622 3617 2506 3618 3619 
3623 2512 3624 3625 3620 2509 3621 3622 
3626 2515 3627 3628 3623 2512 3624 3625 
3629 2518 3630 3631 3626 2515 3627 3628 
3632 2521 3633 3634 3629 2518 3630 3631 
3635 2524 3636 3637 3632 2521 3633 3634 
3638 2527 3639 3640 3635 2524 3636 3637 
3641 2530 3642 3643 3638 2527 3639 3640 
3644 2533 3645 3646 3641 2530 3642 3643 
3647 2536 3648 3649 3644 2533 3645 3646 
3650 2539 3651 3652 3647 2536 3648 3649 
3653 2542 3654 3655 3650 2539 3651 3652 
3656 2545 3657 3658 3653 2542 3654 3655 
3659 2548 3660 3661 3656 2545 3657 3658 
3662 2551 3663 3664 3659 2548 3660 3661 
3665 2554 3666 3667 3662 2551 3663 3664 
1144 616 1145 1146 3665 2554 3666 3667 
3668 3500 1613 1612 3669 3502 1617 1616 
3670 3504 1621 1620 3668 3500 1613 1612 
3671 3506 1625 1624 3670 3504 1621 1620 
3672 3508 1629 1628 3671 3506 1625 1624 
3673 3510 1633 1632 3672 3508 1629 1628 
3674 3512 1637 1636 3673 3510 1633 1632 
3675 3514 1641 1640 3674 3512 1637 1636 
3676 3516 1645 1644 3675 3514 1641 1640 
3677 3518 1649 1648 3676 3516 1645 1644 
3678 3520 1653 1652 3677 3518 1649 1648 
3679 3522 1657 1656 3678 3520 1653 1652 
3680 3524 1661 1660 3679 3522 1657 1656 
3681 3526 1665 1664 3680 3524 1661 1660 
3682 3528 1669 1668 3681 3526 1665 1664 
3683 3530 1673 1672 3682 3528 1669 1668 
3684 3532 1677 1676 3683 3530 1673 1672 
3685 3534 1681 1680 3684 3532 1677 1676 
3686 3536 1685 1684 3685 3534 1681 1680 
3687 3538 1689 1688 3686 3536 1685 1684 
3688 3540 1693 1692 3687 3538 1689 1688 
1172 1093 198 197 3688 3540 1693 1692 
2598 2975 2368 2599 2602 2977 2372 2603 
2606 2979 2376 2607 2598 2975 2368 2599 
2610 2981 2380 2611 2606 2979 2376 2607 
2614 2983 2384 2615 2610 2981 2380 2611 
2618 2985 2388 2619 2614 2983 2384 2615 
2622 2987 2392 2623 2618 2985 2388 2619 
2626 2989 2396 2627 2622 2987 2392 2623 
2630 2991 2400 2631 2626 2989 2396 2627 
2634 2993 2404 2635 2630 2991 2400 2631 
2638 2995 2408 2639 2634 2993 2404 2635 
2642 2997 2412 2643 2638 2995 2408 2639 
2646 2999 2416 2647 2642 2997 2412 2643 
2650 3001 2420 2651 2646 2999 2416 2647 
2654 3003 2424 2655 2650 3001 2420 2651 
2658 3005 2428 2659 2654 3003 2424 2655 
2662 3007 2432 2663 2658 3005 2428 2659 
2666 3009 2436 2667 2662 3007 2432 2663 
2670 3011 2440 2671 2666 3009 2436 2667 
2674 3013 2444 2675 2670 3011 2440 2671 
2678 3015 2448 2679 2674 3013 2444 2675 
666 843 557 667 2678 3015 2448 2679 
3039 1380 3437 2976 3041 1384 3438 2978 
3043 1388 3439 2980 3039 1380 3437 2976 
3045 1392 3440 2982 3043 1388 3439 2980 
3047 1396 3441 2984 3045 1392 3440 2982 
3049 1400 3442 2986 3047 1396 3441 2984 
3051 1404 3443 2988 3049 1400 3442 2986 
3053 1408 3444 2990 3051 1404 3443 2988 
3055 1412 3445 2992 3053 1408 3444 2990 
3057 1416 3446 2994 3055 1412 3445 2992 
3059 1420 3447 2996 3057 1416 3446 2994 
3061 1424 3448 2998 3059 1420 3447 2996 
3063 1428 3449 3000 3061 1424 3448 2998 
3065 1432 3450 3002 3063 1428 3449 3000 
3067 1436 3451 3004 3065 1432 3450 3002 
3069 1440 3452 3006 3067 1436 3451 3004 
3071 1444 3453 3008 3069 1440 3452 3006 
3073 1448 3454 3010 3071 1444 3453 3008 
3075 1452 3455 3012 3073 1448 3454 3010 
3077 1456 3456 3014 3075 1452 3455 3012 
3079 1460 3457 3016 3077 1456 3456 3014 
874 86 1062 844 3079 1460 3457 3016 
3311 2744 2600 2599 3312 2747 2604 2603 
3313 2750 2608 2607 3311 2744 2600 2599 
3314 2753 2612 2611 3313 2750 2608 2607 
3315 2756 2616 2615 3314 2753 2612 2611 
3316 2759 2620 2619 3315 2756 2616 2615 
3317 2762 2624 2623 3316 2759 2620 2619 
3318 2765 2628 2627 3317 2762 2624 2623 
3319 2768 2632 2631 3318 2765 2628 2627 
3320 2771 2636 2635 3319 2768 2632 2631 
3321 2774 2640 2639 3320 2771 2636 2635 
3322 2777 2644 2643 3321 2774 2640 2639 
3323 2780 2648 2647 3322 2777 2644 2643 
3324 2783 2652 2651 3323 2780 2648 2647 
3325 2786 2656 2655 3324 2783 2652 2651 
3326 2789 2660 2659 3325 2786 2656 2655 
3327 2792 2664 2663 3326 2789 2660 2659 
3328 2795 2668 2667 3327 2792 2664 2663 
3329 2798 2672 2671 3328 2795 2668 2667 
3330 2801 2676 2675 3329 2798 2672 2671 
3331 2804 2680 2679 3330 2801 2676 2675 
1002 734 668 667 3331 2804 2680 2679 
3038 1778 1781 3416 3040 1782 1785 3417 
3042 1786 1789 3418 3038 1778 1781 3416 
3044 1790 1793 3419 3042 1786 1789 3418 
3046 1794 1797 3420 3044 1790 1793 3419 
3048 1798 1801 3421 3046 1794 1797 3420 
3050 1802 1805 3422 3048 1798 1801 3421 
3052 1806 1809 3423 3050 1802 1805 3422 
3054 1810 1813 3424 3052 1806 1809 3423 
3056 1814 1817 3425 3054 1810 1813 3424 
3058 1818 1821 3426 3056 1814 1817 3425 
3060 1822 1825 3427 3058 1818 1821 3426 
3062 1826 1829 3428 3060 1822 1825 3427 
3064 1830 1833 3429 3062 1826 1829 3428 
3066 1834 1837 3430 3064 1830 1833 3429 
3068 1838 1841 3431 3066 1834 1837 3430 
3070 1842 1845 3432 3068 1838 1841 3431 
3072 1846 1849 3433 3070 1842 1845 3432 
3074 1850 1853 3434 3072 1846 1849 3433 
3076 1854 1857 3435 3074 1850 1853 3434 
3078 1858 1861 3436 3076 1854 1857 3435 
873 275 278 1052 3078 1858 1861 3436 
2073 3290 3689 2074 2077 3291 3690 2078 
2081 3292 3691 2082 2073 3290 3689 2074 
2085 3293 3692 2086 2081 3292 3691 2082 
2089 3294 3693 2090 2085 3293 3692 2086 
2093 3295 3694 2094 2089 3294 3693 2090 
2097 3296 3695 2098 2093 3295 3694 2094 
2101 3297 3696 2102 2097 3296 3695 2098 
2105 3298 3697 2106 2101 3297 3696 2102 
2109 3299 3698 2110 2105 3298 3697 2106 
2113 3300 3699 2114 2109 3299 3698 2110 
2117 3301 3700 2118 2113 3300 3699 2114 
2121 3302 3701 2122 2117 3301 3700 2118 
2125 3303 3702 2126 2121 3302 3701 2122 
2129 3304 3703 2130 2125 3303 3702 2126 
2133 3305 3704 2134 2129 3304 3703 2130 
2137 3306 3705 2138 2133 3305 3704 2134 
2141 3307 3706 2142 2137 3306 3705 2138 
2145 3308 3707 2146 2141 3307 3706 2142 
2149 3309 3708 2150 2145 3308 3707 2146 
2153 3310 3709 2154 2149 3309 3708 2150 
416 992 1182 417 2153 3310 3709 2154 
2492 1526 1529 2450 2495 1530 1533 2452 
2498 1534 1537 2454 2492 1526 1529 2450 
2501 1538 1541 2456 2498 1534 1537 2454 
2504 1542 1545 2458 2501 1538 1541 2456 
2507 1546 1549 2460 2504 1542 1545 2458 
2510 1550 1553 2462 2507 1546 1549 2460 
2513 1554 1557 2464 2510 1550 1553 2462 
2516 1558 1561 2466 2513 1554 1557 2464 
2519 1562 1565 2468 2516 1558 1561 2466 
2522 1566 1569 2470 2519 1562 1565 2468 
2525 1570 1573 2472 2522 1566 1569 2470 
2528 1574 1577 2474 2525 1570 1573 2472 
2531 1578 1581 2476 2528 1574 1577 2474 
2534 1582 1585 2478 2531 1578 1581 2476 
2537 1586 1589 2480 2534 1582 1585 2478 
2540 1590 1593 2482 2537 1586 1589 2480 
2543 1594 1597 2484 2540 1590 1593 2482 
2546 1598 1601 2486 2543 1594 1597 2484 
2549 1602 1605 2488 2546 1598 1601 2486 
2552 1606 1609 2490 2549 1602 1605 2488 
614 155 158 593 2552 1606 1609 2490 
3416 1781 1947 2303 3417 1785 1949 2306 
3418 1789 1951 2309 3416 1781 1947 2303 
3419 1793 1953 2312 3418 1789 1951 2309 
3420 1797 1955 2315 3419 1793 1953 2312 
3421 1801 1957 2318 3420 1797 1955 2315 
3422 1805 1959 2321 3421 1801 1957 2318 
3423 1809 1961 2324 3422 1805 1959 2321 
3424 1813 1963 2327 3423 1809 1961 2324 
3425 1817 1965 2330 3424 1813 1963 2327 
3426 1821 1967 2333 3425 1817 1965 2330 
3427 1825 1969 2336 3426 1821 1967 2333 
3428 1829 1971 2339 3427 1825 1969 2336 
3429 1833 1973 2342 3428 1829 1971 2339 
3430 1837 1975 2345 3429 1833 1973 2342 
3431 1841 1977 2348 3430 1837 1975 2345 
3432 1845 1979 2351 3431 1841 1977 2348 
3433 1849 1981 2354 3432 1845 1979 2351 
3434 1853 1983 2357 3433 1849 1981 2354 
3435 1857 1985 2360 3434 1853 1983 2357 
3436 1861 1987 2363 3435 1857 1985 2360 
1052 278 354 524 3436 1861 1987 2363 
1779 3143 1736 1780 1783 3145 1738 1784 
1787 3147 1740 1788 1779 3143 1736 1780 
1791 3149 1742 1792 1787 3147 1740 1788 
1795 3151 1744 1796 1791 3149 1742 1792 
1799 3153 1746 1800 1795 3151 1744 1796 
1803 3155 1748 1804 1799 3153 1746 1800 
1807 3157 1750 1808 1803 3155 1748 1804 
1811 3159 1752 1812 1807 3157 1750 1808 
1815 3161 1754 1816 1811 3159 1752 1812 
1819 3163 1756 1820 1815 3161 1754 1816 
1823 3165 1758 1824 1819 3163 1756 1820 
1827 3167 1760 1828 1823 3165 1758 1824 
1831 3169 1762 1832 1827 3167 1760 1828 
1835 3171 1764 1836 1831 3169 1762 1832 
1839 3173 1766 1840 1835 3171 1764 1836 
1843 3175 1768 1844 1839 3173 1766 1840 
1847 3177 1770 1848 1843 3175 1768 1844 
1851 3179 1772 1852 1847 3177 1770 1848 
1855 3181 1774 1856 1851 3179 1772 1852 
1859 3183 1776 1860 1855 3181 1774 1856 
276 923 253 277 1859 3183 1776 1860 
2222 2221 2305 2304 2226 2225 2308 2307 
2230 2229 2311 2310 2222 2221 2305 2304 
2234 2233 2314 2313 2230 2229 2311 2310 
2238 2237 2317 2316 2234 2233 2314 2313 
2242 2241 2320 2319 2238 2237 2317 2316 
2246 2245 2323 2322 2242 2241 2320 2319 
2250 2249 2326 2325 2246 2245 2323 2322 
2254 2253 2329 2328 2250 2249 2326 2325 
2258 2257 2332 2331 2254 2253 2329 2328 
2262 2261 2335 2334 2258 2257 2332 2331 
2266 2265 2338 2337 2262 2261 2335 2334 
2270 2269 2341 2340 2266 2265 2338 2337 
2274 2273 2344 2343 2270 2269 2341 2340 
2278 2277 2347 2346 2274 2273 2344 2343 
2282 2281 2350 2349 2278 2277 2347 2346 
2286 2285 2353 2352 2282 2281 2350 2349 
2290 2289 2356 2355 2286 2285 2353 2352 
2294 2293 2359 2358 2290 2289 2356 2355 
2298 2297 2362 2361 2294 2293 2359 2358 
2302 2301 2365 2364 2298 2297 2362 2361 
488 487 526 525 2302 2301 2365 2364 
3144 2597 2600 2746 3146 2601 2604 2749 
3148 2605 2608 2752 3144 2597 2600 2746 
3150 2609 2612 2755 3148 2605 2608 2752 
3152 2613 2616 2758 3150 2609 2612 2755 
3154 2617 2620 2761 3152 2613 2616 2758 
3156 2621 2624 2764 3154 2617 2620 2761 
3158 2625 2628 2767 3156 2621 2624 2764 
3160 2629 2632 2770 3158 2625 2628 2767 
3162 2633 2636 2773 3160 2629 2632 2770 
3164 2637 2640 2776 3162 2633 2636 2773 
3166 2641 2644 2779 3164 2637 2640 2776 
3168 2645 2648 2782 3166 2641 2644 2779 
3170 2649 2652 2785 3168 2645 2648 2782 
3172 2653 2656 2788 3170 2649 2652 2785 
3174 2657 2660 2791 3172 2653 2656 2788 
3176 2661 2664 2794 3174 2657 2660 2791 
3178 2665 2668 2797 3176 2661 2664 2794 
3180 2669 2672 2800 3178 2665 2668 2797 
3182 2673 2676 2803 3180 2669 2672 2800 
3184 2677 2680 2806 3182 2673 2676 2803 
924 665 668 736 3184 2677 2680 2806 
1863 2556 2451 1864 1867 2558 2453 1868 
1871 2560 2455 1872 1863 2556 2451 1864 
1875 2562 2457 1876 1871 2560 2455 1872 
1879 2564 2459 1880 1875 2562 2457 1876 
1883 2566 2461 1884 1879 2564 2459 1880 
1887 2568 2463 1888 1883 2566 2461 1884 
1891 2570 2465 1892 1887 2568 2463 1888 
1895 2572 2467 1896 1891 2570 2465 1892 
1899 2574 2469 1900 1895 2572 2467 1896 
1903 2576 2471 1904 1899 2574 2469 1900 
1907 2578 2473 1908 1903 2576 2471 1904 
1911 2580 2475 1912 1907 2578 2473 1908 
1915 2582 2477 1916 1911 2580 2475 1912 
1919 2584 2479 1920 1915 2582 2477 1916 
1923 2586 2481 1924 1919 2584 2479 1920 
1927 2588 2483 1928 1923 2586 2481 1924 
1931 2590 2485 1932 1927 2588 2483 1928 
1935 2592 2487 1936 1931 2590 2485 1932 
1939 2594 2489 1940 1935 2592 2487 1936 
1943 2596 2491 1944 1939 2594 2489 1940 
316 644 594 317 1943 2596 2491 1944 
1464 3710 1212 1211 1467 3711 1216 1215 
1470 3712 1220 1219 1464 3710 1212 1211 
1473 3713 1224 1223 1470 3712 1220 1219 
1476 3714 1228 1227 1473 3713 1224 1223 
1479 3715 1232 1231 1476 3714 1228 1227 
1482 3716 1236 1235 1479 3715 1232 1231 
1485 3717 1240 1239 1482 3716 1236 1235 
1488 3718 1244 1243 1485 3717 1240 1239 
1491 3719 1248 1247 1488 3718 1244 1243 
1494 3720 1252 1251 1491 3719 1248 1247 
1497 3721 1256 1255 1494 3720 1252 1251 
1500 3722 1260 1259 1497 3721 1256 1255 
1503 3723 1264 1263 1500 3722 1260 1259 
1506 3724 1268 1267 1503 3723 1264 1263 
1509 3725 1272 1271 1506 3724 1268 1267 
1512 3726 1276 1275 1509 3725 1272 1271 
1515 3727 1280 1279 1512 3726 1276 1275 
1518 3728 1284 1283 1515 3727 1280 1279 
1521 3729 1288 1287 1518 3728 1284 1283 
1524 3730 1292 1291 1521 3729 1288 1287 
125 1192 6 5 1524 3730 1292 1291 
3353 3563 1611 1610 3354 3564 1615 1614 
3355 3565 1619 1618 3353 3563 1611 1610 
3356 3566 1623 1622 3355 3565 1619 1618 
3357 3567 1627 1626 3356 3566 1623 1622 
3358 3568 1631 1630 3357 3567 1627 1626 
3359 3569 1635 1634 3358 3568 1631 1630 
3360 3570 1639 1638 3359 3569 1635 1634 
3361 3571 1643 1642 3360 3570 1639 1638 
3362 3572 1647 1646 3361 3571 1643 1642 
3363 3573 1651 1650 3362 3572 1647 1646 
3364 3574 1655 1654 3363 3573 1651 1650 
3365 3575 1659 1658 3364 3574 1655 1654 
3366 3576 1663 1662 3365 3575 1659 1658 
3367 3577 1667 1666 3366 3576 1663 1662 
3368 3578 1671 1670 3367 3577 1667 1666 
3369 3579 1675 1674 3368 3578 1671 1670 
3370 3580 1679 1678 3369 3579 1675 1674 
3371 3581 1683 1682 3370 3580 1679 1678 
3372 3582 1687 1686 3371 3581 1683 1682 
3373 3583 1691 1690 3372 3582 1687 1686 
1022 1122 196 195 3373 3583 1691 1690 
1465 1211 1214 2158 1468 1215 1218 2161 
1471 1219 1222 2164 1465 1211 1214 2158 
1474 1223 1226 2167 1471 1219 1222 2164 
1477 1227 1230 2170 1474 1223 1226 2167 
1480 1231 1234 2173 1477 1227 1230 2170 
1483 1235 1238 2176 1480 1231 1234 2173 
1486 1239 1242 2179 1483 1235 1238 2176 
1489 1243 1246 2182 1486 1239 1242 2179 
1492 1247 1250 2185 1489 1243 1246 2182 
1495 1251 1254 2188 1492 1247 1250 2185 
1498 1255 1258 2191 1495 1251 1254 2188 
1501 1259 1262 2194 1498 1255 1258 2191 
1504 1263 1266 2197 1501 1259 1262 2194 
1507 1267 1270 2200 1504 1263 1266 2197 
1510 1271 1274 2203 1507 1267 1270 2200 
1513 1275 1278 2206 1510 1271 1274 2203 
1516 1279 1282 2209 1513 1275 1278 2206 
1519 1283 1286 2212 1516 1279 1282 2209 
1522 1287 1290 2215 1519 1283 1286 2212 
1525 1291 1294 2218 1522 1287 1290 2215 
126 5 8 456 1525 1291 1294 2218 
2074 3689 3731 3395 2078 3690 3732 3396 
2082 3691 3733 3397 2074 3689 3731 3395 
2086 3692 3734 3398 2082 3691 3733 3397 
2090 3693 3735 3399 2086 3692 3734 3398 
2094 3694 3736 3400 2090 3693 3735 3399 
2098 3695 3737 3401 2094 3694 3736 3400 
2102 3696 3738 3402 2098 3695 3737 3401 
2106 3697 3739 3403 2102 3696 3738 3402 
2110 3698 3740 3404 2106 3697 3739 3403 
2114 3699 3741 3405 2110 3698 3740 3404 
2118 3700 3742 3406 2114 3699 3741 3405 
2122 3701 3743 3407 2118 3700 3742 3406 
2126 3702 3744 3408 2122 3701 3743 3407 
2130 3703 3745 3409 2126 3702 3744 3408 
2134 3704 3746 3410 2130 3703 3745 3409 
2138 3705 3747 3411 2134 3704 3746 3410 
2142 3706 3748 3412 2138 3705 3747 3411 
2146 3707 3749 3413 2142 3706 3748 3412 
2150 3708 3750 3414 2146 3707 3749 3413 
2154 3709 3751 3415 2150 3708 3750 3414 
417 1182 1202 1042 2154 3709 3751 3415 
1527 1526 2494 3605 1531 1530 2497 3608 
1535 1534 2500 3611 1527 1526 2494 3605 
1539 1538 2503 3614 1535 1534 2500 3611 
1543 1542 2506 3617 1539 1538 2503 3614 
1547 1546 2509 3620 1543 1542 2506 3617 
1551 1550 2512 3623 1547 1546 2509 3620 
1555 1554 2515 3626 1551 1550 2512 3623 
1559 1558 2518 3629 1555 1554 2515 3626 
1563 1562 2521 3632 1559 1558 2518 3629 
1567 1566 2524 3635 1563 1562 2521 3632 
1571 1570 2527 3638 1567 1566 2524 3635 
1575 1574 2530 3641 1571 1570 2527 3638 
1579 1578 2533 3644 1575 1574 2530 3641 
1583 1582 2536 3647 1579 1578 2533 3644 
1587 1586 2539 3650 1583 1582 2536 3647 
1591 1590 2542 3653 1587 1586 2539 3650 
1595 1594 2545 3656 1591 1590 2542 3653 
1599 1598 2548 3659 1595 1594 2545 3656 
1603 1602 2551 3662 1599 1598 2548 3659 
1607 1606 2554 3665 1603 1602 2551 3662 
156 155 616 1144 1607 1606 2554 3665 
1989 3144 2746 1990 1993 3146 2749 1994 
1997 3148 2752 1998 1989 3144 2746 1990 
2001 3150 2755 2002 1997 3148 2752 1998 
2005 3152 2758 2006 2001 3150 2755 2002 
2009 3154 2761 2010 2005 3152 2758 2006 
2013 3156 2764 2014 2009 3154 2761 2010 
2017 3158 2767 2018 2013 3156 2764 2014 
2021 3160 2770 2022 2017 3158 2767 2018 
2025 3162 2773 2026 2021 3160 2770 2022 
2029 3164 2776 2030 2025 3162 2773 2026 
2033 3166 2779 2034 2029 3164 2776 2030 
2037 3168 2782 2038 2033 3166 2779 2034 
2041 3170 2785 2042 2037 3168 2782 2038 
2045 3172 2788 2046 2041 3170 2785 2042 
2049 3174 2791 2050 2045 3172 2788 2046 
2053 3176 2794 2054 2049 3174 2791 2050 
2057 3178 2797 2058 2053 3176 2794 2054 
2061 3180 2800 2062 2057 3178 2797 2058 
2065 3182 2803 2066 2061 3180 2800 2062 
2069 3184 2806 2070 2065 3182 2803 2066 
376 924 736 377 2069 3184 2806 2070 
1779 1778 2598 2597 1783 1782 2602 2601 
1787 1786 2606 2605 1779 1778 2598 2597 
1791 1790 2610 2609 1787 1786 2606 2605 
1795 1794 2614 2613 1791 1790 2610 2609 
1799 1798 2618 2617 1795 1794 2614 2613 
1803 1802 2622 2621 1799 1798 2618 2617 
1807 1806 2626 2625 1803 1802 2622 2621 
1811 1810 2630 2629 1807 1806 2626 2625 
1815 1814 2634 2633 1811 1810 2630 2629 
1819 1818 2638 2637 1815 1814 2634 2633 
1823 1822 2642 2641 1819 1818 2638 2637 
1827 1826 2646 2645 1823 1822 2642 2641 
1831 1830 2650 2649 1827 1826 2646 2645 
1835 1834 2654 2653 1831 1830 2650 2649 
1839 1838 2658 2657 1835 1834 2654 2653 
1843 1842 2662 2661 1839 1838 2658 2657 
1847 1846 2666 2665 1843 1842 2662 2661 
1851 1850 2670 2669 1847 1846 2666 2665 
1855 1854 2674 2673 1851 1850 2670 2669 
1859 1858 2678 2677 1855 1854 2674 2673 
276 275 666 665 1859 1858 2678 2677 
2976 3437 3102 2369 2978 3438 3104 2373 
2980 3439 3106 2377 2976 3437 3102 2369 
2982 3440 3108 2381 2980 3439 3106 2377 
2984 3441 3110 2385 2982 3440 3108 2381 
2986 3442 3112 2389 2984 3441 3110 2385 
2988 3443 3114 2393 2986 3442 3112 2389 
2990 3444 3116 2397 2988 3443 3114 2393 
2992 3445 3118 2401 2990 3444 3116 2397 
2994 3446 3120 2405 2992 3445 3118 2401 
2996 3447 3122 2409 2994 3446 3120 2405 
2998 3448 3124 2413 2996 3447 3122 2409 
3000 3449 3126 2417 2998 3448 3124 2413 
3002 3450 3128 2421 3000 3449 3126 2417 
3004 3451 3130 2425 3002 3450 3128 2421 
3006 3452 3132 2429 3004 3451 3130 2425 
3008 3453 3134 2433 3006 3452 3132 2429 
3010 3454 3136 2437 3008 3453 3134 2433 
3012 3455 3138 2441 3010 3454 3136 2437 
3014 3456 3140 2445 3012 3455 3138 2441 
3016 3457 3142 2449 3014 3456 3140 2445 
844 1062 904 558 3016 3457 3142 2449 
3353 1379 1382 2555 3354 1383 1386 2557 
3355 1387 1390 2559 3353 1379 1382 2555 
3356 1391 1394 2561 3355 1387 1390 2559 
3357 1395 1398 2563 3356 1391 1394 2561 
3358 1399 1402 2565 3357 1395 1398 2563 
3359 1403 1406 2567 3358 1399 1402 2565 
3360 1407 1410 2569 3359 1403 1406 2567 
3361 1411 1414 2571 3360 1407 1410 2569 
3362 1415 1418 2573 3361 1411 1414 2571 
3363 1419 1422 2575 3362 1415 1418 2573 
3364 1423 1426 2577 3363 1419 1422 2575 
3365 1427 1430 2579 3364 1423 1426 2577 
3366 1431 1434 2581 3365 1427 1430 2579 
3367 1435 1438 2583 3366 1431 1434 2581 
3368 1439 1442 2585 3367 1435 1438 2583 
3369 1443 1446 2587 3368 1439 1442 2585 
3370 1447 1450 2589 3369 1443 1446 2587 
3371 1451 1454 2591 3370 1447 1450 2589 
3372 1455 1458 2593 3371 1451 1454 2591 
3373 1459 1462 2595 3372 1455 1458 2593 
1022 85 88 643 3373 1459 1462 2595 
1946 1463 1465 2681 1948 1466 1468 2682 
1950 1469 1471 2683 1946 1463 1465 2681 
1952 1472 1474 2684 1950 1469 1471 2683 
1954 1475 1477 2685 1952 1472 1474 2684 
1956 1478 1480 2686 1954 1475 1477 2685 
1958 1481 1483 2687 1956 1478 1480 2686 
1960 1484 1486 2688 1958 1481 1483 2687 
1962 1487 1489 2689 1960 1484 1486 2688 
1964 1490 1492 2690 1962 1487 1489 2689 
1966 1493 1495 2691 1964 1490 1492 2690 
1968 1496 1498 2692 1966 1493 1495 2691 
1970 1499 1501 2693 1968 1496 1498 2692 
1972 1502 1504 2694 1970 1499 1501 2693 
1974 1505 1507 2695 1972 1502 1504 2694 
1976 1508 1510 2696 1974 1505 1507 2695 
1978 1511 1513 2697 1976 1508 1510 2696 
1980 1514 1516 2698 1978 1511 1513 2697 
1982 1517 1519 2699 1980 1514 1516 2698 
1984 1520 1522 2700 1982 1517 1519 2699 
1986 1523 1525 2701 1984 1520 1522 2700 
353 124 126 702 1986 1523 1525 2701 
2220 2219 2871 1296 2224 2223 2873 1300 
2228 2227 2875 1304 2220 2219 2871 1296 
2232 2231 2877 1308 2228 2227 2875 1304 
2236 2235 2879 1312 2232 2231 2877 1308 
2240 2239 2881 1316 2236 2235 2879 1312 
2244 2243 2883 1320 2240 2239 2881 1316 
2248 2247 2885 1324 2244 2243 2883 1320 
2252 2251 2887 1328 2248 2247 2885 1324 
2256 2255 2889 1332 2252 2251 2887 1328 
2260 2259 2891 1336 2256 2255 2889 1332 
2264 2263 2893 1340 2260 2259 2891 1336 
2268 2267 2895 1344 2264 2263 2893 1340 
2272 2271 2897 1348 2268 2267 2895 1344 
2276 2275 2899 1352 2272 2271 2897 1348 
2280 2279 2901 1356 2276 2275 2899 1352 
2284 2283 2903 1360 2280 2279 2901 1356 
2288 2287 2905 1364 2284 2283 2903 1360 
2292 2291 2907 1368 2288 2287 2905 1364 
2296 2295 2909 1372 2292 2291 2907 1368 
2300 2299 2911 1376 2296 2295 2909 1372 
486 485 794 46 2300 2299 2911 1376 
3143 3185 1737 1736 3145 3188 1739 1738 
3147 3191 1741 1740 3143 3185 1737 1736 
3149 3194 1743 1742 3147 3191 1741 1740 
3151 3197 1745 1744 3149 3194 1743 1742 
3153 3200 1747 1746 3151 3197 1745 1744 
3155 3203 1749 1748 3153 3200 1747 1746 
3157 3206 1751 1750 3155 3203 1749 1748 
3159 3209 1753 1752 3157 3206 1751 1750 
3161 3212 1755 1754 3159 3209 1753 1752 
3163 3215 1757 1756 3161 3212 1755 1754 
3165 3218 1759 1758 3163 3215 1757 1756 
3167 3221 1761 1760 3165 3218 1759 1758 
3169 3224 1763 1762 3167 3221 1761 1760 
3171 3227 1765 1764 3169 3224 1763 1762 
3173 3230 1767 1766 3171 3227 1765 1764 
3175 3233 1769 1768 3173 3230 1767 1766 
3177 3236 1771 1770 3175 3233 1769 1768 
3179 3239 1773 1772 3177 3236 1771 1770 
3181 3242 1775 1774 3179 3239 1773 1772 
3183 3245 1777 1776 3181 3242 1775 1774 
923 944 254 253 3183 3245 1777 1776 
2913 2912 1295 3080 2916 2915 1299 3081 
2919 2918 1303 3082 2913 2912 1295 3080 
2922 2921 1307 3083 2919 2918 1303 3082 
2925 2924 1311 3084 2922 2921 1307 3083 
2928 2927 1315 3085 2925 2924 1311 3084 
2931 2930 1319 3086 2928 2927 1315 3085 
2934 2933 1323 3087 2931 2930 1319 3086 
2937 2936 1327 3088 2934 2933 1323 3087 
2940 2939 1331 3089 2937 2936 1327 3088 
2943 2942 1335 3090 2940 2939 1331 3089 
2946 2945 1339 3091 2943 2942 1335 3090 
2949 2948 1343 3092 2946 2945 1339 3091 
2952 2951 1347 3093 2949 2948 1343 3092 
2955 2954 1351 3094 2952 2951 1347 3093 
2958 2957 1355 3095 2955 2954 1351 3094 
2961 2960 1359 3096 2958 2957 1355 3095 
2964 2963 1363 3097 2961 2960 1359 3096 
2967 2966 1367 3098 2964 2963 1363 3097 
2970 2969 1371 3099 2967 2966 1367 3098 
2973 2972 1375 3100 2970 2969 1371 3099 
815 814 45 892 2973 2972 1375 3100 
2494 2493 3479 3606 2497 2496 3480 3609 
2500 2499 3481 3612 2494 2493 3479 3606 
2503 2502 3482 3615 2500 2499 3481 3612 
2506 2505 3483 3618 2503 2502 3482 3615 
2509 2508 3484 3621 2506 2505 3483 3618 
2512 2511 3485 3624 2509 2508 3484 3621 
2515 2514 3486 3627 2512 2511 3485 3624 
2518 2517 3487 3630 2515 2514 3486 3627 
2521 2520 3488 3633 2518 2517 3487 3630 
2524 2523 3489 3636 2521 2520 3488 3633 
2527 2526 3490 3639 2524 2523 3489 3636 
2530 2529 3491 3642 2527 2526 3490 3639 
2533 2532 3492 3645 2530 2529 3491 3642 
2536 2535 3493 3648 2533 2532 3492 3645 
2539 2538 3494 3651 2536 2535 3493 3648 
2542 2541 3495 3654 2539 2538 3494 3651 
2545 2544 3496 3657 2542 2541 3495 3654 
2548 2547 3497 3660 2545 2544 3496 3657 
2551 2550 3498 3663 2548 2547 3497 3660 
2554 2553 3499 3666 2551 2550 3498 3663 
616 615 1082 1145 2554 2553 3499 3666 
2808 2303 2305 2703 2811 2306 2308 2705 
2814 2309 2311 2707 2808 2303 2305 2703 
2817 2312 2314 2709 2814 2309 2311 2707 
2820 2315 2317 2711 2817 2312 2314 2709 
2823 2318 2320 2713 2820 2315 2317 2711 
2826 2321 2323 2715 2823 2318 2320 2713 
2829 2324 2326 2717 2826 2321 2323 2715 
2832 2327 2329 2719 2829 2324 2326 2717 
2835 2330 2332 2721 2832 2327 2329 2719 
2838 2333 2335 2723 2835 2330 2332 2721 
2841 2336 2338 2725 2838 2333 2335 2723 
2844 2339 2341 2727 2841 2336 2338 2725 
2847 2342 2344 2729 2844 2339 2341 2727 
2850 2345 2347 2731 2847 2342 2344 2729 
2853 2348 2350 2733 2850 2345 2347 2731 
2856 2351 2353 2735 2853 2348 2350 2733 
2859 2354 2356 2737 2856 2351 2353 2735 
2862 2357 2359 2739 2859 2354 2356 2737 
2865 2360 2362 2741 2862 2357 2359 2739 
2868 2363 2365 2743 2865 2360 2362 2741 
765 524 526 714 2868 2363 2365 2743 
1737 3187 3710 1464 1739 3190 3711 1467 
1741 3193 3712 1470 1737 3187 3710 1464 
1743 3196 3713 1473 1741 3193 3712 1470 
1745 3199 3714 1476 1743 3196 3713 1473 
1747 3202 3715 1479 1745 3199 3714 1476 
1749 3205 3716 1482 1747 3202 3715 1479 
1751 3208 3717 1485 1749 3205 3716 1482 
1753 3211 3718 1488 1751 3208 3717 1485 
1755 3214 3719 1491 1753 3211 3718 1488 
1757 3217 3720 1494 1755 3214 3719 1491 
1759 3220 3721 1497 1757 3217 3720 1494 
1761 3223 3722 1500 1759 3220 3721 1497 
1763 3226 3723 1503 1761 3223 3722 1500 
1765 3229 3724 1506 1763 3226 3723 1503 
1767 3232 3725 1509 1765 3229 3724 1506 
1769 3235 3726 1512 1767 3232 3725 1509 
1771 3238 3727 1515 1769 3235 3726 1512 
1773 3241 3728 1518 1771 3238 3727 1515 
1775 3244 3729 1521 1773 3241 3728 1518 
1777 3247 3730 1524 1775 3244 3729 1521 
254 946 1192 125 1777 3247 3730 1524 
1432 3065 2846 1433 1428 3063 2843 1429 
