# For a description of the Tecplot format see the Tecplot User's guide.
#
Variables=x,y,z,stress_xx,stress_yy,stress_zz,stress_xy,stress_yz,stress_zx,disp_x,disp_y,disp_z
Zone f=fepoint, n=3751, e=3000, et=brick, t="T 1", c=black
6000.00 9000.00 -1333.33 -22334502.488549259 3895005.7089146771 -32688198.837003283 -1.0154519101744479e-05 -0.0010341592299033581 0.00012006837828082927 1.6000000000587900 -0.40000000001231134 -6.2296746429693561 
6000.0000000000000 10000.000000000000 -1333.3333333329999 -22334502.488638118 3895005.7087773196 -32688198.837288965 -6.2008227195562812e-06 -0.00056645440822498104 0.00012003303895540693 1.6000000000586005 0.0000000000000000 -6.2296746429502239 
7000.0000000000000 10000.000000000000 -1333.3333333329999 -22334502.488735478 3895005.7089055320 -32688198.836657036 -3.3755339096500463e-06 -0.00056501533396206111 0.0012133403435071704 1.2000000000442514 0.0000000000000000 -6.2296746432912560 
7000.0000000000000 9000.0000000000000 -1333.3333333329999 -22334502.488644909 3895005.7090392462 -32688198.836373329 -6.5676417931382230e-06 -0.0010330976650335325 0.0012120981488613430 1.2000000000443498 -0.40000000001252817 -6.2296746433108927 
6000.0000000000000 9000.0000000000000 -1500.0000000000000 -23486510.142593130 2742998.0535412082 -36772589.612975590 -4.7561359954990899e-06 -0.0010688579484734164 5.4486241365080042e-05 1.5999999999814465 -0.39999999999401548 -6.1029232125458268 
6000.0000000000000 10000.000000000000 -1500.0000000000000 -23486510.142673060 2742998.0534444386 -36772589.613263004 -3.5497120023222217e-06 -0.00058763242586052972 5.5152175891054153e-05 1.5999999999813406 0.0000000000000000 -6.1029232125256305 
7000.0000000000000 10000.000000000000 -1500.0000000000000 -23486510.142811090 2742998.0535335750 -36772589.612737209 -4.6616666538930711e-07 -0.00058604610672264765 0.0012258169721907940 1.1999999999888165 0.0000000000000000 -6.1029232128696878 
7000.0000000000000 9000.0000000000000 -1500.0000000000000 -23486510.142729189 2742998.0536264796 -36772589.612452485 -7.9626824928637689e-07 -0.0010674672488175457 0.0012249656485356596 1.1999999999888240 -0.39999999999405900 -6.1029232128903805 
6000.0000000000000 9000.0000000000000 -1166.6666666670001 -21182391.718647264 5047116.4801748367 -28603442.468194000 -1.5700302430183018e-05 -0.00098513696549409955 0.00018314633865984406 1.6000000001362318 -0.40000000002976377 -6.3415191254267791 
6000.0000000000000 10000.000000000000 -1166.6666666670001 -21182391.718744572 5047116.4799911920 -28603442.468470003 -8.9267865020574333e-06 -0.00053749820506397727 0.00018246461599516459 1.6000000001359567 0.0000000000000000 -6.3415191254086265 
7000.0000000000000 10000.000000000000 -1166.6666666670001 -21182391.718775850 5047116.4801546279 -28603442.467775896 -6.3998650478215265e-06 -0.00053622348296439662 0.0011849822358645373 1.2000000000987316 0.0000000000000000 -6.3415191257464540 
7000.0000000000000 9000.0000000000000 -1166.6666666670001 -21182391.718677055 5047116.4803348547 -28603442.467501231 -1.2571109307430758e-05 -0.00098444308929520555 0.0011834914717631557 1.2000000000989244 -0.40000000003015895 -6.3415191257651191 
6000.0000000000000 9000.0000000000000 -1000.0000000000000 -20030177.823654279 6199330.3765541557 -24518320.473793346 -2.1367832859003339e-05 -0.00091977961168245134 0.00023898737450959241 1.6000000002136423 -0.40000000004624081 -6.4384553256019350 
6000.0000000000000 10000.000000000000 -1000.0000000000000 -20030177.823759727 6199330.3763178699 -24518320.474051867 -1.1724387054638667e-05 -0.00049976367875360136 0.00023773884794533968 1.6000000002132804 0.0000000000000000 -6.4384553255846324 
7000.0000000000000 10000.000000000000 -1000.0000000000000 -20030177.823695801 6199330.3765137717 -24518320.473338198 -9.5389448502204286e-06 -0.00049867219348634795 0.0011363886083125010 1.2000000001520614 0.0000000000000000 -6.4384553259192794 
7000.0000000000000 9000.0000000000000 -1000.0000000000000 -20030177.823589008 6199330.3767468538 -24518320.473080464 -1.8806564913045571e-05 -0.00091946849023232110 0.0011347893823365127 1.2000000001523519 -0.40000000004681813 -6.4384553259370998 
6000.0000000000000 9000.0000000000000 -833.33333333329995 -18877860.794341341 7351647.4072810635 -20432832.821059749 -2.7119354068153915e-05 -0.00083585821168205316 0.00028222842035271052 1.6000000002908799 -0.40000000006160180 -6.5204819090569455 
6000.0000000000000 10000.000000000000 -833.33333333329995 -18877860.794454798 7351647.4069851153 -20432832.821293194 -1.4584624652235403e-05 -0.00045215783047592378 0.00028052101021783617 1.6000000002904295 0.0000000000000000 -6.5204819090403321 
7000.0000000000000 10000.000000000000 -833.33333333329995 -18877860.794262644 7351647.4072118569 -20432832.820601210 -1.2789475442666867e-05 -0.00045124856837861838 0.0010625564260336390 1.2000000002040261 0.0000000000000000 -6.5204819093720259 
7000.0000000000000 9000.0000000000000 -833.33333333329995 -18877860.794147827 7351647.4075048147 -20432832.820368022 -2.5273144219802885e-05 -0.00083591132134213546 0.0010609838399381314 1.2000000002044173 -0.40000000006236369 -6.5204819093891606 
6000.0000000000000 9000.0000000000000 -666.66666666670005 -17725440.621480372 8504067.5815829542 -16346979.477253389 -3.2902874203327245e-05 -0.00073091765785252092 0.00030692066660012918 1.6000000003677781 -0.40000000007569442 -6.5875975412354260 
6000.0000000000000 10000.000000000000 -666.66666666670005 -17725440.621601887 8504067.5812196452 -16346979.477454416 -1.7493599623041063e-05 -0.00039348722552272840 0.00030488603791768026 1.6000000003672397 0.0000000000000000 -6.5875975412193046 
7000.0000000000000 10000.000000000000 -666.66666666670005 -17725440.621244147 8504067.5814769305 -16346979.476823572 -1.6149127484555895e-05 -0.00039273565735436545 0.00095780494453800936 1.2000000002543854 0.0000000000000000 -6.5875975415484707 
7000.0000000000000 9000.0000000000000 -666.66666666670005 -17725440.621121049 8504067.5818374157 -16346979.476622403 -3.1970144259785413e-05 -0.00073127291874496405 0.00095638018652047642 1.2000000002548801 -0.40000000007664122 -6.5875975415651169 
6000.0000000000000 9000.0000000000000 -500.00000000000000 -16572917.295841612 9656590.9086887240 -12260760.409626802 -3.8650213187300750e-05 -0.00060228378386465678 0.00030646431024256341 1.6000000004441421 -0.40000000008835312 -6.6398008874614041 
6000.0000000000000 10000.000000000000 -500.00000000000000 -16572917.295971459 9656590.9082496911 -12260760.409788355 -2.0435962966333162e-05 -0.00032245954156065340 0.00030427595202308093 1.6000000004435160 0.0000000000000000 -6.6398008874455394 
7000.0000000000000 10000.000000000000 -500.00000000000000 -16572917.295405954 9656590.9085386265 -12260760.409256365 -1.9617206686586485e-05 -0.00032183008499455529 0.00081566013826610110 1.2000000003028639 0.0000000000000000 -6.6398008877728039 
7000.0000000000000 9000.0000000000000 -500.00000000000000 -16572917.295274027 9656590.9089749437 -12260760.409094388 -3.8898361729966089e-05 -0.00060282630846737316 0.00081448945541827942 1.2000000003034652 -0.40000000008948350 -6.6398008877891979 
6000.0000000000000 9000.0000000000000 -333.33333333330000 -15420290.808196882 10809217.397825567 -8174175.5854357425 -4.4263887595040319e-05 -0.00044705630030681081 0.00027349626049896384 1.6000000005197348 -0.40000000009939729 -6.6770906129392538 
6000.0000000000000 10000.000000000000 -333.33333333330000 -15420290.808335518 10809217.397301815 -8174175.5855510477 -2.3388799663731270e-05 -0.00023767706314044114 0.00027137841430089374 1.6000000005190229 0.0000000000000000 -6.6770906129233776 
7000.0000000000000 10000.000000000000 -333.33333333330000 -15420290.807514509 10809217.397625061 -8174175.5851539234 -2.3186273738898117e-05 -0.00023711243236638002 0.00062879689406163087 1.2000000003491449 0.0000000000000000 -6.6770906132495744 
7000.0000000000000 9000.0000000000000 -333.33333333330000 -15420290.807372911 10809217.398146121 -8174175.5850380510 -4.6056930504441871e-05 -0.00044759795357645444 0.00062795549874350085 1.2000000003498557 -0.40000000010070730 -6.6770906132659826 
6000.0000000000000 9000.0000000000000 -166.66666666670000 -14267561.149318574 11961947.058219925 -4087224.9719352652 -4.9607741219582966e-05 -0.00026210529893825083 0.00019976963796543022 1.6000000005942636 -0.40000000010862852 -6.6994653827538651 
6000.0000000000000 10000.000000000000 -166.66666666670000 -14267561.149466654 11961947.057601910 -4087224.9719978492 -2.6330546825268707e-05 -0.00013766587656204591 0.00019800083877055896 1.6000000005934685 0.0000000000000000 -6.6994653827376691 
7000.0000000000000 10000.000000000000 -166.66666666670000 -14267561.148335842 11961947.057963833 -4087224.9717700998 -2.6841234792086445e-05 -0.00013708822786359052 0.00038891988501327300 1.2000000003928635 0.0000000000000000 -6.6994653830638438 
7000.0000000000000 9000.0000000000000 -166.66666666670000 -14267561.148183430 11961947.058579050 -4087224.9717070111 -5.3446208142202783e-05 -0.00026236476873583108 0.00038845662742005506 1.2000000003936846 -0.40000000011011055 -6.6994653830805726 
6000.0000000000000 9000.0000000000000 0.0000000000000000 -13691170.525917551 12538337.682384806 -2043658.2137642649 -5.2192976032212223e-05 -0.00016179453346935502 0.00015162381312677108 1.6000000006673640 -0.40000000011582959 -6.7069238618706235 
6000.0000000000000 10000.000000000000 0.0000000000000000 -13691170.526070535 12538337.681717213 -2043658.2137988973 -2.7796858057468051e-05 -8.3666706913209063e-05 0.00015010723534917729 1.6000000006664867 0.0000000000000000 -6.7069238618537703 
7000.0000000000000 10000.000000000000 0.0000000000000000 -13691170.524770368 12538337.682099778 -2043658.2136643366 -2.8687860346156457e-05 -8.3061619901577034e-05 0.00025462485243664867 1.2000000004335993 0.0000000000000000 -6.7069238621811946 
7000.0000000000000 9000.0000000000000 0.0000000000000000 -13691170.524612216 12538337.682764487 -2043658.2136292725 -5.7199055308219809e-05 -0.00016183042822621820 0.00025436095307332797 1.2000000004345301 -0.40000000011747205 -6.7069238621985825 
9000.0000000000000 4000.0000000000000 -1333.3333333329999 -22334502.489008248 3895005.7077006111 -32688198.836174347 -3.6493227297746771e-05 0.0059158101574490899 0.00022575896589936909 0.40000000002064162 -2.4000000000667812 -6.2296746458814152 
9000.0000000000000 5000.0000000000000 -1333.3333333329999 -22334502.488010589 3895005.7092980053 -32688198.833474003 -6.6684723868925833e-05 0.0024995760925108977 0.00047067110328808943 0.40000000001849850 -2.0000000000764904 -6.2296746448965550 
10000.000000000000 5000.0000000000000 -1333.3333333329999 -22334502.487955619 3895005.7093771496 -32688198.833129954 -3.5499671536403498e-05 0.0026059819543245892 0.00026589797227429815 0.0000000000000000 -2.0000000000776317 -6.2296746449316567 
10000.000000000000 4000.0000000000000 -1333.3333333329999 -22334502.488969453 3895005.7077609692 -32688198.835793782 -1.7393023139170878e-05 0.0060488545111646282 0.00015814868843468921 0.0000000000000000 -2.4000000000673034 -6.2296746459247556 
9000.0000000000000 4000.0000000000000 -1500.0000000000000 -23486510.143383924 2742998.0524507086 -36772589.613282040 -2.0057052844573818e-05 0.0062056768848617778 0.00022529522924653338 0.40000000000270169 -2.3999999999389741 -6.1029232154663182 
9000.0000000000000 5000.0000000000000 -1500.0000000000000 -23486510.142382279 2742998.0536766117 -36772589.610129535 -5.5979615994233534e-05 0.0026939429377651593 0.00048036495449570881 0.40000000000096625 -1.9999999999646967 -6.1029232144899277 
10000.000000000000 5000.0000000000000 -1500.0000000000000 -23486510.142349936 2742998.0537522514 -36772589.609763898 -2.9800406879356433e-05 0.0028067152102967024 0.00027982563088260542 0.0000000000000000 -1.9999999999656666 -6.1029232145260632 
10000.000000000000 4000.0000000000000 -1500.0000000000000 -23486510.143363137 2742998.0525089353 -36772589.612876423 -8.6195357147804502e-06 0.0063434308528503378 0.00017093943442677697 0.0000000000000000 -2.3999999999392325 -6.1029232155106321 
9000.0000000000000 4000.0000000000000 -1166.6666666670001 -21182391.718734708 5047116.4789265962 -28603442.466504917 -5.5143587532400529e-05 0.0055348303176260202 0.00021851192557498656 0.40000000003799924 -2.4000000002003605 -6.3415191283270227 
9000.0000000000000 5000.0000000000000 -1166.6666666670001 -21182391.717734382 5047116.4808960017 -28603442.464233138 -7.8773081675288968e-05 0.0022667967752153782 0.00045183337519976737 0.40000000003538932 -2.0000000001909881 -6.3415191273358555 
10000.000000000000 5000.0000000000000 -1166.6666666670001 -21182391.717654526 5047116.4809775492 -28603442.463919852 -4.2205954224340779e-05 0.0023662852383219226 0.00024756697817522431 0.0000000000000000 -2.0000000001923350 -6.3415191273700708 
10000.000000000000 4000.0000000000000 -1166.6666666670001 -21182391.718677431 5047116.4789874507 -28603442.466160327 -2.7625819888159772e-05 0.0056620384477055448 0.00014140561033888980 0.0000000000000000 -2.4000000002011959 -6.3415191283696020 
9000.0000000000000 4000.0000000000000 -1000.0000000000000 -20030177.823318526 6199330.3753857976 -24518320.471517146 -7.6735175947339234e-05 0.0050593542880296638 0.00020326427373322514 0.40000000005476977 -2.4000000003401882 -6.4384553284883657 
9000.0000000000000 5000.0000000000000 -1000.0000000000000 -20030177.822309170 6199330.3777235327 -24518320.469649784 -9.3054286281465839e-05 0.0019986830480657790 0.00042296576682502121 0.40000000005160136 -2.0000000003082796 -6.4384553274928971 
10000.000000000000 5000.0000000000000 -1000.0000000000000 -20030177.822202601 6199330.3778066440 -24518320.469374958 -5.0486978776065457e-05 0.0020904360452675603 0.00022473915558810748 0.0000000000000000 -2.0000000003098859 -6.4384553275264000 
10000.000000000000 4000.0000000000000 -1000.0000000000000 -20030177.823243514 6199330.3754454423 -24518320.471217982 -3.9872871400058909e-05 0.0051792617161647283 0.00012117140263626563 0.0000000000000000 -2.4000000003414050 -6.4384553285304085 
9000.0000000000000 4000.0000000000000 -833.33333333329995 -18877860.793518383 7351647.4063338125 -20432832.818467408 -0.00010234836570955315 0.0044863621879162683 0.00018017995637818293 0.40000000007096487 -2.4000000004867670 -6.5204819119289805 
9000.0000000000000 5000.0000000000000 -833.33333333329995 -18877860.792493861 7351647.4090309590 -20432832.816979751 -0.00011057569045528982 0.0016992848671844292 0.00038332701672016197 0.40000000006710085 -2.0000000004284462 -6.5204819109310677 
10000.000000000000 5000.0000000000000 -833.33333333329995 -18877860.792359263 7351647.4091151971 -20432832.816749234 -6.1054395196577857e-05 0.0017821073321933739 0.00019746844384874456 0.0000000000000000 -2.0000000004303904 -6.5204819109640386 
10000.000000000000 4000.0000000000000 -833.33333333329995 -18877860.793427806 7351647.4063906409 -20432832.818220899 -5.4909959182604585e-05 0.0045969828856754959 9.8298409587223919e-05 0.0000000000000000 -2.4000000004884625 -6.5204819119707151 
9000.0000000000000 4000.0000000000000 -666.66666666670005 -17725440.620093279 8504067.5810282100 -16346979.474614127 -0.00013353173091907398 0.0038132692059896760 0.00014996181298363039 0.40000000008661279 -2.4000000006406297 -6.5875975440939181 
9000.0000000000000 5000.0000000000000 -666.66666666670005 -17725440.619047616 8504067.5840692632 -16346979.473480739 -0.00013265889470994699 0.0013736869574679103 0.00033233512646426339 0.40000000008185677 -2.0000000005515504 -6.5875975430952556 
10000.000000000000 5000.0000000000000 -666.66666666670005 -17725440.618884388 8504067.5841546748 -16346979.473298531 -7.4770337225429646e-05 0.0014458789645878094 0.00016591925760651202 0.0000000000000000 -2.0000000005539373 -6.5875975431278793 
10000.000000000000 4000.0000000000000 -666.66666666670005 -17725440.619991012 8504067.5810808800 -16346979.474424794 -7.3774653467378735e-05 0.0039118589810249703 7.4053882738466217e-05 0.0000000000000000 -2.4000000006429336 -6.5875975441355550 
9000.0000000000000 4000.0000000000000 -500.00000000000000 -16572917.293799771 9656590.9087317958 -12260760.407208148 -0.00017242393951010974 0.0030381403301963520 0.00011390203743940853 0.40000000010175851 -2.4000000008023243 -6.6398008903086838 
9000.0000000000000 5000.0000000000000 -500.00000000000000 -16572917.292727206 9656590.9120926633 -12260760.406403279 -0.00016093649603667943 0.0010282960539566776 0.00026956283389291912 0.40000000009584025 -2.0000000006776237 -6.6398008893107834 
10000.000000000000 5000.0000000000000 -500.00000000000000 -16572917.292535540 9656590.9121800009 -12260760.406271027 -9.2655816294373269e-05 0.0010875043234874824 0.00013033143215755694 0.0000000000000000 -2.0000000006805880 -6.6398008893432472 
10000.000000000000 4000.0000000000000 -500.00000000000000 -16572917.293691508 9656590.9087795988 -12260760.407076810 -9.7785194407350434e-05 0.0031209391060543464 5.0079989859249281e-05 0.0000000000000000 -2.4000000008054125 -6.6398008903503838 
9000.0000000000000 4000.0000000000000 -333.33333333330000 -15420290.805395138 10809217.398710029 -8174175.5835039392 -0.00022187001199450179 0.0021599919192261717 7.3921818499071159e-05 0.40000000011646264 -2.4000000009724101 -6.6770906157791590 
9000.0000000000000 5000.0000000000000 -333.33333333330000 -15420290.804290086 10809217.402355427 -8174175.5830017049 -0.00019737877985696330 0.00067110414856643818 0.00019476158343636118 0.40000000010902159 -2.0000000008066521 -6.6770906147833591 
10000.000000000000 5000.0000000000000 -333.33333333330000 -15420290.804071054 10809217.402446322 -8174175.5829184819 -0.00011588564280112489 0.00071422984518508331 9.1024562752928676e-05 0.0000000000000000 -2.0000000008103616 -6.6770906148158309 
10000.000000000000 4000.0000000000000 -333.33333333330000 -15420290.805288330 10809217.398753366 -8174175.5834269850 -0.00012850144524658607 0.0022219734857125751 2.8302772785341210e-05 0.0000000000000000 -2.4000000009765041 -6.6770906158210259 
9000.0000000000000 4000.0000000000000 -166.66666666670000 -14267561.145636329 11961947.060232673 -4087224.9707558551 -0.00028548376584145959 0.0011792902022305604 3.2510249264287710e-05 0.40000000013079806 -2.4000000011514366 -6.6994653855917878 
9000.0000000000000 5000.0000000000000 -166.66666666670000 -14267561.144493490 11961947.064112578 -4087224.9705309225 -0.00024429859393340192 0.00031195262550983268 0.00010786299454133132 0.40000000012136983 -2.0000000009385608 -6.6994653845992298 
10000.000000000000 5000.0000000000000 -166.66666666670000 -14267561.144249182 11961947.064209633 -4087224.9704931681 -0.00014575564176856986 0.00033506518308219405 4.8343308487443565e-05 0.0000000000000000 -2.0000000009432206 -6.6994653846318633 
10000.000000000000 4000.0000000000000 -166.66666666670000 -14267561.145539852 11961947.060273651 -4087224.9707246330 -0.00016759029739635197 0.0012139351828087193 1.0700518622412508e-05 0.0000000000000000 -2.4000000011568026 -6.6994653856338440 
9000.0000000000000 4000.0000000000000 0.0000000000000000 -13691170.521762919 12538337.685039164 -2043658.2130274072 -0.00032133313354155849 0.00066347624196019057 1.1788497728695601e-05 0.40000000014484621 -2.4000000013399081 -6.7069238647135743 
9000.0000000000000 5000.0000000000000 0.0000000000000000 -13691170.520599917 12538337.689021714 -2043658.2129349411 -0.00027068833933592280 0.00013325033546536733 6.1390288888968743e-05 0.40000000013285059 -2.0000000010732033 -6.7069238637251942 
10000.000000000000 5000.0000000000000 0.0000000000000000 -13691170.520343617 12538337.689122630 -2043658.2129186718 -0.00016251902435497785 0.00014526109602800103 2.6200437010256040e-05 0.0000000000000000 -2.0000000010790551 -6.7069238637581092 
10000.000000000000 4000.0000000000000 0.0000000000000000 -13691170.521673951 12538337.685079768 -2043658.2130161666 -0.00018943710655834861 0.00068262124166446883 3.1814835214592030e-06 0.0000000000000000 -2.4000000013468510 -6.7069238647557468 
3000.0000000000000 2000.0000000000000 -1333.3333333329999 -22334502.489112079 3895005.7059227712 -32688198.843576908 7.0328145833931080e-05 0.0093975339216254925 -0.0084129594172513873 2.8000000000268921 -3.2000000000038038 -6.2296746451812846 
3000.0000000000000 3000.0000000000000 -1333.3333333329999 -22334502.487000521 3895005.7078388273 -32688198.835916515 6.1865134170620958e-06 0.0085616828645946868 -0.0081609869443456714 2.8000000000290792 -2.8000000000343230 -6.2296746438765087 
4000.0000000000000 3000.0000000000000 -1333.3333333329999 -22334502.488910373 3895005.7062536627 -32688198.840813905 -1.0688743475867066e-05 0.0088387908041518120 -0.0050796035270956547 2.4000000000567137 -2.8000000000340139 -6.2296746450154359 
4000.0000000000000 2000.0000000000000 -1333.3333333329999 -22334502.491006270 3895005.7043277649 -32688198.848738294 2.9395285600760027e-05 0.0094946936828732426 -0.0052133729965571866 2.4000000000558939 -3.2000000000005957 -6.2296746463484460 
3000.0000000000000 2000.0000000000000 -1500.0000000000000 -23486510.144206762 2742998.0522258347 -36772589.620383106 9.6435881336713849e-05 0.0095813121885213459 -0.0086709554052749639 2.7999999999098502 -3.1999999999014581 -6.1029232147300325 
3000.0000000000000 3000.0000000000000 -1500.0000000000000 -23486510.142159428 2742998.0533434772 -36772589.612236664 3.8151714337024199e-05 0.0088388380713674258 -0.0084333883939316286 2.7999999999132013 -2.7999999999101095 -6.1029232134575970 
4000.0000000000000 3000.0000000000000 -1500.0000000000000 -23486510.143486470 2742998.0517791859 -36772589.617625728 1.4797492016207376e-05 0.0091145105539088885 -0.0053484743767280261 2.3999999999413908 -2.7999999999086302 -6.1029232145785404 
4000.0000000000000 2000.0000000000000 -1500.0000000000000 -23486510.145505063 2742998.0506566186 -36772589.626079448 5.0016517931349274e-05 0.0096599449786290235 -0.0054751336850008729 2.3999999999397073 -3.1999999998972939 -6.1029232158771638 
3000.0000000000000 2000.0000000000000 -1166.6666666670001 -21182391.718179792 5047116.4754717406 -28603442.473966546 3.9804459603782103e-05 0.0090718239536157850 -0.0080267060474992144 2.8000000001518330 -3.2000000001147915 -6.3415191276623677 
3000.0000000000000 3000.0000000000000 -1166.6666666670001 -21182391.715998001 5047116.4782836428 -28603442.466863014 -2.9595247862349129e-05 0.0081516906188916945 -0.0077655478771967469 2.8000000001526746 -2.8000000001666980 -6.3415191263285315 
4000.0000000000000 3000.0000000000000 -1166.6666666670001 -21182391.718533263 5047116.4766739029 -28603442.471250005 -3.8301621811455670e-05 0.0084260113479356288 -0.0047335796955718188 2.4000000001770787 -2.8000000001676884 -6.3415191274826208 
4000.0000000000000 2000.0000000000000 -1166.6666666670001 -21182391.720715299 5047116.4738458907 -28603442.478568189 6.3126310685938471e-06 0.0091837762982543876 -0.0048717603182216462 2.4000000001772186 -3.2000000001127029 -6.3415191288463566 
3000.0000000000000 2000.0000000000000 -1000.0000000000000 -20030177.822184004 6199330.3701104829 -24518320.478784386 4.5416240337453129e-06 0.0085833586598874998 -0.0074986051106106901 2.8000000002855461 -3.2000000002355913 -6.4384553278571266 
3000.0000000000000 3000.0000000000000 -1000.0000000000000 -20030177.819926076 6199330.3739281772 -24518320.472321872 -6.9506044815476696e-05 0.0075957720924671726 -0.0072344587191565972 2.8000000002848533 -2.8000000003081444 -6.4384553264979862 
4000.0000000000000 3000.0000000000000 -1000.0000000000000 -20030177.823131435 6199330.3722903114 -24518320.476176590 -6.8165788748772034e-05 0.0078624402815204598 -0.0043087282424766520 2.4000000003028572 -2.8000000003105687 -6.4384553276643270 
4000.0000000000000 2000.0000000000000 -1000.0000000000000 -20030177.825409278 6199330.3684483143 -24518320.482800614 -1.9356271938581092e-05 0.0087055338312807280 -0.0044481598633606453 2.4000000003040545 -3.2000000002347955 -6.4384553290545901 
3000.0000000000000 2000.0000000000000 -833.33333333329995 -18877860.791905008 7351647.3990735468 -20432832.825275946 -3.5875344534296795e-05 0.0079080094043619993 -0.0068135321667948598 2.8000000004290011 -3.2000000003675249 -6.5204819113276349 
3000.0000000000000 3000.0000000000000 -833.33333333329995 -18877860.789564889 7351647.4040212091 -20432832.819552042 -0.00011415882033739376 0.0068797324017037427 -0.0065537723229162357 2.8000000004265684 -2.8000000004596508 -6.5204819099474998 
4000.0000000000000 3000.0000000000000 -833.33333333329995 -18877860.793486990 7351647.4023516318 -20432832.822849691 -0.00010059672934620330 0.0071329913926842636 -0.0038040260214388011 2.4000000004344346 -2.8000000004636694 -6.5204819111230723 
4000.0000000000000 2000.0000000000000 -833.33333333329995 -18877860.795872141 7351647.3973684870 -20432832.828681476 -4.7804310874376404e-05 0.0080348635857558585 -0.0039409396216573966 2.4000000004367981 -3.2000000003682061 -6.5204819125350912 
3000.0000000000000 2000.0000000000000 -666.66666666670005 -17725440.618126437 8504067.5715958253 -16346979.480688788 -8.2062009937528788e-05 0.0070178064370600762 -0.0059545695658540718 2.8000000005832786 -3.2000000005120883 -6.5875975435173970 
3000.0000000000000 3000.0000000000000 -666.66666666670005 -17725440.615697928 8504067.5778136030 -16346979.475815006 -0.00016470970844361884 0.0059883120675413952 -0.0057080839224365196 2.8000000005788648 -2.8000000006222932 -6.5875975421211965 
4000.0000000000000 3000.0000000000000 -666.66666666670005 -17725440.620385032 8504067.5761086047 -16346979.478527931 -0.00013624470107730639 0.0062210731944572269 -0.0032191325390992552 2.4000000005722097 -2.8000000006281098 -6.5875975433028851 
4000.0000000000000 2000.0000000000000 -666.66666666670005 -17725440.622892179 8504067.5698391777 -16346979.483460177 -7.9360870468985886e-05 0.0071426744511646984 -0.0033488942235706015 2.4000000005758717 -3.2000000005144460 -6.5875975447312660 
3000.0000000000000 2000.0000000000000 -500.00000000000000 -16572917.291632947 9656590.8969157804 -12260760.412263490 -0.00013501576041423559 0.0058801927552759115 -0.0049027439086276907 2.8000000007495953 -3.2000000006709786 -6.6398008897502825 
3000.0000000000000 3000.0000000000000 -500.00000000000000 -16572917.289109647 9656590.9045617841 -12260760.408365333 -0.00022325575442476328 0.0049052244237850458 -0.0046806235983972754 2.8000000007428798 -2.8000000007972279 -6.6398008883436272 
4000.0000000000000 3000.0000000000000 -500.00000000000000 -16572917.294611078 9656590.9028176200 -12260760.410462499 -0.00017630919979589558 0.0051082687188961327 -0.0025544748805786492 2.4000000007165934 -2.8000000008051398 -6.6398008895282050 
4000.0000000000000 2000.0000000000000 -500.00000000000000 -16572917.297260107 9656590.8950952925 -12260760.414379904 -0.00011460049594768932 0.0059950274002903720 -0.0026710952793327120 2.4000000007217319 -3.2000000006752467 -6.6398008909668951 
3000.0000000000000 2000.0000000000000 -333.33333333330000 -15420290.803213263 10809217.384273402 -8174175.5872443561 -0.00019644327709552546 0.0044573003486381123 -0.0036366410358031022 2.8000000009293307 -3.2000000008461318 -6.6770906152304681 
3000.0000000000000 3000.0000000000000 -333.33333333330000 -15420290.800588757 10809217.393525632 -8174175.5844615400 -0.00029342855997048235 0.0036134167254248473 -0.0034534528037268334 2.8000000009198418 -2.8000000009856993 -6.6770906138197139 
4000.0000000000000 3000.0000000000000 -333.33333333330000 -15420290.806953983 10809217.391739078 -8174175.5859072683 -0.00022284050346526489 0.0037740026192502932 -0.0018111973873887229 2.4000000008680051 -2.8000000009961612 -6.6770906150038423 
4000.0000000000000 2000.0000000000000 -333.33333333330000 -15420290.809772797 10809217.382371228 -8174175.5886874432 -0.00015453369761656105 0.0045520670612946524 -0.0019065139077427474 2.4000000008748859 -3.2000000008526106 -6.6770906164461081 
3000.0000000000000 2000.0000000000000 -166.66666666670000 -14267561.143658804 11961947.042912979 -4087224.9728753930 -0.00026934636143175156 0.0027049136807264246 -0.0021319210668389456 2.8000000011240789 -3.2000000010397676 -6.6994653850426138 
3000.0000000000000 3000.0000000000000 -166.66666666670000 -14267561.140927127 11961947.053970836 -4087224.9713624190 -0.00038128804178668861 0.0020955218254838791 -0.0020080166013120761 2.8000000011110551 -2.8000000011890269 -6.6994653836349229 
4000.0000000000000 3000.0000000000000 -166.66666666670000 -14267561.148204423 11961947.052140590 -4087224.9721140335 -0.00027915294786462534 0.0021949921259823086 -0.00099112149973915324 2.4000000010268763 -2.8000000012027582 -6.6994653848151255 
4000.0000000000000 2000.0000000000000 -166.66666666670000 -14267561.151232902 11961947.040902633 -4087224.9736277405 -0.00020091567354306526 0.0027665386046846754 -0.0010534263967530452 2.4000000010359028 -3.2000000010488785 -6.6994653862535305 
3000.0000000000000 2000.0000000000000 0.0000000000000000 -13691170.519946894 12538337.666209185 -2043658.2142587123 -0.00030914619706878880 0.0017403803785721521 -0.0013166718089811934 2.8000000013357176 -3.2000000012544394 -6.7069238641518787 
3000.0000000000000 3000.0000000000000 0.0000000000000000 -13691170.517160226 12538337.678222477 -2043658.2134211343 -0.00043058280433226116 0.0012778774500527982 -0.0012284056159638913 2.8000000013178594 -2.8000000014085922 -6.7069238627552616 
4000.0000000000000 3000.0000000000000 0.0000000000000000 -13691170.524905378 12538337.676370418 -2043658.2138139703 -0.00031026232266333562 0.0013412001335246396 -0.00056215657693639879 2.4000000011936464 -2.8000000014267292 -6.7069238639279050 
4000.0000000000000 2000.0000000000000 0.0000000000000000 -13691170.528050454 12538337.664136823 -2043658.2146612881 -0.00022599626356812101 0.0017817052553733628 -0.00060447373200663880 2.4000000012054303 -3.2000000012668548 -6.7069238653542573 
5000.0000000000000 8000.0000000000000 -1333.3333333329999 -22334502.487601902 3895005.7094645537 -32688198.836012829 -2.5809135560196592e-05 -0.0016721718354882230 -0.0019386412703433040 2.0000000000628337 -0.80000000002672533 -6.2296746424724407 
5000.0000000000000 9000.0000000000000 -1333.3333333329999 -22334502.487824555 3895005.7091167020 -32688198.836756192 -1.7938578314686243e-05 -0.0010410640411454780 -0.0019273517097350068 2.0000000000619758 -0.40000000001181896 -6.2296746423982308 
6000.0000000000000 8000.0000000000000 -1333.3333333329999 -22334502.488320120 3895005.7092462792 -32688198.836253066 -1.0187643644296531e-05 -0.0016755249334391101 0.00012777097653008133 1.6000000000592700 -0.80000000002722005 -6.2296746430451071 
5000.0000000000000 8000.0000000000000 -1500.0000000000000 -23486510.141760841 2742998.0540265772 -36772589.611756504 -1.5673360533856622e-05 -0.0017199650377337828 -0.0021138974554421163 1.9999999999645177 -0.79999999998850280 -6.1029232120513761 
5000.0000000000000 9000.0000000000000 -1500.0000000000000 -23486510.141956791 2742998.0537828673 -36772589.612489283 -1.3125501917886585e-05 -0.0010773943256871664 -0.0021007517262733059 1.9999999999638796 -0.39999999999366342 -6.1029232119743160 
6000.0000000000000 8000.0000000000000 -1500.0000000000000 -23486510.142390162 2742998.0537679303 -36772589.612235822 1.1357809246588837e-06 -0.0017221653724437079 6.1337016070900835e-05 1.5999999999816796 -0.79999999998868132 -6.1029232126246589 
5000.0000000000000 8000.0000000000000 -1166.6666666670001 -21182391.717610441 5047116.4808106506 -28603442.467409603 -3.6282715310228553e-05 -0.0016016534474429171 -0.0017352065069293188 2.0000000001632583 -0.80000000006363170 -6.3415191249283671 
5000.0000000000000 9000.0000000000000 -1166.6666666670001 -21182391.717858158 5047116.4803418862 -28603442.468140095 -2.2935454786008704e-05 -0.00099051717991719876 -0.0017258450154815478 2.0000000001621738 -0.40000000002912806 -6.3415191248568270 
6000.0000000000000 8000.0000000000000 -1166.6666666670001 -21182391.718393330 5047116.4806281645 -28603442.467456844 -2.1831663240894688e-05 -0.0016060837074727773 0.00019165414586885658 1.6000000001369641 -0.80000000006444982 -6.3415191254996621 
5000.0000000000000 8000.0000000000000 -1000.0000000000000 -20030177.822557759 6199330.3772987369 -24518320.473191604 -4.7119054277154684e-05 -0.0015045199928167812 -0.0015076566183065011 2.0000000002658092 -0.80000000009898919 -6.4384553251028560 
5000.0000000000000 9000.0000000000000 -1000.0000000000000 -20030177.822829198 6199330.3766900739 -24518320.473885968 -2.8171173719777843e-05 -0.00092377261178197079 -0.0015002674916766631 2.0000000002644884 -0.40000000004545816 -6.4384553250336989 
6000.0000000000000 8000.0000000000000 -1000.0000000000000 -20030177.823376417 6199330.3771482185 -24518320.473092459 -3.3682060332223450e-05 -0.0015098779691535683 0.00024818623563149019 1.6000000002146295 -0.80000000010013550 -6.4384553256722707 
5000.0000000000000 8000.0000000000000 -833.33333333329995 -18877860.793219037 7351647.4081586571 -20432832.820616558 -5.8323083650735539e-05 -0.0013764101406217610 -0.0012610262155696847 2.0000000003704943 -0.80000000013254902 -6.5204819085579109 
5000.0000000000000 9000.0000000000000 -833.33333333329995 -18877860.793513138 7351647.4073888492 -20432832.821251817 -3.3695286543408035e-05 -0.00083863475096868773 -0.0012556103146765126 2.0000000003689276 -0.40000000006066833 -6.5204819084907308 
6000.0000000000000 8000.0000000000000 -833.33333333329995 -18877860.794039916 7351647.4080370087 -20432832.820418201 -4.5593811769084070e-05 -0.0013824540053590337 0.00029192324009390469 1.6000000002921211 -0.80000000013402317 -6.5204819091251727 
5000.0000000000000 8000.0000000000000 -666.66666666670005 -17725440.620370287 8504067.5826191977 -16346979.476944359 -6.9877314283478239e-05 -0.0012124881033901583 -0.0010012442377481431 2.0000000004773049 -0.80000000016404038 -6.5875975407370309 
5000.0000000000000 9000.0000000000000 -666.66666666670005 -17725440.620686278 8504067.5816646833 -16346979.477497905 -3.9547919707052208e-05 -0.00073269531617887323 -0.00099772895381653555 2.0000000004754823 -0.40000000007460734 -6.5875975406713119 
6000.0000000000000 8000.0000000000000 -666.66666666670005 -17725440.621155176 8504067.5825241543 -16346979.476693917 -5.7385682008059416e-05 -0.0012188377053640319 0.00031679207188214687 1.6000000003692687 -0.80000000016583783 -6.5875975413021015 
5000.0000000000000 8000.0000000000000 -500.00000000000000 -16572917.294785783 9656590.9099105280 -12260760.409428092 -8.1733546876382149e-05 -0.0010074291890142778 -0.00073506455064705975 2.0000000005862195 -0.80000000019316808 -6.6398008869641396 
5000.0000000000000 9000.0000000000000 -500.00000000000000 -16572917.295123139 9656590.9087453894 -12260760.409877768 -4.5761558139243852e-05 -0.00060332128119586215 -0.00073331333085729054 2.0000000005841305 -0.40000000008711034 -6.6398008868992466 
6000.0000000000000 8000.0000000000000 -500.00000000000000 -16572917.295491830 9656590.9098408166 -12260760.409171747 -6.8829211683199684e-05 -0.0010135290620694646 0.00031603231110003180 1.6000000004458721 -0.80000000019527573 -6.6398008875271932 
5000.0000000000000 8000.0000000000000 -333.33333333330000 -15420290.807241241 10809217.399260972 -8174175.5853250781 -9.3805555905429302e-05 -0.00075542213355847651 -0.00046994825092521711 2.0000000006971939 -0.80000000021960471 -6.6770906124435214 
5000.0000000000000 9000.0000000000000 -333.33333333330000 -15420290.807599649 10809217.397856932 -8174175.5856491644 -5.2355745215945243e-05 -0.00044767302360712807 -0.00046972942482331899 2.0000000006948295 -0.40000000009799830 -6.6770906123787119 
6000.0000000000000 8000.0000000000000 -333.33333333330000 -15420290.807821048 10809217.399216481 -8174175.5851070499 -7.9633368605299917e-05 -0.00076049651354447283 0.00028206792843788489 1.6000000005216852 -0.80000000022200091 -6.6770906130049363 
5000.0000000000000 8000.0000000000000 -166.66666666670000 -14267561.148513053 11961947.059897916 -4087224.9718930051 -0.00010596278026756144 -0.00045017007326418731 -0.00021364595387992645 2.0000000008101657 -0.80000000024299056 -6.6994653822599997 
5000.0000000000000 9000.0000000000000 -166.66666666670000 -14267561.148892358 11961947.058224281 -4087224.9720704909 -5.9340232230389376e-05 -0.00026270292581134335 -0.00021460490626250647 2.0000000008075181 -0.40000000010707432 -6.6994653821944059 
6000.0000000000000 8000.0000000000000 -166.66666666670000 -14267561.148914501 11961947.059879977 -4087224.9717543237 -8.9422420761876213e-05 -0.00045314379765520679 0.00020636373391666086 1.6000000005964026 -0.80000000024563866 -6.6994653828203274 
5000.0000000000000 8000.0000000000000 0.0000000000000000 -13691170.525200082 12538337.684191445 -2043658.2137516886 -0.00011204325140823101 -0.00028341389156264396 -8.8670186075784246e-05 2.0000000009250529 -0.80000000026292784 -6.7069238613789048 
5000.0000000000000 9000.0000000000000 0.0000000000000000 -13691170.525589816 12538337.682375023 -2043658.2138507478 -6.2931194563670552e-05 -0.00016249196095802378 -9.0111947238299251e-05 2.0000000009221170 -0.40000000011412323 -6.7069238613115587 
6000.0000000000000 8000.0000000000000 0.0000000000000000 -13691170.525498722 12538337.684187304 -2043658.2136624970 -9.4010187262567841e-05 -0.00028502598966227320 0.00015693981967531112 1.6000000006696373 -0.80000000026576690 -6.7069238619388605 
8000.0000000000000 1000.0000000000000 -1333.3333333329999 -22334502.494864658 3895005.7022656780 -32688198.857794799 7.1985325873599314e-05 0.0063729209019977948 -1.2379945427008922e-05 0.80000000003219285 -3.5999999999915606 -6.2296746493585795 
8000.0000000000000 0.0000000000000000 -1333.3333333329999 -22334502.495652415 3895005.7018610546 -32688198.860853784 4.6844278871933284e-05 0.0037166655427004758 7.0392943854396034e-05 0.80000000003019489 -4.0000000000000000 -6.2296746497720674 
7000.0000000000000 7.4168059059999997e-30 -1333.3333333329999 -22334502.495782357 3895005.7016711123 -32688198.861328099 -1.4989428293476583e-06 0.0038286643491791013 0.0010637521588394419 1.2000000000485591 -4.0000000000000000 -6.2296746495101871 
7000.0000000000000 1000.0000000000000 -1333.3333333329999 -22334502.494980805 3895005.7020826628 -32688198.858377468 -3.5266043186607510e-06 0.0064610888669647884 0.0010623845061169185 1.2000000000484972 -3.5999999999939267 -6.2296746490844601 
8000.0000000000000 1000.0000000000000 -1500.0000000000000 -23486510.149028376 2742998.0491699246 -36772589.636302471 8.2274630828798898e-05 0.0064469254485385302 1.1864456449674594e-05 0.79999999999253402 -3.5999999999323298 -6.1029232188509246 
8000.0000000000000 0.0000000000000000 -1500.0000000000000 -23486510.149780441 2742998.0490359063 -36772589.639465258 5.0960407707543521e-05 0.0037414195668099004 0.00010717596056349896 0.79999999999044824 -4.0000000000000000 -6.1029232192497629 
7000.0000000000000 2.1239035100000000e-29 -1500.0000000000000 -23486510.149867855 2742998.0488672466 -36772589.639840104 1.5159182027577996e-06 0.0038605115105035492 0.0010699153371930964 1.1999999999892077 -4.0000000000000000 -6.1029232189868887 
7000.0000000000000 1000.0000000000000 -1500.0000000000000 -23486510.149100374 2742998.0490072086 -36772589.636785686 2.3683353635415703e-06 0.0065463673109471890 0.0010691527159390609 1.1999999999892383 -3.5999999999349686 -6.1029232185748015 
8000.0000000000000 1000.0000000000000 -1166.6666666670001 -21182391.724821445 5047116.4710883219 -28603442.486517407 5.9396083465348956e-05 0.0062055116717797043 -3.7844335106226533e-05 0.80000000007127869 -3.6000000000565460 -6.3415191318874289 
8000.0000000000000 0.0000000000000000 -1166.6666666670001 -21182391.725647017 5047116.4703647457 -28603442.489436895 4.1622560281919373e-05 0.0036386048747484184 3.2678211731992400e-05 0.80000000006940264 -4.0000000000000000 -6.3415191323147573 
7000.0000000000000 2.3261800339999999e-29 -1166.6666666670001 -21182391.725831967 5047116.4701591581 -28603442.489980683 -4.6558762811224983e-06 0.0037430173208925699 0.0010457168833823548 1.2000000001071605 -4.0000000000000000 -6.3415191320542883 
7000.0000000000000 1000.0000000000000 -1166.6666666670001 -21182391.724994689 5047116.4708907520 -28603442.487168111 -9.7330889674669163e-06 0.0062827243070079138 0.0010437417136356462 1.2000000001070015 -3.6000000000585790 -6.3415191316158337 
8000.0000000000000 1000.0000000000000 -1000.0000000000000 -20030177.829650991 6199330.3648625743 -24518320.489680778 4.4358518358908834e-05 0.0059281114919699906 -6.4271096542831748e-05 0.80000000010974037 -3.6000000001281474 -6.4384553321213378 
8000.0000000000000 0.0000000000000000 -1000.0000000000000 -20030177.830516648 6199330.3637622986 -24518320.492416564 3.5196440684179476e-05 0.0034967190245000072 -5.4937793240683418e-06 0.80000000010802730 -4.0000000000000000 -6.4384553325614311 
7000.0000000000000 -2.4273182999999999e-29 -1000.0000000000000 -20030177.830769747 6199330.3635468436 -24518320.492998850 -7.9177723894267677e-06 0.0035930221160650070 0.0010112458639314616 1.2000000001648208 -4.0000000000000000 -6.4384553323026674 
7000.0000000000000 1000.0000000000000 -1000.0000000000000 -20030177.829894874 6199330.3646564903 -24518320.490366362 -1.6196939717271194e-05 0.0059948613262895654 0.0010087033487395246 1.2000000001645625 -3.6000000001297789 -6.4384553318526665 
8000.0000000000000 1000.0000000000000 -833.33333333329995 -18877860.800108619 7351647.3928066231 -20432832.834508296 2.6787229498805972e-05 0.0055208781575482799 -9.0837476086427169e-05 0.80000000014756090 -3.6000000002073618 -6.5204819156223266 
8000.0000000000000 0.0000000000000000 -833.33333333329995 -18877860.801017020 7351647.3912603576 -20432832.837006491 2.7544549854027923e-05 0.0032782025756302245 -4.3084060089262650e-05 0.80000000014605688 -4.0000000000000000 -6.5204819160737664 
7000.0000000000000 -4.5191771299999999e-29 -833.33333333329995 -18877860.801350873 7351647.3910413841 -20432832.837594181 -1.1233219031519337e-05 0.0033658732628282484 0.00095499701643207528 1.2000000002213280 -4.0000000000000000 -6.5204819158168688 
7000.0000000000000 1000.0000000000000 -833.33333333329995 -18877860.800436065 7351647.3925988711 -20432832.835192796 -2.2848255521246071e-05 0.0055778657844071039 0.00095197291440937313 1.2000000002209703 -3.6000000002085204 -6.5204819153568252 
8000.0000000000000 1000.0000000000000 -666.66666666670005 -17725440.626949500 8504067.5641346928 -16346979.488225684 6.7324261515674882e-06 0.0049600152637522725 -0.00011570674180548247 0.80000000018477713 -3.6000000002953456 -6.5875975478337461 
8000.0000000000000 0.0000000000000000 -666.66666666670005 -17725440.627904039 8504067.5620588418 -16346979.490421329 1.8823790230604080e-05 0.0029674013039540730 -7.8091820712994657e-05 0.80000000018352502 -4.0000000000000000 -6.5875975482947018 
7000.0000000000000 0.0000000000000000 -666.66666666670005 -17725440.628328837 8504067.5618437082 -16346979.490978163 -1.4545617743580392e-05 0.0030458614937415138 0.00087079149936391046 1.2000000002764419 -4.0000000000000000 -6.5875975480396765 
7000.0000000000000 1000.0000000000000 -666.66666666670005 -17725440.627370764 8504067.5639337059 -16346979.488869004 -2.9596306653533203e-05 0.0050080936036708719 0.00086743401350464059 1.2000000002759867 -3.6000000002959576 -6.5875975475714776 
8000.0000000000000 1000.0000000000000 -500.00000000000000 -16572917.300925789 9656590.8880591169 -12260760.418051770 -1.5492340220122813e-05 0.0042167431027041787 -0.00013538805916612590 0.80000000022151141 -3.6000000003934534 -6.6398008940792232 
8000.0000000000000 0.0000000000000000 -500.00000000000000 -16572917.301931245 9656590.8853520770 -12260760.419867547 9.5727220247154465e-06 0.0025450129115832335 -0.00010704170584135915 0.80000000022053663 -4.0000000000000000 -6.6398008945473466 
7000.0000000000000 -1.8204887200000001e-29 -500.00000000000000 -16572917.302451657 9656590.8851496596 -12260760.420352856 -1.7785067478782422e-05 0.0026134605054163994 0.00075152859387277594 1.2000000003298847 -4.0000000000000000 -6.6398008942940248 
7000.0000000000000 1000.0000000000000 -500.00000000000000 -16572917.301445026 9656590.8878760729 -12260760.418608405 -3.6321047022538315e-05 0.0042567706860606328 0.00074808326653114012 1.2000000003293370 -3.6000000003934640 -6.6398008938200102 
8000.0000000000000 1000.0000000000000 -333.33333333330000 -15420290.812789734 10809217.373786505 -8174175.5912096696 -3.9082485516875486e-05 0.0032560531084046777 -0.00014363386589305590 0.80000000025803242 -3.6000000005032819 -6.6770906195626001 
8000.0000000000000 0.0000000000000000 -333.33333333330000 -15420290.813853240 10809217.370323543 -8174175.5925548617 1.1052773242182128e-06 0.0019870498697966165 -0.00012411110685153477 0.80000000025730345 -4.0000000000000000 -6.6770906200349103 
7000.0000000000000 0.0000000000000000 -333.33333333330000 -15420290.814463120 10809217.370144937 -8174175.5929218419 -2.0860296965612267e-05 0.0020440578532177466 0.00058916518057883747 1.2000000003813307 -4.0000000000000000 -6.6770906197829190 
7000.0000000000000 1000.0000000000000 -333.33333333330000 -15420290.813399106 10809217.373637222 -8174175.5916271592 -4.2856784486571032e-05 0.0032885969196137770 0.00058600666414745635 1.2000000003806990 -3.6000000005026851 -6.6770906193059654 
8000.0000000000000 1000.0000000000000 -166.66666666670000 -14267561.153292917 11961947.030517684 -4087224.9749236610 -6.2381740953729915e-05 0.0020349656349324869 -0.00012959468706577094 0.80000000029485563 -3.6000000006267423 -6.6994653893680995 
8000.0000000000000 0.0000000000000000 -166.66666666670000 -14267561.154425627 11961947.026143707 -4087224.9756935453 -3.7850153250569140e-06 0.0012633430867387873 -0.00011970234896132720 0.80000000029420659 -4.0000000000000000 -6.6994653898408405 
7000.0000000000000 -1.9553397400000001e-29 -166.66666666670000 -14267561.155099241 11961947.026002925 -4087224.9758874341 -2.3652117559762445e-05 0.0013057343919063769 0.00037471893330740197 1.2000000004303877 -4.0000000000000000 -6.6994653895895766 
7000.0000000000000 1000.0000000000000 -166.66666666670000 -14267561.153962657 11961947.030425753 -4087224.9751411239 -4.8964905698654042e-05 0.0020594865722377699 0.00037238105294405005 1.2000000004296842 -3.6000000006256490 -6.6994653891131879 
8000.0000000000000 1000.0000000000000 0.0000000000000000 -13691170.529548172 12538337.652783995 -2043658.2153225683 -7.3684510415979754e-05 0.0013533843553262422 -0.00011528850193054312 0.80000000033293261 -3.6000000007661495 -6.7069238684603185 
8000.0000000000000 0.0000000000000000 0.0000000000000000 -13691170.530718897 12538337.647911415 -2043658.2157768281 -4.8656488505351338e-06 0.00085583942383482938 -0.00011064006843072763 0.80000000033189966 -4.0000000000000000 -6.7069238689288015 
7000.0000000000000 0.0000000000000000 0.0000000000000000 -13691170.531414811 12538337.647793449 -2043658.2158693657 -2.4960172488685442e-05 0.00088981027727326185 0.00025329656591749377 1.2000000004765659 -4.0000000000000000 -6.7069238686773920 
7000.0000000000000 1000.0000000000000 0.0000000000000000 -13691170.530237135 12538337.652727844 -2043658.2154236818 -5.1877241029676678e-05 0.0013735464610849543 0.00025152404533196901 1.2000000004758020 -3.6000000007649282 -6.7069238682058465 
2000.0000000000000 1000.0000000000000 -1333.3333333329999 -22334502.489228185 3895005.7067631288 -32688198.842967041 2.0504695871411691e-05 0.0063772236905119866 -0.0091346197131655042 3.1999999999953923 -3.5999999999934578 -6.2296746449738318 
2000.0000000000000 -7.4168059100000006e-30 -1333.3333333329999 -22334502.490002323 3895005.7063516499 -32688198.845874876 1.3869289706769871e-05 0.0037797366157296245 -0.0091614475655313159 3.1999999999949162 -4.0000000000000000 -6.2296746453932164 
1000.0000000000000 1.8542014770000000e-30 -1333.3333333329999 -22334502.488770008 3895005.7082065754 -32688198.838733226 -1.6943172272355730e-05 0.0036423233216152928 -0.0062362404163549112 3.5999999999884063 -4.0000000000000000 -6.2296746443706033 
1000.0000000000000 1000.0000000000000 -1333.3333333329999 -22334502.488024205 3895005.7086158856 -32688198.835783590 -2.6358082338947486e-05 0.0062389505885272608 -0.0061283225174156549 3.5999999999874719 -3.5999999999922494 -6.2296746439672921 
2000.0000000000000 1000.0000000000000 -1500.0000000000000 -23486510.145012129 2742998.0536720641 -36772589.619590878 2.8869639170951637e-05 0.0064588623922626782 -0.0093035140698558543 3.1999999998982109 -3.5999999999356449 -6.1029232145238286 
2000.0000000000000 -2.1239035100000000e-29 -1500.0000000000000 -23486510.145752758 2742998.0535291578 -36772589.622599415 1.8212194256774919e-05 0.0038098366674569652 -0.0093299693804685165 3.1999999998975968 -4.0000000000000000 -6.1029232149297012 
1000.0000000000000 5.3097587739999998e-30 -1500.0000000000000 -23486510.145173572 2742998.0552990166 -36772589.615159638 -1.4866191942544100e-05 0.0036671254460874918 -0.0063211605237432668 3.5999999999330483 -4.0000000000000000 -6.1029232139383405 
1000.0000000000000 1000.0000000000000 -1500.0000000000000 -23486510.144461393 2742998.0554420613 -36772589.612108730 -2.4074710628619229e-05 0.0063114169787789271 -0.0062028414212421650 3.5999999999322165 -3.5999999999345964 -6.1029232135491815 
2000.0000000000000 1000.0000000000000 -1166.6666666670001 -21182391.717513017 5047116.4756054254 -28603442.473537218 1.0345007785821057e-05 0.0062036493379301980 -0.0088273378356136228 3.2000000001011091 -3.6000000000568662 -6.3415191274546965 
2000.0000000000000 -2.3261800299999999e-29 -1166.6666666670001 -21182391.718322854 5047116.4748775214 -28603442.476310819 8.5082654399511799e-06 0.0036965027704240348 -0.0088541352642222612 3.2000000001008044 -4.0000000000000000 -6.3415191278867118 
1000.0000000000000 5.8154500860000000e-30 -1166.6666666670001 -21182391.716331612 5047116.4768243684 -28603442.469548207 -1.9350037220657853e-05 0.0035653019214321583 -0.0060616437644347180 3.6000000000493624 -4.0000000000000000 -6.3415191268350792 
1000.0000000000000 1000.0000000000000 -1166.6666666670001 -21182391.715549834 5047116.4775472749 -28603442.466733780 -2.9005254700121465e-05 0.0060750897876120091 -0.0059642130915017058 3.6000000000483117 -3.6000000000554744 -6.3415191264184099 
2000.0000000000000 1000.0000000000000 -1000.0000000000000 -20030177.820627183 6199330.3694184944 -24518320.478528082 -1.8692211993719717e-06 0.0059217847946001576 -0.0083606641724051339 3.2000000002165048 -3.6000000001267205 -6.4384553276502299 
2000.0000000000000 2.4273182970000001e-29 -1000.0000000000000 -20030177.821475200 6199330.3683168869 -24518320.481126107 1.9684767978469553e-06 0.0035496343113494374 -0.0083869030591568802 3.2000000002164111 -4.0000000000000000 -6.4384553280937258 
1000.0000000000000 -6.0682957399999997e-30 -1000.0000000000000 -20030177.818600785 6199330.3703631833 -24518320.474840123 -2.2148134190089323e-05 0.0034257267770638569 -0.0057812631950566939 3.6000000001167525 -4.0000000000000000 -6.4384553270158582 
1000.0000000000000 1000.0000000000000 -1000.0000000000000 -20030177.817780510 6199330.3714563167 -24518320.472202912 -3.2166603831850843e-05 0.0058035386896761638 -0.0056943651685359992 3.6000000001155716 -3.6000000001251200 -6.4384553265868831 
2000.0000000000000 1000.0000000000000 -833.33333333329995 -18877860.789335761 7351647.3974153856 -20432832.825177457 -1.6422927413309339e-05 0.0055120735416630783 -0.0077101994673776514 3.2000000003428748 -3.6000000002040120 -6.5204819111224097 
2000.0000000000000 4.5191771310000001e-29 -833.33333333329995 -18877860.790225033 7351647.3958711047 -20432832.827549633 -5.9317439580498232e-06 0.0033263898078827975 -0.0077352117948786296 3.2000000003430382 -4.0000000000000000 -6.5204819115759181 
1000.0000000000000 -1.1297942800000000e-29 -833.33333333329995 -18877860.786321495 7351647.3980253404 -20432832.821857009 -2.5474085429306448e-05 0.0032110532472468369 -0.0053759043306614730 3.6000000001915420 -4.0000000000000000 -6.5204819104752652 
1000.0000000000000 1000.0000000000000 -833.33333333329995 -18877860.785459723 7351647.3995568249 -20432832.819447998 -3.6063975994493134e-05 0.0054048401425457046 -0.0052995316744012186 3.6000000001902137 -3.6000000002021610 -6.5204819100353655 
2000.0000000000000 1000.0000000000000 -666.66666666670005 -17725440.614405610 8504067.5688052848 -16346979.480723239 -3.3627263549139809e-05 0.0049509422356232942 -0.0068476600684731839 3.2000000004816864 -3.6000000002898926 -6.5875975433145735 
2000.0000000000000 0.0000000000000000 -666.66666666670005 -17725440.615340356 8504067.5667345934 -16346979.482809212 -1.5408265257214813e-05 0.0030111467509743878 -0.0068706292969622409 3.2000000004821625 -4.0000000000000000 -6.5875975437762424 
1000.0000000000000 0.0000000000000000 -666.66666666670005 -17725440.610235892 8504067.5690068733 -16346979.477848103 -2.9640098951195545e-05 0.0029059134327038445 -0.0048225706433046777 3.6000000002748536 -4.0000000000000000 -6.5875975426570470 
1000.0000000000000 1000.0000000000000 -666.66666666670005 -17725440.609328967 8504067.5710589308 -16346979.475728773 -4.1045119870254291e-05 0.0048556022621766811 -0.0047567955078490287 3.6000000002733508 -3.6000000002877357 -6.5875975422080089 
2000.0000000000000 1000.0000000000000 -500.00000000000000 -16572917.286603130 9656590.8927955367 -12260760.412394134 -5.3835789490518935e-05 0.0042097293921851929 -0.0057403195663964643 3.2000000006346032 -3.6000000003857333 -6.6398008895503073 
2000.0000000000000 1.8204887220000000e-29 -500.00000000000000 -16572917.287589638 9656590.8900957033 -12260760.414121922 -2.6722098219476524e-05 0.0025845211387709455 -0.0057602036509474732 3.2000000006354581 -4.0000000000000000 -6.6398008900178311 
1000.0000000000000 -4.5512218100000003e-30 -500.00000000000000 -16572917.281081416 9656590.8924988434 -12260760.410054194 -3.5332215899888530e-05 0.0024914584897748485 -0.0040936262806177534 3.6000000003680093 -4.0000000000000000 -6.6398008888852917 
1000.0000000000000 1000.0000000000000 -500.00000000000000 -16572917.280124696 9656590.8951712027 -12260760.408298559 -4.7725682611034972e-05 0.0041276542046367309 -0.0040388448135560903 3.6000000003662724 -3.6000000003831762 -6.6398008884293924 
2000.0000000000000 1000.0000000000000 -333.33333333330000 -15420290.796697820 10809217.378587924 -8174175.5874204766 -7.7477312195547684e-05 0.0032532429585729800 -0.0043503222952398710 3.2000000008035121 -3.6000000004931789 -6.6770906150333724 
2000.0000000000000 0.0000000000000000 -333.33333333330000 -15420290.797746159 10809217.375130933 -8174175.5887051495 -4.0202280430378204e-05 0.0020220052254639066 -0.0043657443907399625 3.2000000008048213 -4.0000000000000000 -6.6770906155039018 
1000.0000000000000 0.0000000000000000 -333.33333333330000 -15420290.789594289 10809217.377681913 -8174175.5857201610 -4.4014803497541846e-05 0.0019444160632619632 -0.0031555498998273221 3.6000000004725883 -4.0000000000000000 -6.6770906143643627 
1000.0000000000000 1000.0000000000000 -333.33333333330000 -15420290.788581386 10809217.381096728 -8174175.5844159992 -5.7267321303743403e-05 0.0031868578205374483 -0.0031130153766627164 3.6000000004704829 -3.6000000004900516 -6.6770906139044834 
2000.0000000000000 1000.0000000000000 -166.66666666670000 -14267561.135462042 11961947.035378840 -4087224.9730313634 -0.00010511435179881207 0.0020375343664884304 -0.0026340742185938584 3.2000000009905314 -3.6000000006142616 -6.6994653848478203 
2000.0000000000000 1.9553397389999999e-29 -166.66666666670000 -14267561.136589048 11961947.031001884 -4087224.9737735651 -5.6295503740415323e-05 0.0012918049489745662 -0.0026431989157326211 3.2000000009923908 -4.0000000000000000 -6.6994653853178585 
1000.0000000000000 -4.8883493500000002e-30 -166.66666666670000 -14267561.126509054 11961947.033724487 -4087224.9720922420 -5.8738096816148352e-05 0.0012356424988357998 -0.0019671414851200717 3.6000000005905237 -4.0000000000000000 -6.6994653841790566 
1000.0000000000000 1000.0000000000000 -166.66666666670000 -14267561.125430781 11961947.038032936 -4087224.9713429697 -7.1891004936331380e-05 0.0019914211430074611 -0.0019401165656790585 3.6000000005877442 -3.6000000006102328 -6.6994653837188167 
2000.0000000000000 1000.0000000000000 0.0000000000000000 -13691170.510858236 12538337.657673169 -2043658.2143863447 -0.00012001264073574269 0.0013587510449937570 -0.0016885650681481271 3.2000000011980263 -3.6000000007515567 -6.7069238639579600 
2000.0000000000000 0.0000000000000000 0.0000000000000000 -13691170.512029860 12538337.652790461 -2043658.2148305625 -6.5060073018734035e-05 0.00088027318617547520 -0.0016940122398314175 3.2000000012005376 -4.0000000000000000 -6.7069238644232119 
1000.0000000000000 0.0000000000000000 0.0000000000000000 -13691170.500908572 12538337.655605903 -2043658.2138604468 -6.8123555130590488e-05 0.00083676290882720426 -0.0013046512450536291 3.6000000007242656 -4.0000000000000000 -6.7069238632946035 
1000.0000000000000 1000.0000000000000 0.0000000000000000 -13691170.499794902 12538337.660403058 -2043658.2134166025 -8.0838047328746310e-05 0.0013242822472686268 -0.0012865489012500628 3.6000000007201454 -3.6000000007459771 -6.7069238628385177 
2000.0000000000000 2000.0000000000000 -1333.3333333329999 -22334502.487333115 3895005.7080117417 -32688198.836011127 2.0182316520265304e-05 0.0092967798524378909 -0.0090688638511808549 3.1999999999963142 -3.2000000000065976 -6.2296746439222579 
1000.0000000000000 2000.0000000000000 -1333.3333333329999 -22334502.486189175 3895005.7098580580 -32688198.828745745 -2.8940658023553808e-05 0.0092489647870222409 -0.0060165525625764348 3.5999999999854841 -3.2000000000052711 -6.2296746429302123 
2000.0000000000000 2000.0000000000000 -1500.0000000000000 -23486510.143187147 2742998.0542431804 -36772589.612335108 3.5455334221639844e-05 0.0094926221457715520 -0.0092377903534658391 3.1999999998995254 -3.1999999999051063 -6.1029232135029412 
1000.0000000000000 2000.0000000000000 -1500.0000000000000 -23486510.142698340 2742998.0560109667 -36772589.604759194 -2.6955629368770345e-05 0.0094336374373956786 -0.0060688928251409679 3.5999999999302652 -3.1999999999038966 -6.1029232125443755 
2000.0000000000000 2000.0000000000000 -1166.6666666670001 -21182391.715543371 5047116.4776385454 -28603442.466955606 2.1440347905049192e-06 0.0089620755609343700 -0.0087626356270722114 3.2000000001015505 -3.2000000001165683 -6.3415191263746786 
1000.0000000000000 2000.0000000000000 -1166.6666666670001 -21182391.713637684 5047116.4795689359 -28603442.460083652 -3.1357277736535381e-05 0.0089248335773399294 -0.0058733525615390384 3.6000000000462902 -3.2000000001151032 -6.3415191253513692 
2000.0000000000000 2000.0000000000000 -1000.0000000000000 -20030177.818578161 6199330.3723618891 -24518320.472412113 -1.9021437037374260e-05 0.0084683635507297860 -0.0082983443203996990 3.2000000002163707 -3.2000000002361770 -6.4384553265445401 
1000.0000000000000 2000.0000000000000 -1000.0000000000000 -20030177.815785766 6199330.3743823990 -24518320.466032822 -3.4500505917507918e-05 0.0084409798920069314 -0.0056228577862100573 3.6000000001135142 -3.2000000002345419 -6.4384553254927610 
2000.0000000000000 2000.0000000000000 -833.33333333329995 -18877860.787201889 7351647.4014174119 -20432832.819637477 -4.3680760086138190e-05 0.0077923074809242666 -0.0076518773470533206 3.2000000003420550 -3.2000000003667353 -6.5204819099944604 
1000.0000000000000 2000.0000000000000 -833.33333333329995 -18877860.783376053 7351647.4035348631 -20432832.813867927 -3.8612892533785604e-05 0.0077739358917297595 -0.0052455415305132942 3.6000000001881070 -3.2000000003648812 -6.5204819089177182 
2000.0000000000000 2000.0000000000000 -666.66666666670005 -17725440.612180296 8504067.5740416776 -16346979.475891307 -7.2188257957673553e-05 0.0069068097399869830 -0.0067952410318445578 3.2000000004800571 -3.2000000005097222 -6.5875975421685657 
1000.0000000000000 2000.0000000000000 -666.66666666670005 -17725440.607148875 8504067.5762634370 -16346979.470869511 -4.3770288691505762e-05 0.0068964195061960920 -0.0047182746017047361 3.6000000002711663 -3.2000000005075941 -6.5875975410712098 
2000.0000000000000 2000.0000000000000 -500.00000000000000 -16572917.284278046 9656590.8994756117 -12260760.408427183 -0.00010490143409886579 0.0057804002489986609 -0.0056960604286081049 3.2000000006320297 -3.2000000006668126 -6.6398008883913793 
1000.0000000000000 2000.0000000000000 -500.00000000000000 -16572917.277839366 9656590.9018090032 -12260760.404316152 -4.9751118903138270e-05 0.0057767608955689598 -0.0040136797285230995 3.6000000003639596 -3.2000000006643567 -6.6398008872787875 
2000.0000000000000 2000.0000000000000 -333.33333333330000 -15420290.794261757 10809217.386962947 -8174175.5845034020 -0.00014221907439843936 0.0043766689495769234 -0.0043169818981441304 3.2000000007998333 -3.2000000008398959 -6.6770906138678106 
1000.0000000000000 2000.0000000000000 -333.33333333330000 -15420290.786179382 10809217.389414802 -8174175.5814936534 -5.5830628453125910e-05 0.0043780714695081440 -0.0030992980252265837 3.6000000004679507 -3.2000000008370781 -6.6770906127465874 
2000.0000000000000 2000.0000000000000 -166.66666666670000 -14267561.132899288 11961947.045753209 -4087224.9713805346 -0.00018462318920363306 0.0026535528798504256 -0.0026150921408169599 3.2000000009855794 -3.2000000010310847 -6.6994653836832949 
1000.0000000000000 2000.0000000000000 -166.66666666670000 -14267561.122896116 11961947.048328729 -4087224.9696925245 -6.0335621783348975e-05 0.0026571867345088619 -0.0019366221520838401 3.6000000005848340 -3.2000000010279441 -6.6994653825615140 
2000.0000000000000 2000.0000000000000 0.0000000000000000 -13691170.508227525 12538337.669130757 -2043658.2134269036 -0.00020716349964830112 0.0017065166123155099 -0.0016777252403774633 3.2000000011916083 -3.2000000012427097 -6.7069238628038459 
1000.0000000000000 2000.0000000000000 0.0000000000000000 -13691170.497189229 12538337.671769081 -2043658.2124588352 -6.1906638785036368e-05 0.0017103771385449467 -0.0012879908845851542 3.6000000007165784 -3.2000000012394727 -6.7069238616913118 
4000.0000000000000 8000.0000000000000 -1333.3333333329999 -22334502.486237466 3895005.7102584234 -32688198.833711721 -4.7755176020542664e-05 -0.0017037688443775098 -0.0044857366610276134 2.4000000000458637 -0.80000000002553862 -6.2296746416331326 
4000.0000000000000 9000.0000000000000 -1333.3333333329999 -22334502.486465126 3895005.7099018041 -32688198.834438618 -2.5237148790991086e-05 -0.0010625124705779911 -0.0044437754680820103 2.4000000000446544 -0.40000000001111224 -6.2296746415622630 
4000.0000000000000 8000.0000000000000 -1500.0000000000000 -23486510.140706133 2742998.0548492335 -36772589.609042346 -3.9286127511760045e-05 -0.0017543502013697108 -0.0047152617193971392 2.3999999999333075 -0.79999999998760907 -6.1029232112185081 
4000.0000000000000 9000.0000000000000 -1500.0000000000000 -23486510.140905887 2742998.0545976800 -36772589.609753795 -2.1100647771565437e-05 -0.0011005765551908861 -0.0046705971999716957 2.3999999999322834 -0.39999999999310010 -6.1029232111448417 
4000.0000000000000 8000.0000000000000 -1166.6666666670001 -21182391.715943351 5047116.4815786239 -28603442.465500634 -5.6727785616467945e-05 -0.0016303053366603871 -0.0041814636389053824 2.4000000001633386 -0.80000000006213845 -6.3415191240846305 
4000.0000000000000 9000.0000000000000 -1166.6666666670001 -21182391.716197275 5047116.4811000517 -28603442.466219563 -2.9691592652929554e-05 -0.0010101493936670268 -0.0041424318191502496 2.4000000001619299 -0.40000000002826980 -6.3415191240163828 
4000.0000000000000 8000.0000000000000 -1000.0000000000000 -20030177.820601054 6199330.3780427985 -24518320.471652001 -6.6514581332815891e-05 -0.0015300612368501761 -0.0038013488418940358 2.4000000002860453 -0.80000000009717109 -6.4384553242565374 
4000.0000000000000 9000.0000000000000 -1000.0000000000000 -20030177.820879836 6199330.3774231374 -24518320.472339410 -3.4657732936895499e-05 -0.00094148551830225088 -0.0037655418431985326 2.4000000002844128 -0.40000000004443670 -6.4384553241906266 
4000.0000000000000 8000.0000000000000 -833.33333333329995 -18877860.790992446 7351647.4088799488 -20432832.819420792 -7.7447751092833171e-05 -0.0013986478728461480 -0.0033454969965917413 2.4000000004142890 -0.80000000013038253 -6.5204819077106544 
4000.0000000000000 9000.0000000000000 -833.33333333329995 -18877860.791294958 7351647.4080977216 -20432832.820053175 -4.0340114213864810e-05 -0.00085428626395396426 -0.0033133257965647176 2.4000000004123976 -0.40000000005946756 -6.5204819076466753 
4000.0000000000000 8000.0000000000000 -666.66666666670005 -17725440.617900852 8504067.5833180286 -16346979.476063471 -8.9879023592143848e-05 -0.0012311842311755359 -0.0028155209925879300 2.4000000005483559 -0.80000000016149642 -6.5875975398902389 
4000.0000000000000 9000.0000000000000 -666.66666666670005 -17725440.618226215 8504067.5823493656 -16346979.476617444 -4.6950397520148922e-05 -0.00074609618972291860 -0.0027875126817809414 2.4000000005461604 -0.40000000007320707 -6.5875975398276756 
4000.0000000000000 8000.0000000000000 -500.00000000000000 -16572917.292108238 9656590.9105863180 -12260760.408829566 -0.00010417799853298049 -0.0010222990606901174 -0.0022149024546688962 2.4000000006885034 -0.80000000019021134 -6.6398008861189330 
4000.0000000000000 9000.0000000000000 -500.00000000000000 -16572917.292455774 9656590.9094049558 -12260760.409281814 -5.4709030123163784e-05 -0.00061422040821572670 -0.0021917567517253035 2.4000000006859454 -0.40000000008548586 -6.6398008860571514 
4000.0000000000000 8000.0000000000000 -333.33333333330000 -15420290.804397509 10809217.399912490 -8174175.5849723462 -0.00012073054281589877 -0.00076611082149119958 -0.0015493782120143188 2.4000000008349454 -0.80000000021619488 -6.6770906116007245 
4000.0000000000000 9000.0000000000000 -333.33333333330000 -15420290.804766804 10809217.398489686 -8174175.5852998365 -6.3839931604692095e-05 -0.00045573869003201332 -0.0015320188410775685 2.4000000008319571 -0.40000000009612002 -6.6770906115389730 
4000.0000000000000 8000.0000000000000 -166.66666666670000 -14267561.145550400 11961947.060523687 -4087224.9717454943 -0.00013994313852652512 -0.00045622022131963451 -0.00082721282063370251 2.4000000009878519 -0.80000000023907958 -6.6994653814201133 
4000.0000000000000 9000.0000000000000 -166.66666666670000 -14267561.145941332 11961947.058828151 -4087224.9719256433 -7.4572561975138778e-05 -0.00026749523688301090 -0.00081681106164041540 2.4000000009843494 -0.40000000010490711 -6.6994653813575331 
4000.0000000000000 8000.0000000000000 0.0000000000000000 -13691170.522190299 12538337.684803955 -2043658.2136962262 -0.00015026668235860490 -0.00028701707251976161 -0.00045316334884192380 2.4000000011473541 -0.80000000025845563 -6.7069238605421511 
4000.0000000000000 9000.0000000000000 0.0000000000000000 -13691170.522592068 12538337.682963904 -2043658.2137971402 -8.0368775454458147e-05 -0.00016552165200959916 -0.00044656882243132644 2.4000000011432396 -0.40000000011162323 -6.7069238604777643 
3000.0000000000000 6000.0000000000000 -1333.3333333329999 -22334502.484179776 3895005.7120897551 -32688198.827030521 -9.7856963092397709e-05 -0.00035256420336895284 -0.0072874340620305662 2.8000000000204039 -1.6000000000583599 -6.2296746411133110 
3000.0000000000000 7000.0000000000000 -1333.3333333329999 -22334502.484296162 3895005.7121150331 -32688198.827469971 -7.7063890688357491e-05 -0.0016217010371243176 -0.0071452153278338858 2.8000000000172731 -1.2000000000409459 -6.2296746407581089 
4000.0000000000000 7000.0000000000000 -1333.3333333329999 -22334502.485996872 3895005.7105930531 -32688198.832814794 -6.5053595299555448e-05 -0.0015274652197247017 -0.0045495241573007064 2.4000000000477608 -1.2000000000438771 -6.2296746418125357 
4000.0000000000000 6000.0000000000000 -1333.3333333329999 -22334502.485935804 3895005.7105697142 -32688198.832255866 -7.6044646222876174e-05 -0.00021975401954886552 -0.0046329822719363145 2.4000000000501891 -1.6000000000621948 -6.2296746421794218 
3000.0000000000000 6000.0000000000000 -1500.0000000000000 -23486510.139301319 2742998.0564889745 -36772589.602094501 -8.2265585974929738e-05 -0.00029789565551920875 -0.0075141232124353273 2.7999999999068903 -1.5999999999733563 -6.1029232107261686 
3000.0000000000000 7000.0000000000000 -1500.0000000000000 -23486510.139369622 2742998.0565741886 -36772589.602372162 -6.5498320575605750e-05 -0.0016476562372676647 -0.0073582339496729744 2.7999999999041352 -1.1999999999805870 -6.1029232103688207 
4000.0000000000000 7000.0000000000000 -1500.0000000000000 -23486510.140507597 2742998.0550640007 -36772589.608204849 -5.2366994438345160e-05 -0.0015451395619457563 -0.0047841880951322953 2.3999999999348911 -1.1999999999831836 -6.1029232114016416 
4000.0000000000000 6000.0000000000000 -1500.0000000000000 -23486510.140493836 2742998.0549843204 -36772589.607789822 -5.9670787705916983e-05 -0.00015202064111966674 -0.0048757876405127630 2.3999999999368948 -1.5999999999767403 -6.1029232117715102 
3000.0000000000000 6000.0000000000000 -1166.6666666670001 -21182391.713201310 5047116.4836601811 -28603442.459198833 -0.00011416546121455811 -0.00040513695564882749 -0.0069436084754058609 2.8000000001414871 -1.6000000001435524 -6.3415191235398698 
3000.0000000000000 7000.0000000000000 -1166.6666666670001 -21182391.713362657 5047116.4835944250 -28603442.459755808 -8.9299944657728343e-05 -0.0015751111146092625 -0.0068150074343590415 2.8000000001379592 -1.2000000001002198 -6.3415191231872177 
4000.0000000000000 7000.0000000000000 -1166.6666666670001 -21182391.715663332 5047116.4820593260 -28603442.464581545 -7.8301367638384465e-05 -0.0014894184437440814 -0.0042399260750974506 2.4000000001655661 -1.2000000001035038 -6.3415191242603761 
4000.0000000000000 6000.0000000000000 -1166.6666666670001 -21182391.715558529 5047116.4821229689 -28603442.463924974 -9.3000829476733187e-05 -0.00028550543808199128 -0.0043152507572009457 2.4000000001684376 -1.6000000001478516 -6.3415191246239937 
3000.0000000000000 6000.0000000000000 -1000.0000000000000 -20030177.817143343 6199330.3804407995 -24518320.465849515 -0.00013180463768251548 -0.00044997307561791357 -0.0064708932455576828 2.8000000002709480 -1.6000000002287427 -6.4384553236899871 
3000.0000000000000 7000.0000000000000 -1000.0000000000000 -20030177.817347616 6199330.3802475017 -24518320.466478776 -0.00010273562986732712 -0.0015024654519171785 -0.0063559529435973918 2.8000000002669809 -1.2000000001581268 -6.4384553233400572 
4000.0000000000000 7000.0000000000000 -1000.0000000000000 -20030177.820283826 6199330.3786997246 -24518320.470748242 -9.2461408347192385e-05 -0.0014256773121105104 -0.0038542269981516469 2.4000000002886348 -1.2000000001618005 -6.4384553244288867 
4000.0000000000000 6000.0000000000000 -1000.0000000000000 -20030177.820138302 6199330.3788863923 -24518320.470040496 -0.00011089322713856154 -0.00034375103383956228 -0.0039213752573295105 2.4000000002919779 -1.6000000002335448 -6.4384553247891816 
3000.0000000000000 6000.0000000000000 -833.33333333329995 -18877860.786789864 7351647.4116682941 -20432832.814244356 -0.00015150967370140529 -0.00048036720052159780 -0.0058567957751484902 2.8000000004096481 -1.6000000003137100 -6.5204819071260909 
3000.0000000000000 7000.0000000000000 -833.33333333329995 -18877860.787036154 7351647.4113052348 -20432832.814899419 -0.00011796769317855727 -0.0013975131402983337 -0.0057557837497139840 2.8000000004051762 -1.2000000002143594 -6.5204819067788140 
4000.0000000000000 7000.0000000000000 -833.33333333329995 -18877860.790639855 7351647.4097473100 -20432832.818570070 -0.00010791688701260038 -0.0013301723755259733 -0.0033924024458225413 2.4000000004172821 -1.2000000002184825 -6.5204819078800558 
4000.0000000000000 6000.0000000000000 -833.33333333329995 -18877860.790456146 7351647.4100988284 -20432832.817857854 -0.00013013105332238721 -0.00038803002830193131 -0.0034511977937344528 2.4000000004211426 -1.6000000003190811 -6.5204819082372172 
3000.0000000000000 6000.0000000000000 -666.66666666670005 -17725440.612928979 8504067.5865784325 -16346979.471645497 -0.00017415081057409190 -0.00048848401176784329 -0.0050884834317126608 2.8000000005584864 -1.6000000003981998 -6.5875975392920711 
3000.0000000000000 7000.0000000000000 -666.66666666670005 -17725440.613217525 8504067.5859973896 -16346979.472278332 -0.00013566080898231152 -0.0012531274944786782 -0.0050020284450807374 2.8000000005534114 -1.2000000002685780 -6.5875975389471346 
4000.0000000000000 7000.0000000000000 -666.66666666670005 -17725440.617514390 8504067.5844342764 -16346979.475303616 -0.00012508216069663172 -0.0011960386541255499 -0.0028559029550894142 2.4000000005518101 -1.2000000002732343 -6.5875975400573372 
4000.0000000000000 6000.0000000000000 -666.66666666670005 -17725440.617294651 8504067.5849986002 -16346979.474633958 -0.00015118015532052109 -0.00041085424752757580 -0.0029059694479646519 2.4000000005562501 -1.6000000004042350 -6.5875975404117986 
3000.0000000000000 6000.0000000000000 -500.00000000000000 -16572917.286351144 9656590.9144083355 -12260760.405306423 -0.00020074987899370300 -0.00046526328392238158 -0.0041533639318548062 2.8000000007183745 -1.6000000004819073 -6.6398008855122024 
3000.0000000000000 7000.0000000000000 -500.00000000000000 -16572917.286683481 9656590.9135546833 -12260760.405867493 -0.00015655131273968828 -0.0010613374970222891 -0.0040826375139062336 2.8000000007125689 -1.2000000003204028 -6.6398008851690156 
4000.0000000000000 7000.0000000000000 -500.00000000000000 -16572917.291689103 9656590.9119942822 -12260760.408198494 -0.00014440521783505163 -0.0010156492549653721 -0.0022479794384038269 2.4000000006924922 -1.2000000003257030 -6.6398008862845677 
4000.0000000000000 6000.0000000000000 -500.00000000000000 -16572917.291435163 9656590.9128259495 -12260760.407618580 -0.00017456925526437506 -0.00040364297004508913 -0.0022886535995005424 2.4000000006975903 -1.6000000004887409 -6.6398008866370137 
3000.0000000000000 6000.0000000000000 -333.33333333330000 -15420290.797852958 10809217.404393133 -8174175.5824827701 -0.00023250807755856358 -0.00040034705376103464 -0.0030401004199794432 2.8000000008902122 -1.6000000005644730 -6.6770906109910664 
3000.0000000000000 7000.0000000000000 -333.33333333330000 -15420290.798231943 10809217.403205601 -8174175.5829205159 -0.00018145085988660793 -0.00081326021621080913 -0.0029869868718772116 2.8000000008835042 -1.2000000003694085 -6.6770906106487669 
4000.0000000000000 7000.0000000000000 -333.33333333330000 -15420290.803946631 10809217.401659528 -8174175.5845079469 -0.00016637376889026031 -0.00078057203448445402 -0.0015740608631835973 2.4000000008395603 -1.2000000003754934 -6.6770906117659319 
4000.0000000000000 6000.0000000000000 -333.33333333330000 -15420290.803660270 10809217.402819904 -8174175.5840654597 -0.00020089622649974346 -0.00035670023747882366 -0.0016042889974011917 2.4000000008454188 -1.6000000005722812 -6.6770906121173095 
3000.0000000000000 6000.0000000000000 -166.66666666670000 -14267561.138236728 11961947.065766664 -4087224.9704288812 -0.00027083645207251109 -0.00028198353063045193 -0.0017401797845072991 2.8000000010748205 -1.6000000006454691 -6.6994653808136935 
3000.0000000000000 7000.0000000000000 -166.66666666670000 -14267561.138666583 11961947.064177133 -4087224.9706892045 -0.00021124283115095686 -0.00049902430230536448 -0.0017075146809573099 2.8000000010669912 -1.2000000004151152 -6.6994653804711159 
4000.0000000000000 7000.0000000000000 -166.66666666670000 -14267561.145068554 11961947.062661787 -4087224.9714857554 -0.00019151688834548986 -0.00048151376375910163 -0.00084204224301486419 2.4000000009932037 -1.2000000004221574 -6.6994653815861298 
4000.0000000000000 6000.0000000000000 -166.66666666670000 -14267561.144751728 11961947.064219361 -4087224.9712289483 -0.00023083747343525995 -0.00025914023233481522 -0.00086027091969964554 2.4000000009999485 -1.6000000006544792 -6.6994653819376442 
3000.0000000000000 6000.0000000000000 0.0000000000000000 -13691170.514499689 12538337.690454822 -2043658.2130008568 -0.00029183338170111919 -0.00020788185301650290 -0.0010427208584189863 2.8000000012728572 -1.6000000007243877 -6.7069238599455554 
3000.0000000000000 7000.0000000000000 0.0000000000000000 -13691170.514956223 12538337.688646376 -2043658.2131586452 -0.00022747636338583873 -0.00032407316709674489 -0.0010211281001265755 2.8000000012636366 -1.2000000004569817 -6.7069238596012086 
4000.0000000000000 7000.0000000000000 0.0000000000000000 -13691170.521693144 12538337.687151173 -2043658.2135483283 -0.00020495088990353367 -0.00031477735541685152 -0.00046265145088662991 2.4000000011535771 -1.2000000004651894 -6.7069238607104129 
4000.0000000000000 6000.0000000000000 0.0000000000000000 -13691170.521361595 12538337.688925397 -2043658.2133964340 -0.00024680182276524021 -0.00019627130857855383 -0.00047442076540193809 2.4000000011613620 -1.6000000007348900 -6.7069238610635384 
5000.0000000000000 0.0000000000000000 -1333.3333333329999 -22334502.495018974 3895005.7018750696 -32688198.861886173 -2.8846387422260208e-05 0.0035498709806863716 -0.0014410632073664463 2.0000000000697957 -4.0000000000000000 -6.2296746486585315 
5000.0000000000000 1000.0000000000000 -1333.3333333329999 -22334502.494270429 3895005.7022693721 -32688198.858670175 -4.6645132400272886e-05 0.0062382262503852849 -0.0013929494170361368 2.0000000000685998 -3.5999999999879009 -6.2296746482597731 
6000.0000000000000 1000.0000000000000 -1333.3333333329999 -22334502.494923711 3895005.7020178386 -32688198.858899858 -7.2844625177079521e-05 0.0063757418549710166 0.0011026441903867060 1.6000000000629666 -3.5999999999913248 -6.2296746487772250 
6000.0000000000000 0.0000000000000000 -1333.3333333329999 -22334502.495702770 3895005.7016129158 -32688198.861955836 -4.6024812681376301e-05 0.0037194407558945454 0.0010204020123755603 1.6000000000649608 -4.0000000000000000 -6.2296746491896799 
5000.0000000000000 0.0000000000000000 -1500.0000000000000 -23486510.149084061 2742998.0491373050 -36772589.640080199 -2.6094238518770779e-05 0.0035615535368106236 -0.0016288334433422077 1.9999999999686424 -4.0000000000000000 -6.1029232181288737 
5000.0000000000000 1000.0000000000000 -1500.0000000000000 -23486510.148375247 2742998.0492630494 -36772589.636762597 -4.2536279716537422e-05 0.0062907801457677444 -0.0015735349945812127 1.9999999999675422 -3.5999999999290537 -6.1029232177459765 
6000.0000000000000 1000.0000000000000 -1500.0000000000000 -23486510.148982245 2742998.0489760055 -36772589.637203559 -7.1186086066104526e-05 0.0064477434879645738 0.0010391424913614874 1.5999999999830830 -3.5999999999324634 -6.1029232182647597 
6000.0000000000000 0.0000000000000000 -1500.0000000000000 -23486510.149725027 2742998.0488414797 -36772589.640362024 -4.4063126032893406e-05 0.0037431527906209867 0.00094343393361074452 1.5999999999849825 -4.0000000000000000 -6.1029232186625535 
5000.0000000000000 0.0000000000000000 -1166.6666666670001 -21182391.725164071 5047116.4702993045 -28603442.490759276 -3.1278316214329448e-05 0.0034855039194763519 -0.0012297791979170455 2.0000000001729763 -4.0000000000000000 -6.3415191312095871 
5000.0000000000000 1000.0000000000000 -1166.6666666670001 -21182391.724372379 5047116.4710105676 -28603442.487683136 -5.0042727352463103e-05 0.0060917027975501536 -0.0011885914849101460 2.0000000001716987 -3.6000000000525527 -6.3415191307957040 
6000.0000000000000 1000.0000000000000 -1166.6666666670001 -21182391.725033373 5047116.4707939532 -28603442.487749346 -7.3050954071559061e-05 0.0062103114325755722 0.0011552705418006197 1.6000000001427936 -3.6000000000559220 -6.3415191313113226 
6000.0000000000000 0.0000000000000000 -1166.6666666670001 -21182391.725851081 5047116.4700701637 -28603442.490667000 -4.7295959191056640e-05 0.0036423987492049561 0.0010861170779208841 1.6000000001448580 -4.0000000000000000 -6.3415191317376465 
5000.0000000000000 0.0000000000000000 -1000.0000000000000 -20030177.830290597 6199330.3636200484 -24518320.493904926 -3.3318651954832814e-05 0.0033577924574251551 -0.0010012908106744561 2.0000000002781357 -4.0000000000000000 -6.4384553314649775 
5000.0000000000000 1000.0000000000000 -1000.0000000000000 -20030177.829452254 6199330.3647060655 -24518320.491016474 -5.2625858468510239e-05 0.0058341068312502582 -0.00096663005584337789 2.0000000002767924 -3.6000000001238841 -6.4384553310369892 
6000.0000000000000 1000.0000000000000 -1000.0000000000000 -20030177.830071792 6199330.3645268586 -24518320.490964074 -7.1593779686561249e-05 0.0059347466481904834 0.0011890026291484289 1.6000000002223405 -3.6000000001271251 -6.4384553315505491 
6000.0000000000000 0.0000000000000000 -1000.0000000000000 -20030177.830930732 6199330.3634262113 -24518320.493699063 -4.7723224826909345e-05 0.0035014241397783594 0.0011322986472406466 1.6000000002244434 -4.0000000000000000 -6.4384553319896742 
5000.0000000000000 0.0000000000000000 -833.33333333329995 -18877860.801176287 7351647.3910379466 -20432832.838540576 -3.4945205157709443e-05 0.0031537177814481977 -0.00076367401878823734 2.0000000003851843 -4.0000000000000000 -6.5204819149857061 
5000.0000000000000 1000.0000000000000 -833.33333333329995 -18877860.800287649 7351647.3925677706 -20432832.835898858 -5.4323673525244394e-05 0.0054449685922518115 -0.00073502680908065605 2.0000000003837926 -3.6000000002028978 -6.5204819145449955 
6000.0000000000000 1000.0000000000000 -833.33333333329995 -18877860.800803263 7351647.3924324140 -20432832.835768707 -6.8293780981416559e-05 0.0055290561634535173 0.0011940054001359167 1.6000000003013182 -3.6000000002059349 -6.5204819150565339 
6000.0000000000000 0.0000000000000000 -833.33333333329995 -18877860.801706403 7351647.3908853028 -20432832.838266790 -4.7205687696136961e-05 0.0032836158659956247 0.0011488427559085573 1.6000000003034218 -4.0000000000000000 -6.5204819155070552 
5000.0000000000000 0.0000000000000000 -666.66666666670005 -17725440.628603399 8504067.5617460143 -16346979.491885504 -3.6243026262335275e-05 0.0028574741456634271 -0.00052716247992611097 2.0000000004939715 -4.0000000000000000 -6.5875975472140178 
5000.0000000000000 1000.0000000000000 -666.66666666670005 -17725440.627660517 8504067.5638023373 -16346979.489561910 -5.5143691675795690e-05 0.0048998557067927717 -0.00050394125219235255 2.0000000004925433 -3.6000000002907564 -6.5875975467624404 
6000.0000000000000 1000.0000000000000 -666.66666666670005 -17725440.627992615 8504067.5637224372 -16346979.489389734 -6.3069621964509533e-05 0.0049691931295657073 0.0011580157478110987 1.6000000003793404 -3.6000000002935155 -6.5875975472722370 
6000.0000000000000 0.0000000000000000 -666.66666666670005 -17725440.628943712 8504067.5616448130 -16346979.491585586 -4.5801806957886083e-05 0.0029731591284422152 0.0011232513078158052 1.6000000003814052 -4.0000000000000000 -6.5875975477323268 
5000.0000000000000 0.0000000000000000 -500.00000000000000 -16572917.303357404 9656590.8849308565 -12260760.421151547 -3.7529474908210277e-05 0.0024498918336674485 -0.00030449543075692178 2.0000000006042660 -4.0000000000000000 -6.6398008934723105 
5000.0000000000000 1000.0000000000000 -500.00000000000000 -16572917.302355882 9656590.8876127452 -12260760.419231076 -5.5255395881438097e-05 0.0041695669500749081 -0.00028621590432373318 2.0000000006027996 -3.6000000003887922 -6.6398008930123007 
6000.0000000000000 1000.0000000000000 -500.00000000000000 -16572917.302402511 9656590.8876066599 -12260760.419046519 -5.6059952209255502e-05 0.0042261137309991511 0.0010654745656232185 1.6000000004558694 -3.6000000003912302 -6.6398008935208717 
6000.0000000000000 0.0000000000000000 -500.00000000000000 -16572917.303406769 9656590.8848962951 -12260760.420862487 -4.3935071314211784e-05 0.0025505973859186949 0.0010399116250491664 1.6000000004578745 -4.0000000000000000 -6.6398008939881841 
5000.0000000000000 0.0000000000000000 -333.33333333330000 -15420290.816231797 10809217.369767796 -8174175.5935541019 -3.9587112338095246e-05 0.0019077690300553600 -0.00011139435821315061 2.0000000007157408 -4.0000000000000000 -6.6770906189630423 
5000.0000000000000 1000.0000000000000 -333.33333333330000 -15420290.815166522 10809217.373193992 -8174175.5921358634 -5.5128785284502618e-05 0.0032190797869981629 -9.7991492058811412e-05 2.0000000007141954 -3.6000000004985462 -6.6770906184977559 
6000.0000000000000 1000.0000000000000 -333.33333333330000 -15420290.814796321 10809217.373288991 -8174175.5919620246 -4.7830589724420326e-05 0.0032645047198376648 0.00089617424409277357 1.6000000005301531 -3.6000000005006889 -6.6770906190058668 
6000.0000000000000 0.0000000000000000 -333.33333333330000 -15420290.815861505 10809217.369820341 -8174175.5933071999 -4.2779246257432209e-05 0.0019917884775908492 0.00087897483741098043 1.6000000005321311 -4.0000000000000000 -6.6770906194774051 
5000.0000000000000 0.0000000000000000 -166.66666666670000 -14267561.158029685 11961947.025419390 -4087224.9763094177 -4.4053669812613401e-05 0.0012033246093652551 3.3068749463820671e-05 2.0000000008279537 -4.0000000000000000 -6.6994653887688695 
5000.0000000000000 1000.0000000000000 -166.66666666670000 -14267561.156894334 11961947.029732309 -4087224.9755055574 -5.5772745554099218e-05 0.0020064485628114902 4.0627727028262187e-05 2.0000000008262186 -3.6000000006218045 -6.6994653883023139 
6000.0000000000000 1000.0000000000000 -166.66666666670000 -14267561.155937266 11961947.029967548 -4087224.9753592708 -3.9727275462186800e-05 0.0020409029748623027 0.00062323048513378190 1.6000000006011208 -3.6000000006238149 -6.6994653888110083 
6000.0000000000000 0.0000000000000000 -166.66666666670000 -14267561.157075593 11961947.025584325 -4087224.9761294434 -4.4965507723225659e-05 0.0012663053692421257 0.00061477551334057764 1.6000000006032340 -4.0000000000000000 -6.6994653892829961 
5000.0000000000000 0.0000000000000000 0.0000000000000000 -13691170.535010505 12538337.647093371 -2043658.2161770933 -4.7162461244254955e-05 0.00080675139287153085 9.0546377939738570e-05 2.0000000009403465 -4.0000000000000000 -6.7069238678526117 
5000.0000000000000 1000.0000000000000 0.0000000000000000 -13691170.533838363 12538337.651888471 -2043658.2157100118 -5.6456689944541999e-05 0.0013288901620448347 9.4760741768551294e-05 2.0000000009381815 -3.6000000007606325 -6.7069238673897855 
6000.0000000000000 1000.0000000000000 0.0000000000000000 -13691170.532539872 12538337.652205311 -2043658.2155810155 -3.5938663718550572e-05 0.0013575902488255822 0.00045700071358027825 1.6000000006672392 -3.6000000007629454 -6.7069238679004624 
6000.0000000000000 0.0000000000000000 0.0000000000000000 -13691170.533718517 12538337.647321351 -2043658.2160359561 -4.7342698746801856e-05 0.00085764068799741664 0.00045323966512189281 1.6000000006699233 -4.0000000000000000 -6.7069238683681807 
5000.0000000000000 7000.0000000000000 -1333.3333333329999 -22334502.487367965 3895005.7097898237 -32688198.835102405 -1.9020069287451232e-05 -0.0015009719314872723 -0.0019319028177606035 2.0000000000636144 -1.2000000000452218 -6.2296746426559730 
5000.0000000000000 6000.0000000000000 -1333.3333333329999 -22334502.487314422 3895005.7097602710 -32688198.834543224 -6.2534290198951822e-06 -0.00020618183011979153 -0.0018858087983217012 2.0000000000638032 -1.6000000000634955 -6.2296746430266339 
5000.0000000000000 7000.0000000000000 -1500.0000000000000 -23486510.141568139 2742998.0542336926 -36772589.610901862 -3.4129248599569152e-06 -0.0015165445766793983 -0.0021069645740835557 1.9999999999648919 -1.1999999999840938 -6.1029232122386752 
5000.0000000000000 6000.0000000000000 -1500.0000000000000 -23486510.141562052 2742998.0541500468 -36772589.610485941 1.2850687458892012e-05 -0.00013709464309673210 -0.0020562813995653596 1.9999999999644957 -1.5999999999775094 -6.1029232126123159 
5000.0000000000000 7000.0000000000000 -1166.6666666670001 -21182391.717337850 5047116.4812802123 -28603442.466480765 -3.5108168742446763e-05 -0.0014653188428440204 -0.0017283973340384154 2.0000000001644569 -1.2000000001052984 -6.3415191251082073 
5000.0000000000000 6000.0000000000000 -1166.6666666670001 -21182391.717240255 5047116.4813354025 -28603442.465824552 -2.5945966095643215e-05 -0.00027353594607541060 -0.0016863750575201080 2.0000000001652452 -1.6000000001497037 -6.3415191254756014 
5000.0000000000000 7000.0000000000000 -1000.0000000000000 -20030177.822248630 6199330.3779426496 -24518320.472281650 -5.1573260345007538e-05 -0.0014042384777561375 -0.0015005714793042248 2.0000000002674341 -1.2000000001640654 -6.4384553252792660 
5000.0000000000000 6000.0000000000000 -1000.0000000000000 -20030177.822109774 6199330.3781186752 -24518320.471574709 -4.5966888124991525e-05 -0.00033358805482268465 -0.0014622055107603499 2.0000000002688298 -1.6000000002359658 -6.4384553256433472 
5000.0000000000000 7000.0000000000000 -833.33333333329995 -18877860.792875055 7351647.4090110334 -20432832.819762759 -6.8267430966719291e-05 -0.0013116466124492821 -0.0012535523162161910 2.0000000003725513 -1.2000000002212408 -6.5204819087313464 
5000.0000000000000 6000.0000000000000 -833.33333333329995 -18877860.792697165 7351647.4093498029 -20432832.819051519 -6.5970116191503135e-05 -0.00037981768284786426 -0.0012186184140883024 2.0000000003745506 -1.6000000003220902 -6.5204819090922967 
5000.0000000000000 7000.0000000000000 -666.66666666670005 -17725440.619992733 8504067.5837183502 -16346979.476183876 -8.4990100428515003e-05 -0.0011806748233836009 -0.00099343503831961113 2.0000000004797962 -1.2000000002765112 -6.5875975409081295 
5000.0000000000000 6000.0000000000000 -666.66666666670005 -17725440.619777523 8504067.5842679366 -16346979.475515060 -8.5504101891021892e-05 -0.00040465124473961417 -0.00096198887072386496 2.0000000004823808 -1.6000000004078496 -6.5875975412663834 
5000.0000000000000 7000.0000000000000 -500.00000000000000 -16572917.294375598 9656590.9112990685 -12260760.408798078 -0.00010147994518038068 -0.0010036625168125539 -0.00072717424434238153 2.0000000005891390 -1.2000000003295275 -6.6398008871337373 
5000.0000000000000 6000.0000000000000 -500.00000000000000 -16572917.294124365 9656590.9121140875 -12260760.408218687 -0.00010399159574144049 -0.00039939640507849472 -0.00069967781915125443 2.0000000005922742 -1.6000000004929744 -6.6398008874899750 
5000.0000000000000 7000.0000000000000 -333.33333333330000 -15420290.806799104 10809217.400985960 -8174175.5848625386 -0.00011740569202522378 -0.00077213411443648292 -0.00046249620779891996 2.0000000007005281 -1.2000000003798943 -6.6770906126126537 
5000.0000000000000 6000.0000000000000 -333.33333333330000 -15420290.806512851 10809217.402127849 -8174175.5844200999 -0.00012070750282544417 -0.00035417888422478190 -0.00043996075737935908 2.0000000007041554 -1.6000000005771402 -6.6770906129678158 
5000.0000000000000 7000.0000000000000 -166.66666666670000 -14267561.148039432 11961947.062011015 -4087224.9716346534 -0.00013235836117165745 -0.00047678122405335948 -0.00020752168349870152 2.0000000008138894 -1.2000000004271660 -6.6994653824298984 
5000.0000000000000 6000.0000000000000 -166.66666666670000 -14267561.147719000 11961947.063548313 -4087224.9713773248 -0.00013475681827652413 -0.00025790743836612360 -0.00019167483569002724 2.0000000008179222 -1.6000000006599608 -6.6994653827851849 
5000.0000000000000 7000.0000000000000 0.0000000000000000 -13691170.524710815 12538337.686512096 -2043658.2136045811 -0.00013953518107613400 -0.00031193412964285324 -8.3487038727888920e-05 2.0000000009291257 -1.2000000004708364 -6.7069238615510089 
5000.0000000000000 6000.0000000000000 0.0000000000000000 -13691170.524373481 12538337.688265141 -2043658.2134519047 -0.00014099171671497489 -0.00019554766472587823 -7.1516380315282614e-05 2.0000000009334418 -1.6000000007409740 -6.7069238619078924 
2000.0000000000000 10000.000000000000 -1333.3333333329999 -22334502.483327702 3895005.7132790154 -32688198.821673356 -6.4196279927752920e-06 -0.00060932634904699355 -0.0086750951052323427 3.1999999999912614 0.0000000000000000 -6.2296746393565341 
2000.0000000000000 9000.0000000000000 -1333.3333333329999 -22334502.483228598 3895005.7134252712 -32688198.821404949 -1.2619138505552631e-05 -0.0011145055919634559 -0.0086827099175423739 3.1999999999914555 -0.40000000000956437 -6.2296746393713409 
1000.0000000000000 9000.0000000000000 -1333.3333333329999 -22334502.482011992 3895005.7151738908 -32688198.814644855 -1.2982046994646534e-06 -0.0011226363653675450 -0.0066044808945370627 3.5999999999882948 -0.40000000000945490 -6.2296746383572801 
1000.0000000000000 10000.000000000000 -1333.3333333329999 -22334502.482108999 3895005.7150249537 -32688198.814919375 -1.2020716671210475e-06 -0.00061459279028233324 -0.0066027922302133151 3.5999999999882646 0.0000000000000000 -6.2296746383433037 
2000.0000000000000 10000.000000000000 -1500.0000000000000 -23486510.139036924 2742998.0579584450 -36772589.596013144 -4.1034823559920046e-06 -0.00063275246155348542 -0.0088339495803988859 3.1999999998979964 0.0000000000000000 -6.1029232089938805 
2000.0000000000000 9000.0000000000000 -1500.0000000000000 -23486510.138948333 2742998.0580626465 -36772589.595752411 -8.0604037119834793e-06 -0.0011552232051560756 -0.0088416369737124474 3.1999999998981155 -0.39999999999176838 -6.1029232090096821 
1000.0000000000000 9000.0000000000000 -1500.0000000000000 -23486510.138367973 2742998.0597438775 -36772589.588686205 2.6298836897167500e-06 -0.0011628557183718355 -0.0066946508704751415 3.5999999999347692 -0.39999999999183311 -6.1029232080254454 
1000.0000000000000 10000.000000000000 -1500.0000000000000 -23486510.138453227 2742998.0596369416 -36772589.588956065 8.6131621389970142e-07 -0.00063789398625778405 -0.0066935656407544914 3.5999999999348176 0.0000000000000000 -6.1029232080104405 
2000.0000000000000 10000.000000000000 -1166.6666666670001 -21182391.711663973 5047116.4844914824 -28603442.454528455 -8.8798108879498715e-06 -0.00057790280833956806 -0.0083866600023583746 3.2000000000926447 0.0000000000000000 -6.3415191217617934 
2000.0000000000000 9000.0000000000000 -1166.6666666670001 -21182391.711554673 5047116.4846857814 -28603442.454260342 -1.7449939240345911e-05 -0.0010591779726374783 -0.0083940253565225470 3.2000000000929196 -0.40000000002647973 -6.3415191217756410 
1000.0000000000000 9000.0000000000000 -1166.6666666670001 -21182391.709595140 5047116.4865083871 -28603442.447881959 -5.3251572815275810e-06 -0.0010673459773053351 -0.0064248713766629434 3.6000000000472494 -0.40000000002619146 -6.3415191207340325 
1000.0000000000000 10000.000000000000 -1166.6666666670001 -21182391.709703557 5047116.4863114832 -28603442.448153242 -3.3035951237240181e-06 -0.00058302431668331815 -0.0064229227009959611 3.6000000000471397 0.0000000000000000 -6.3415191207210189 
2000.0000000000000 10000.000000000000 -1000.0000000000000 -20030177.814814631 6199330.3808233961 -24518320.461838711 -1.1523355587525975e-05 -0.00053738887532774429 -0.0079486394086591677 3.2000000002032252 0.0000000000000000 -6.4384553218937270 
2000.0000000000000 9000.0000000000000 -1000.0000000000000 -20030177.814695276 6199330.3810724467 -24518320.461579319 -2.2635601651234173e-05 -0.00098709356994489909 -0.0079555601260691746 3.2000000002035844 -0.40000000004236208 -6.4384553219066891 
1000.0000000000000 9000.0000000000000 -1000.0000000000000 -20030177.811865102 6199330.3829775723 -24518320.455670428 -9.4012082672359651e-06 -0.00099485780719829652 -0.0061389436440564956 3.6000000001124617 -0.40000000004189257 -6.4384553208403394 
1000.0000000000000 10000.000000000000 -1000.0000000000000 -20030177.811984707 6199330.3827260006 -24518320.455930267 -5.4104680793914106e-06 -0.00054211247258728916 -0.0061370741034840444 3.6000000001122734 0.0000000000000000 -6.4384553208281856 
2000.0000000000000 10000.000000000000 -833.33333333329995 -18877860.783554677 7351647.4114978816 -20432832.810876660 -1.4391686862649448e-05 -0.00048655072849466534 -0.0073375195784326523 3.2000000003242297 0.0000000000000000 -6.5204819053147496 
2000.0000000000000 9000.0000000000000 -833.33333333329995 -18877860.783425227 7351647.4118091194 -20432832.810634878 -2.8263505518198316e-05 -0.00089582094456760607 -0.0073438052988479387 3.2000000003246818 -0.40000000005704883 -6.5204819053269523 
1000.0000000000000 9000.0000000000000 -833.33333333329995 -18877860.779570241 7351647.4138081996 -20432832.805296466 -1.3471466276588895e-05 -0.00090278808910317218 -0.0057260101944733447 3.6000000001849171 -0.40000000005639752 -6.5204819042392819 
1000.0000000000000 10000.000000000000 -833.33333333329995 -18877860.779700909 7351647.4134945441 -20432832.805536278 -7.4849767392913776e-06 -0.00049066241387874909 -0.0057244835217293141 3.6000000001846559 0.0000000000000000 -6.5204819042278395 
2000.0000000000000 10000.000000000000 -666.66666666670005 -17725440.608663689 8504067.5857362170 -16346979.468916569 -1.7533101212823055e-05 -0.00042401618835156523 -0.0065257969908510448 3.2000000004570630 0.0000000000000000 -6.5875975374688069 
2000.0000000000000 9000.0000000000000 -666.66666666670005 -17725440.608523875 8504067.5861178357 -16346979.468701657 -3.4426900837259428e-05 -0.00078264720966208297 -0.0065312646024113571 3.2000000004576141 -0.40000000007036585 -6.5875975374804145 
1000.0000000000000 9000.0000000000000 -666.66666666670005 -17725440.603457101 8504067.5882255659 -16346979.464052610 -1.7474818229586627e-05 -0.00078848707484548120 -0.0051604753029986456 3.6000000002658217 -0.40000000006953490 -6.5875975363755774 
1000.0000000000000 10000.000000000000 -666.66666666670005 -17725440.603598885 8504067.5878416393 -16346979.464263655 -9.4909035020357866e-06 -0.00042734628449790949 -0.0051594716939282236 3.6000000002654917 0.0000000000000000 -6.5875975363646608 
2000.0000000000000 10000.000000000000 -500.00000000000000 -16572917.280925097 9656590.9127599597 -12260760.403225118 -2.0999762328956295e-05 -0.00034826315752090688 -0.0054813941193998152 3.2000000006033282 0.0000000000000000 -6.6398008836802784 
2000.0000000000000 9000.0000000000000 -500.00000000000000 -16572917.280774478 9656590.9132208452 -12260760.403046923 -4.1223602556592846e-05 -0.00064458649771743546 -0.0054858312112363973 3.2000000006039895 -0.40000000008212572 -6.6398008836915201 
1000.0000000000000 9000.0000000000000 -500.00000000000000 -16572917.274268098 9656590.9154553637 -12260760.399231287 -2.1350269943272207e-05 -0.00064905533940375396 -0.0044102691219575375 3.6000000003566544 -0.40000000008111913 -6.6398008825745620 
1000.0000000000000 10000.000000000000 -500.00000000000000 -16572917.274421176 9656590.9149922337 -12260760.399404565 -1.1392504618684460e-05 -0.00035070727109020916 -0.0044098894429103778 3.6000000003562658 0.0000000000000000 -6.6398008825639350 
2000.0000000000000 10000.000000000000 -333.33333333330000 -15420290.791131595 10809217.401787646 -8174175.5810707593 -2.4843846052021426e-05 -0.00025763892197895101 -0.0041667831554650777 3.2000000007648595 0.0000000000000000 -6.6770906091538995 
2000.0000000000000 9000.0000000000000 -333.33333333330000 -15420290.790969560 10809217.402337372 -8174175.5809396487 -4.8751246844878903e-05 -0.00047837696469705653 -0.0041699770251076677 3.2000000007656442 -0.40000000009212616 -6.6770906091650559 
1000.0000000000000 9000.0000000000000 -333.33333333330000 -15420290.782741779 10809217.404722873 -8174175.5781277707 -2.5047809155707714e-05 -0.00048133084977129920 -0.0034344924849766287 3.6000000004592638 -0.40000000009095027 -6.6770906080421479 
1000.0000000000000 10000.000000000000 -333.33333333330000 -15420290.782906465 10809217.404170875 -8174175.5782540562 -1.3158051068180412e-05 -0.00025915870043022250 -0.0034347061316803420 3.6000000004588291 0.0000000000000000 -6.6770906080315253 
2000.0000000000000 10000.000000000000 -166.66666666670000 -14267561.130088251 11961947.062034935 -4087224.9697196451 -2.9112947649327186e-05 -0.00015037467558793330 -0.0025380700185729521 3.2000000009437457 0.0000000000000000 -6.6994653789748897 
2000.0000000000000 9000.0000000000000 -166.66666666670000 -14267561.129914099 11961947.062683661 -4087224.9696467365 -5.7104973900760751e-05 -0.00028049545342866535 -0.0025398244043219340 3.2000000009446654 -0.40000000010014874 -6.6994653789863090 
1000.0000000000000 9000.0000000000000 -166.66666666670000 -14267561.119610790 11961947.065254577 -4087224.9680345962 -2.8543741508772299e-05 -0.00028190108030450831 -0.0021799401144512376 3.6000000005760024 -0.40000000009880982 -6.6994653778649811 
1000.0000000000000 10000.000000000000 -166.66666666670000 -14267561.119787486 11961947.064603373 -4087224.9681042400 -1.4774634276694275e-05 -0.00015100858949134401 -0.0021805774581437954 3.6000000005755344 0.0000000000000000 -6.6994653778540352 
2000.0000000000000 10000.000000000000 0.0000000000000000 -13691170.505605640 12538337.686115269 -2043658.2126528574 -3.1359308532740889e-05 -9.2354432251689984e-05 -0.0016392732493891913 3.2000000011423451 0.0000000000000000 -6.7069238581089046 
2000.0000000000000 9000.0000000000000 0.0000000000000000 -13691170.505425248 12538337.686816100 -2043658.2126119304 -6.1499854683564009e-05 -0.00017318141260897792 -0.0016402640279933301 3.2000000011434135 -0.40000000010595888 -6.7069238581210042 
1000.0000000000000 9000.0000000000000 0.0000000000000000 -13691170.493985321 12538337.689489868 -2043658.2116519741 -3.0240511660108402e-05 -0.00017382001990806355 -0.0014754256399706588 3.6000000007099482 -0.40000000010446096 -6.7069238570104721 
1000.0000000000000 10000.000000000000 0.0000000000000000 -13691170.494168133 12538337.688786397 -2043658.2116908296 -1.5546078212022392e-05 -9.2566509861582012e-05 -0.0014762113532868462 3.6000000007094597 0.0000000000000000 -6.7069238569988192 
8000.0000000000000 8000.0000000000000 -1333.3333333329999 -22334502.488172181 3895005.7096136361 -32688198.834816605 -2.5001592052661522e-05 -0.0016534767283081177 0.0013552816917708590 0.80000000002787286 -0.80000000002795002 -6.2296746435670816 
8000.0000000000000 9000.0000000000000 -1333.3333333329999 -22334502.488403942 3895005.7092891368 -32688198.835529044 -7.9116400791754375e-06 -0.0010258211312996423 0.0013839492684550858 0.80000000002754479 -0.40000000001265740 -6.2296746434876402 
9000.0000000000000 9000.0000000000000 -1333.3333333329999 -22334502.488125771 3895005.7095093257 -32688198.834870346 -6.8957316737855637e-06 -0.0010129027159194350 0.00087086807253092084 0.40000000001270697 -0.40000000001291308 -6.2296746435636345 
9000.0000000000000 8000.0000000000000 -1333.3333333329999 -22334502.487908028 3895005.7098430931 -32688198.834169798 -2.1002803316094796e-05 -0.0016110182437077607 0.00084378916168241351 0.40000000001304731 -0.80000000002886940 -6.2296746436459447 
8000.0000000000000 8000.0000000000000 -1500.0000000000000 -23486510.142367445 2742998.0540622207 -36772589.610954627 -1.6605608814195859e-05 -0.0017010657608989245 0.0013983363973084741 0.79999999999247950 -0.79999999998870996 -6.1029232131527902 
8000.0000000000000 9000.0000000000000 -1500.0000000000000 -23486510.142575610 2742998.0538418819 -36772589.611649193 -3.0849399905663554e-06 -0.0010611232844727964 0.0014266922172678604 0.79999999999238347 -0.39999999999399694 -6.1029232130705786 
9000.0000000000000 9000.0000000000000 -1500.0000000000000 -23486510.142374784 2742998.0540386946 -36772589.611000396 -4.2583600739572252e-06 -0.0010487910228349820 0.00090311825490882946 0.39999999999583102 -0.39999999999412233 -6.1029232131491105 
9000.0000000000000 8000.0000000000000 -1500.0000000000000 -23486510.142179277 2742998.0542703508 -36772589.610317960 -1.6584068488631462e-05 -0.0016576893564136780 0.00087534393001062634 0.39999999999605235 -0.79999999998942151 -6.1029232132340985 
8000.0000000000000 8000.0000000000000 -1166.6666666670001 -21182391.718073379 5047116.4810623471 -28603442.465942919 -3.3979447004256080e-05 -0.0015840022250555869 0.0012953256483627215 0.80000000006212424 -0.80000000006590966 -6.3415191260153136 
8000.0000000000000 9000.0000000000000 -1166.6666666670001 -21182391.718327284 5047116.4806168536 -28603442.466649663 -1.3039714663989927e-05 -0.00097662808560811717 0.0013237467349878512 0.80000000006154803 -0.40000000003048891 -6.3415191259384907 
9000.0000000000000 9000.0000000000000 -1166.6666666670001 -21182391.717957776 5047116.4808591781 -28603442.466002144 -9.7572398208031833e-06 -0.00096354609914003398 0.00082760350416628413 0.40000000002884217 -0.40000000003088459 -6.3415191260120869 
9000.0000000000000 8000.0000000000000 -1166.6666666670001 -21182391.717719622 5047116.4813117646 -28603442.465307079 -2.5865522265779594e-05 -0.0015431201590276791 0.00080154087316794246 0.40000000002931413 -0.80000000006705574 -6.3415191260918613 
8000.0000000000000 8000.0000000000000 -1000.0000000000000 -20030177.822830543 6199330.3776450520 -24518320.471576907 -4.3763425641765101e-05 -0.0014886740267555192 0.0012151996224837515 0.80000000009505556 -0.80000000010235417 -6.4384553261817974 
8000.0000000000000 9000.0000000000000 -1000.0000000000000 -20030177.823105719 6199330.3770595957 -24518320.472254310 -1.8541162413388061e-05 -0.00091152802846853676 0.0012427451998859450 0.80000000009421179 -0.40000000004735886 -6.4384553261073298 
9000.0000000000000 9000.0000000000000 -1000.0000000000000 -20030177.822628833 6199330.3773234971 -24518320.471638624 -1.2921942369856527e-05 -0.00089874242021727667 0.00077157391322816248 0.40000000004413094 -0.40000000004790698 -6.4384553261787634 
9000.0000000000000 8000.0000000000000 -1000.0000000000000 -20030177.822371691 6199330.3779138578 -24518320.470972620 -3.1397622887818118e-05 -0.0014501320975311917 0.00074692023822286232 0.40000000004475122 -0.80000000010375438 -6.4384553262562596 
8000.0000000000000 8000.0000000000000 -833.33333333329995 -18877860.793206565 7351647.4085946074 -20432832.818974543 -5.4612817247550556e-05 -0.0013630107389710339 0.0011111654182079070 0.80000000012647532 -0.80000000013702954 -6.5204819096291464 
8000.0000000000000 9000.0000000000000 -833.33333333329995 -18877860.793502811 7351647.4078479549 -20432832.819599207 -2.4499986257762857e-05 -0.00082827490274905719 0.0011371287658362016 0.80000000012533889 -0.40000000006312575 -6.5204819095566497 
9000.0000000000000 9000.0000000000000 -833.33333333329995 -18877860.792900376 7351647.4081335943 -20432832.819035567 -1.6478597265189028e-05 -0.00081629364253882407 0.00070078926176446584 0.40000000005845943 -0.40000000006384168 -6.5204819096262634 
9000.0000000000000 8000.0000000000000 -833.33333333329995 -18877860.792625234 7351647.4088830277 -20432832.818421938 -3.7854891775048656e-05 -0.0013276940612657025 0.00067802242554955135 0.40000000005925040 -0.80000000013872286 -6.5204819097018518 
8000.0000000000000 8000.0000000000000 -666.66666666670005 -17725440.619964637 8504067.5831429344 -16346979.475393733 -6.6824784585345500e-05 -0.0012019843046982993 0.00097898422578008605 0.80000000015617179 -0.80000000016966066 -6.5875975418014567 
8000.0000000000000 9000.0000000000000 -666.66666666670005 -17725440.620282371 8504067.5822116584 -16346979.475942206 -3.1013602796803205e-05 -0.00072438158365817731 0.0010025673656977913 0.80000000015471262 -0.40000000007763697 -6.5875975417304327 
9000.0000000000000 9000.0000000000000 -666.66666666670005 -17725440.619534053 8504067.5825198963 -16346979.475450573 -2.0524309544165740e-05 -0.00071374868881368496 0.00061300580809816869 0.40000000007170311 -0.40000000007853981 -6.5875975417986732 
9000.0000000000000 8000.0000000000000 -666.66666666670005 -17725440.619241476 8504067.5834520776 -16346979.474912431 -4.5523789221628877e-05 -0.0011709319171654175 0.00059271019744976160 0.40000000007269326 -0.80000000017169726 -6.5875975418728405 
8000.0000000000000 8000.0000000000000 -500.00000000000000 -16572917.293865453 9656590.9105236493 -12260760.408084821 -8.0740628125472563e-05 -0.0010000106661754344 0.00081389987882963242 0.80000000018391115 -0.80000000019994399 -6.6398008880232462 
8000.0000000000000 9000.0000000000000 -500.00000000000000 -16572917.294205779 9656590.9093820490 -12260760.408533717 -3.8194627490859119e-05 -0.00059711834783683084 0.00083418323527187626 0.80000000018209072 -0.40000000009072684 -6.6398008879530730 
9000.0000000000000 9000.0000000000000 -500.00000000000000 -16572917.293288970 9656590.9097145237 -12260760.408133710 -2.5165787133046545e-05 -0.00058841311946507095 0.00050570922518295564 0.40000000008372488 -0.40000000009183884 -6.6398008880204893 
9000.0000000000000 8000.0000000000000 -500.00000000000000 -16572917.292979129 9656590.9108555261 -12260760.407693977 -5.4722244184285607e-05 -0.00097444768394402449 0.00048859677129322330 0.40000000008494874 -0.80000000020238793 -6.6398008880938448 
8000.0000000000000 8000.0000000000000 -333.33333333330000 -15420290.805670282 10809217.399968879 -8174175.5843015043 -9.6753992544382173e-05 -0.00075095651337451466 0.00061066420287271669 0.80000000020943041 -0.80000000022754492 -6.6770906134993941 
8000.0000000000000 9000.0000000000000 -333.33333333330000 -15420290.806035044 10809217.398588909 -8174175.5846277243 -4.6174784377568141e-05 -0.00044351987179454066 0.00062657890357478046 0.80000000020720141 -0.40000000010221337 -6.6770906134293275 
9000.0000000000000 9000.0000000000000 -333.33333333330000 -15420290.804924805 10809217.398948038 -8174175.5843387032 -3.0517759603103087e-05 -0.00043736040094575362 0.00037612938896533363 0.40000000009437120 -0.40000000010356068 -6.6770906134965760 
9000.0000000000000 8000.0000000000000 -333.33333333330000 -15420290.804597449 10809217.400326427 -8174175.5840199087 -6.5800601987210623e-05 -0.00073232467677841252 0.00036303932791267965 0.40000000009587039 -0.80000000023047324 -6.6770906135698453 
8000.0000000000000 8000.0000000000000 -166.66666666670000 -14267561.146139942 11961947.060710110 -4087224.9712974709 -0.00011532338649647329 -0.00044809587703447274 0.00036353657791007605 0.80000000023243523 -0.80000000025209050 -6.6994653833152942 
8000.0000000000000 9000.0000000000000 -166.66666666670000 -14267561.146531649 11961947.059061408 -4087224.9714780049 -5.5109929254948323e-05 -0.00026038687043216920 0.00037379159885959082 0.80000000022973761 -0.40000000011189762 -6.6994653832444708 
9000.0000000000000 9000.0000000000000 -166.66666666670000 -14267561.145200681 11961947.059450392 -4087224.9713193211 -3.6696069124211897e-05 -0.00025742804548954966 0.00022119696100319215 0.40000000010347087 -0.40000000011350989 -6.6994653833123223 
9000.0000000000000 8000.0000000000000 -166.66666666670000 -14267561.144855190 11961947.061097233 -4087224.9711435949 -7.9136043971803706e-05 -0.00043810085354240697 0.00021310106175069353 0.40000000010529291 -0.80000000025559714 -6.6994653833863413 
8000.0000000000000 8000.0000000000000 0.0000000000000000 -13691170.522385988 12538337.685058687 -2043658.2133967509 -0.00012530897112549160 -0.00028233507707513446 0.00022825157904779475 0.80000000025259455 -0.80000000027316620 -6.7069238624368719 
8000.0000000000000 9000.0000000000000 0.0000000000000000 -13691170.522791877 12538337.683267735 -2043658.2134987041 -5.9837339030617372e-05 -0.00016102260873868596 0.00023532107571211836 0.80000000024934925 -0.40000000011956066 -6.7069238623642953 
9000.0000000000000 9000.0000000000000 0.0000000000000000 -13691170.521343421 12538337.683672544 -2043658.2134100315 -4.0006088159693680e-05 -0.00015983250661911463 0.00013698869454939510 0.40000000011083053 -0.40000000012146952 -6.7069238624336291 
9000.0000000000000 8000.0000000000000 0.0000000000000000 -13691170.520988658 12538337.685461693 -2043658.2133113134 -8.6416547304772555e-05 -0.00027711932590166285 0.00013164940153769858 0.40000000011302717 -0.80000000027736251 -6.7069238625093641 
8000.0000000000000 7000.0000000000000 -1333.3333333329999 -22334502.487915698 3895005.7099049580 -32688198.833996490 -5.3855564585535460e-05 -0.0014952306727418526 0.0012807053459190298 0.80000000002907889 -1.2000000000461417 -6.2296746437578197 
7000.0000000000000 7000.0000000000000 -1333.3333333329999 -22334502.488136832 3895005.7096504830 -32688198.834814154 -2.1065574011800754e-05 -0.0015565101183439120 0.0011929003137412563 1.2000000000450572 -1.2000000000446096 -6.2296746435733219 
7000.0000000000000 8000.0000000000000 -1333.3333333329999 -22334502.488408726 3895005.7093602782 -32688198.835636862 -1.3590289551151726e-05 -0.0016794104610262767 0.0012066917875031670 1.2000000000445876 -0.80000000002738847 -6.2296746433878747 
8000.0000000000000 7000.0000000000000 -1500.0000000000000 -23486510.142147362 2742998.0542362761 -36772589.610207714 -4.3389252308762019e-05 -0.0015146177155822551 0.0013195302570481167 0.79999999999339100 -1.1999999999835211 -6.1029232133468394 
7000.0000000000000 7000.0000000000000 -1500.0000000000000 -23486510.142285187 2742998.0540132718 -36772589.610980399 -5.8447460371844975e-06 -0.0015797062266907588 0.0012076822050768696 1.1999999999888182 -1.1999999999823858 -6.1029232131592375 
7000.0000000000000 8000.0000000000000 -1500.0000000000000 -23486510.142518282 2742998.0538421120 -36772589.611730009 -2.5503259465735640e-06 -0.0017265208644587403 0.0012206416980835727 1.1999999999887814 -0.79999999998848481 -6.1029232129704249 
8000.0000000000000 7000.0000000000000 -1166.6666666670001 -21182391.717782758 5047116.4814972980 -28603442.465086479 -6.5146505093819027e-05 -0.0014573322108417180 0.0012254650057010844 0.80000000006364858 -1.2000000001077689 -6.3415191262027184 
7000.0000000000000 7000.0000000000000 -1166.6666666670001 -21182391.718108114 5047116.4812139608 -28603442.465915043 -3.7000370917682763e-05 -0.0015142480065294575 0.0011634592536468797 1.2000000001003739 -1.2000000001058171 -6.3415191260213124 
7000.0000000000000 8000.0000000000000 -1166.6666666670001 -21182391.718416855 5047116.4807781922 -28603442.466774292 -2.5099783652782678e-05 -0.0016097218667248806 0.0011774480444281426 1.2000000000994533 -0.80000000006499417 -6.3415191258392376 
8000.0000000000000 7000.0000000000000 -1000.0000000000000 -20030177.822507117 6199330.3782538194 -24518320.470721673 -7.7727476780770893e-05 -0.0013954776576400446 0.0011506608461723552 0.80000000009693462 -1.2000000001681366 -6.4384553263660340 
7000.0000000000000 7000.0000000000000 -1000.0000000000000 -20030177.822960600 6199330.3779432159 -24518320.471527789 -5.3704600055643167e-05 -0.0014473863291463787 0.0011149882236996189 1.2000000001545716 -1.2000000001657309 -6.4384553261875492 
7000.0000000000000 8000.0000000000000 -1000.0000000000000 -20030177.823305387 6199330.3773315214 -24518320.472386468 -3.7093332783643916e-05 -0.0015134393330660848 0.0011285450346206749 1.2000000001531823 -0.80000000010106298 -6.4384553260086665 
8000.0000000000000 7000.0000000000000 -833.33333333329995 -18877860.792850643 7351647.4094113680 -20432832.818158660 -9.2134684480744812e-05 -0.0013033867776070249 0.0010527233108065732 0.80000000012875894 -1.2000000002269517 -6.5204819098105764 
7000.0000000000000 7000.0000000000000 -833.33333333329995 -18877860.793459453 7351647.4090738846 -20432832.818910066 -7.1238494493992640e-05 -0.0013495324313412451 0.0010424530849213658 1.2000000002074360 -1.2000000002240470 -6.5204819096346620 
7000.0000000000000 8000.0000000000000 -833.33333333329995 -18877860.793840665 7351647.4082519943 -20432832.819730222 -4.9587846359661999e-05 -0.0013860402248285274 0.0010549674898858584 1.2000000002055591 -0.80000000013533690 -6.5204819094586117 
8000.0000000000000 7000.0000000000000 -666.66666666670005 -17725440.619575430 8504067.5842060000 -16346979.474655978 -0.00010898093917384676 -0.0011738881732376231 0.00092764895739313135 0.80000000015892703 -1.2000000002838898 -6.5875975419806414 
7000.0000000000000 7000.0000000000000 -666.66666666670005 -17725440.620370161 8504067.5838408507 -16346979.475321159 -8.9664850964285949e-05 -0.0012133622413917249 0.00094008201595166898 1.2000000002587254 -1.2000000002804259 -6.5875975418067938 
7000.0000000000000 8000.0000000000000 -666.66666666670005 -17725440.620789491 8504067.5827704296 -16346979.476064024 -6.2600103617519516e-05 -0.0012224339017707813 0.00095097982382186155 1.2000000002563425 -0.80000000016753492 -6.5875975416330030 
8000.0000000000000 7000.0000000000000 -500.00000000000000 -16572917.293441061 9656590.9118755702 -12260760.407464705 -0.00012896460043213215 -0.00099888908346698136 0.00077099657348844589 0.80000000018722361 -1.2000000003385860 -6.6398008882009583 
7000.0000000000000 7000.0000000000000 -500.00000000000000 -16572917.294455841 9656590.9114807546 -12260760.408012776 -0.00010904862370208075 -0.0010305870003632801 0.00080127508880916928 1.2000000003081643 -1.2000000003344875 -6.6398008880284971 
7000.0000000000000 8000.0000000000000 -500.00000000000000 -16572917.294916358 9656590.9101193417 -12260760.408638449 -7.6148317501305673e-05 -0.0010169703069900105 0.00081004267824594744 1.2000000003052564 -0.80000000019734663 -6.6398008878561825 
8000.0000000000000 7000.0000000000000 -333.33333333330000 -15420290.805207653 10809217.401656531 -8174175.5838394491 -0.00015286932821118068 -0.00076933736438829540 0.00057791809658997665 0.80000000021340878 -1.2000000003906270 -6.6770906136766248 
7000.0000000000000 7000.0000000000000 -333.33333333330000 -15420290.806480149 10809217.401228871 -8174175.5842398722 -0.00012945331587829560 -0.00079191650643356992 0.00061852972999224107 1.2000000003554361 -1.2000000003858016 -6.6770906135046948 
7000.0000000000000 8000.0000000000000 -333.33333333330000 -15420290.806986440 10809217.399529763 -8174175.5847072517 -9.0254014450798868e-05 -0.00076342862223478857 0.00062473315629667616 1.2000000003519842 -0.80000000022442719 -6.6770906133328500 
8000.0000000000000 7000.0000000000000 -166.66666666670000 -14267561.145634875 11961947.062784772 -4087224.9710349785 -0.00018156032327353128 -0.00047520382653299563 0.00034318636487958953 0.80000000023721340 -1.2000000004395452 -6.6994653834932691 
7000.0000000000000 7000.0000000000000 -166.66666666670000 -14267561.147206057 11961947.062320031 -4087224.9712572601 -0.00015094095182763785 -0.00048703575900036362 0.00038337101383316814 1.2000000004001776 -1.2000000004338836 -6.6994653833208346 
7000.0000000000000 8000.0000000000000 -166.66666666670000 -14267561.147764370 11961947.060232153 -4087224.9715238460 -0.00010494903457334426 -0.00045495479575379460 0.00038666174377614414 1.2000000003961595 -0.80000000024839046 -6.6994653831482163 
8000.0000000000000 7000.0000000000000 0.0000000000000000 -13691170.521858506 12538337.687340232 -2043658.2132445597 -0.00019721561839977514 -0.00031067785481000087 0.00021473076702699688 0.80000000025833595 -1.2000000004848110 -6.7069238626170504 
7000.0000000000000 7000.0000000000000 0.0000000000000000 -13691170.523589684 12538337.686855750 -2043658.2133701870 -0.00016196326659818387 -0.00031669078895891296 0.00025156400862413615 1.2000000004419746 -1.2000000004781888 -6.7069238624428982 
7000.0000000000000 8000.0000000000000 0.0000000000000000 -13691170.524175776 12538337.684560174 -2043658.2135255502 -0.00011244898366141231 -0.00028608812732077202 0.00025332319885508123 1.2000000004373652 -0.80000000026880058 -6.7069238622680114 
8000.0000000000000 6000.0000000000000 -1333.3333333329999 -22334502.487823330 3895005.7098374730 -32688198.833614465 -8.0977677585799326e-05 -0.00022813448021428339 0.0011347451942939489 0.80000000003159122 -1.6000000000637244 -6.2296746441357431 
8000.0000000000000 5000.0000000000000 -1333.3333333329999 -22334502.488132078 3895005.7090841099 -32688198.834400874 -8.6129187905970014e-05 0.0022557478691646025 0.00090072772658778043 0.80000000003492200 -2.0000000000728666 -6.2296746447801885 
7000.0000000000000 5000.0000000000000 -1333.3333333329999 -22334502.488279458 3895005.7088517952 -32688198.835353136 -2.5681375914467906e-05 0.0020986173837614433 0.0011322541988395950 1.2000000000466053 -2.0000000000700346 -6.2296746445716487 
7000.0000000000000 6000.0000000000000 -1333.3333333329999 -22334502.488013357 3895005.7095895759 -32688198.834479891 -2.5904062264879665e-05 -0.00033616510396445481 0.0011674828128899841 1.2000000000457953 -1.6000000000612238 -6.2296746439418111 
8000.0000000000000 6000.0000000000000 -1500.0000000000000 -23486510.142097026 2742998.0541174165 -36772589.609997213 -6.8022803338671796e-05 -0.00016773811505998748 0.0011612944734920600 0.79999999999558657 -1.5999999999759280 -6.1029232137266725 
8000.0000000000000 5000.0000000000000 -1500.0000000000000 -23486510.142441571 2742998.0534767467 -36772589.611089334 -6.8351033812902588e-05 0.0024329714340841661 0.00090832614672741330 0.79999999999849070 -1.9999999999615512 -6.1029232143690528 
7000.0000000000000 5000.0000000000000 -1500.0000000000000 -23486510.142513543 2742998.0532725425 -36772589.612009853 -6.0553378679723427e-06 0.0022645112442653231 0.0011457580007725174 1.1999999999892188 -1.9999999999593248 -6.1029232141558092 
7000.0000000000000 6000.0000000000000 -1500.0000000000000 -23486510.142206911 2742998.0538992500 -36772589.610824257 -7.7158470248390041e-06 -0.00028440015728632652 0.0011819776850285520 1.1999999999890207 -1.5999999999738876 -6.1029232135290181 
8000.0000000000000 6000.0000000000000 -1166.6666666670001 -21182391.717651330 5047116.4815121144 -28603442.464577664 -9.5022936651638031e-05 -0.00028890198465733683 0.0010920377097786711 0.80000000006650751 -1.6000000001518229 -6.3415191265782695 
8000.0000000000000 5000.0000000000000 -1166.6666666670001 -21182391.717927694 5047116.4806710836 -28603442.465099826 -0.00010546098788241310 0.0020412253056131978 0.00087760906968390958 0.80000000007030359 -2.0000000001868368 -6.3415191272235836 
7000.0000000000000 5000.0000000000000 -1166.6666666670001 -21182391.718169942 5047116.4804141885 -28603442.466045901 -4.6460243159409091e-05 0.0018963726599809916 0.0011055122856034670 1.2000000001031281 -2.0000000001833649 -6.3415191270195752 
7000.0000000000000 6000.0000000000000 -1166.6666666670001 -21182391.717941858 5047116.4812374599 -28603442.465446133 -4.5048735653186418e-05 -0.00038777515469952384 0.0011390041349673341 1.2000000001016728 -1.6000000001488339 -6.3415191263879631 
8000.0000000000000 6000.0000000000000 -1000.0000000000000 -20030177.822338190 6199330.3783873329 -24518320.470131729 -0.00011086386217257454 -0.00034432596092395763 0.0010302015656578145 0.80000000010019279 -1.6000000002400421 -6.4384553267389766 
8000.0000000000000 5000.0000000000000 -1000.0000000000000 -20030177.822583843 6199330.3774899859 -24518320.470431942 -0.00012714279572057391 0.0017929291362137835 0.00083623467616974968 0.80000000010452321 -2.0000000003035159 -6.4384553273841911 
7000.0000000000000 5000.0000000000000 -1000.0000000000000 -20030177.822942823 6199330.3772111740 -24518320.471335556 -6.8513433287582828e-05 0.0016614897571896456 0.0010611973269553047 1.2000000001585958 -2.0000000002993517 -6.4384553271843581 
7000.0000000000000 6000.0000000000000 -1000.0000000000000 -20030177.822752349 6199330.3780878643 -24518320.470969137 -6.5250120829104467e-05 -0.00043337800611530737 0.0010921870965361269 1.2000000001564592 -1.6000000002365200 -6.4384553265520381 
8000.0000000000000 6000.0000000000000 -833.33333333329995 -18877860.792644370 7351647.4097056780 -20432832.817534599 -0.00012934202824623381 -0.00038759976333629812 0.00094595435304567629 0.80000000013249573 -1.6000000003281725 -6.5204819101809184 
8000.0000000000000 5000.0000000000000 -833.33333333329995 -18877860.792859096 7351647.4087903164 -20432832.817656506 -0.00015222758272445436 0.0015155760431044643 0.00077375659910405555 0.80000000013746597 -2.0000000004229399 -6.5204819108252980 
7000.0000000000000 5000.0000000000000 -833.33333333329995 -18877860.793359090 7351647.4084912101 -20432832.818483405 -9.1969306504963161e-05 0.0013989840130112408 0.00099428455682256289 1.2000000002127988 -2.0000000004180065 -6.5204819106291021 
7000.0000000000000 6000.0000000000000 -833.33333333329995 -18877860.793208230 7351647.4093821552 -20432832.818308339 -8.6617901616410208e-05 -0.00046595765653812581 0.0010219892965755706 1.2000000002099425 -1.6000000003240520 -6.5204819099969180 
8000.0000000000000 6000.0000000000000 -666.66666666670005 -17725440.619330350 8504067.5847093388 -16346979.474046076 -0.00015145188973860396 -0.00041072554017695121 0.00083571804855796152 0.80000000016325123 -1.6000000004159669 -6.5875975423486484 
8000.0000000000000 5000.0000000000000 -666.66666666670005 -17725440.619511805 8504067.5838219523 -16346979.474035019 -0.00018208717082383044 0.0012152357116416192 0.00068724547223925048 0.80000000016901318 -2.0000000005451142 -6.5875975429917153 
7000.0000000000000 5000.0000000000000 -666.66666666670005 -17725440.620179433 8504067.5835030098 -16346979.474753002 -0.00011696774474847477 0.0011154240152080883 0.00089898668507916435 1.2000000002655025 -2.0000000005393033 -6.5875975427984539 
7000.0000000000000 6000.0000000000000 -666.66666666670005 -17725440.620072983 8504067.5843612812 -16346979.474724878 -0.00010927027729715723 -0.00047721525206700422 0.00092262125100539679 1.2000000002618825 -1.6000000004111605 -6.5875975421669954 
8000.0000000000000 6000.0000000000000 -500.00000000000000 -16572917.293154117 9656590.9126424864 -12260760.406919125 -0.00017835774203593712 -0.00040439141391159753 0.00069561801453519028 0.80000000019227868 -1.6000000005031294 -6.6398008885671675 
8000.0000000000000 5000.0000000000000 -500.00000000000000 -16572917.293297617 9656590.9118375406 -12260760.406822760 -0.00021847054246119880 0.00089960224197345581 0.00057371427207275367 0.80000000019903772 -2.0000000006699996 -6.6398008892087130 
7000.0000000000000 5000.0000000000000 -500.00000000000000 -16572917.294161759 9656590.9114978015 -12260760.407401897 -0.00014366382794784181 0.00081913269563412320 0.00076868985630037070 1.2000000003164375 -2.0000000006631633 -6.6398008890175158 
7000.0000000000000 6000.0000000000000 -500.00000000000000 -16572917.294107681 9656590.9122680724 -12260760.407473069 -0.00013333241434653484 -0.00045748609123062695 0.00078745664885080692 1.2000000003120066 -1.6000000004975232 -6.6398008883871054 
8000.0000000000000 6000.0000000000000 -333.33333333330000 -15420290.804874092 10809217.402748128 -8174175.5834106021 -0.00021139901152922319 -0.00035790088585287751 0.00052150931955009848 0.80000000021937567 -1.6000000005893062 -6.6770906140418660 
8000.0000000000000 5000.0000000000000 -333.33333333330000 -15420290.804972392 10809217.402089337 -8174175.5832795147 -0.00026354960987822390 0.00057820321343433683 0.00043015574004030577 0.80000000022740203 -2.0000000007974990 -6.6770906146819708 
7000.0000000000000 5000.0000000000000 -333.33333333330000 -15420290.806064019 10809217.401726142 -8174175.5836925013 -0.00017223080558379623 0.00052043520540115699 0.00059583942528697894 1.2000000003652931 -2.0000000007894418 -6.6770906144918261 
7000.0000000000000 6000.0000000000000 -333.33333333330000 -15420290.806073820 10809217.402344115 -8174175.5838110810 -0.00015893264519894511 -0.00039563943904119938 0.00060893388813380140 1.2000000003600000 -1.6000000005827579 -6.6770906138624762 
8000.0000000000000 6000.0000000000000 -166.66666666670000 -14267561.145248123 11961947.064268962 -4087224.9707777272 -0.00025209565892067522 -0.00025911379379823195 0.00030903206632203927 0.80000000024431639 -1.6000000006740724 -6.6994653838586791 
8000.0000000000000 5000.0000000000000 -166.66666666670000 -14267561.145291146 11961947.063830035 -4087224.9706660071 -0.00031995656788013326 0.00026265725198967524 0.00025361720260249455 0.80000000025395557 -2.0000000009274408 -6.6994653844977501 
7000.0000000000000 5000.0000000000000 -166.66666666670000 -14267561.146642908 11961947.063438825 -4087224.9708881984 -0.00020286287731672873 0.00023190798422272912 0.00037188970440571234 1.2000000004117100 -2.0000000009179129 -6.6994653843075067 
7000.0000000000000 6000.0000000000000 -166.66666666670000 -14267561.146732090 11961947.063830642 -4087224.9709973158 -0.00018619705626290119 -0.00027900400198087571 0.00037850580932778562 1.2000000004054991 -1.6000000006664075 -6.6994653836788931 
8000.0000000000000 6000.0000000000000 0.0000000000000000 -13691170.521443294 12538337.689038539 -2043658.2130871941 -0.00027455955067770234 -0.00019503675111503765 0.00019264392469640231 0.80000000026684226 -1.6000000007569222 -6.7069238629840955 
8000.0000000000000 5000.0000000000000 0.0000000000000000 -13691170.521455793 12538337.688729266 -2043658.2129991506 -0.00035135076965742059 0.00010794493456463864 0.00015674041978805579 0.80000000027852858 -2.0000000010595631 -6.7069238636228929 
7000.0000000000000 5000.0000000000000 0.0000000000000000 -13691170.522945957 12538337.688322667 -2043658.2131201080 -0.00021872037552328079 9.1903852381108747e-05 0.00024601216588582286 1.2000000004552744 -2.0000000010482468 -6.7069238634312711 
7000.0000000000000 6000.0000000000000 0.0000000000000000 -13691170.523079235 12538337.688581701 -2043658.2132096165 -0.00020026059075886621 -0.00020531139962309250 0.00024918304066676237 1.2000000004480886 -1.6000000007479358 -6.7069238628027028 
5000.0000000000000 5000.0000000000000 -1333.3333333329999 -22334502.487669777 3895005.7090397142 -32688198.835077472 -3.9861231639927278e-07 0.0023240949993359101 -0.0017890565015789366 2.0000000000635261 -2.0000000000730975 -6.2296746436661161 
6000.0000000000000 6000.0000000000000 -1333.3333333329999 -22334502.487970218 3895005.7095062728 -32688198.834949888 2.3356746062426052e-05 -0.00029584458606611152 0.00024630278150144732 1.6000000000585433 -1.6000000000621450 -6.2296746435977335 
6000.0000000000000 5000.0000000000000 -1333.3333333329999 -22334502.488271866 3895005.7087796312 -32688198.835679457 3.0645481930781837e-05 0.0021716982617018764 0.00039846741822214719 1.6000000000570032 -2.0000000000713105 -6.2296746442303279 
5000.0000000000000 5000.0000000000000 -1500.0000000000000 -23486510.141956732 2742998.0535368263 -36772589.611295760 1.8397097383424726e-05 0.0025130974877347083 -0.0019515928206804028 1.9999999999635825 -1.9999999999636127 -6.1029232132512954 
6000.0000000000000 6000.0000000000000 -1500.0000000000000 -23486510.142127782 2742998.0538556837 -36772589.611158744 4.4085530748637580e-05 -0.00023736445938265323 0.00019366018371788922 1.5999999999798167 -1.5999999999754804 -6.1029232131830717 
6000.0000000000000 5000.0000000000000 -1500.0000000000000 -23486510.142470554 2742998.0532382871 -36772589.612184457 4.9700873186422882e-05 0.0023465640895840786 0.00036254730591372009 1.5999999999775634 -1.9999999999612219 -6.1029232138138516 
5000.0000000000000 5000.0000000000000 -1166.6666666670001 -21182391.717560664 5047116.4805322848 -28603442.466128118 -1.9720343362254208e-05 0.0020996617892711940 -0.0015971781419232059 2.0000000001656240 -2.0000000001851448 -6.3415191261146138 
6000.0000000000000 6000.0000000000000 -1166.6666666670001 -21182391.717960808 5047116.4811178287 -28603442.466008909 1.8670584881992713e-06 -0.00035332529718652597 0.00029784130655272436 1.6000000001374042 -1.6000000001490522 -6.3415191260461370 
6000.0000000000000 5000.0000000000000 -1166.6666666670001 -21182391.718224470 5047116.4803072847 -28603442.466483451 1.0868494975903245e-05 0.0019611313975572940 0.00043427901311282358 1.6000000001366033 -2.0000000001839826 -6.3415191266794020 
5000.0000000000000 5000.0000000000000 -1000.0000000000000 -20030177.822398968 6199330.3772638552 -24518320.471692756 -3.9229421433098576e-05 0.0018431359171851864 -0.0013803424841364960 2.0000000002698681 -2.0000000002998264 -6.4384553262811499 
6000.0000000000000 6000.0000000000000 -1000.0000000000000 -20030177.822864085 6199330.3779343199 -24518320.471582193 -1.9955447076814854e-05 -0.00040405401708286989 0.00034324985416472203 1.6000000002162431 -1.6000000002360153 -6.4384553262126349 
6000.0000000000000 5000.0000000000000 -1000.0000000000000 -20030177.823091354 6199330.3770715725 -24518320.471843638 -9.1545307500271789e-06 0.0017184510288266027 0.00046478559899748822 1.6000000002161876 -2.0000000002992837 -6.4384553268456566 
5000.0000000000000 5000.0000000000000 -833.33333333329995 -18877860.792958308 7351647.4084810112 -20432832.819029432 -5.8420705933629837e-05 0.0015587967046137041 -0.0011441712858897336 2.0000000003762346 -2.0000000004172005 -6.5204819097283870 
6000.0000000000000 6000.0000000000000 -833.33333333329995 -18877860.793448392 7351647.4091960704 -20432832.818929397 -4.1572184385960027e-05 -0.00044118764988899207 0.00037664543337410873 1.6000000002948873 -1.6000000003228174 -6.5204819096599067 
6000.0000000000000 5000.0000000000000 -833.33333333329995 -18877860.793639176 7351647.4083198383 -20432832.819020979 -2.8719874025826859e-05 0.0014484200078864282 0.00048372901874610592 1.6000000002955539 -2.0000000004172418 -6.5204819102919993 
5000.0000000000000 5000.0000000000000 -666.66666666670005 -17725440.620013271 8504067.5834306944 -16346979.475398488 -7.6578506095115724e-05 0.0012520093971025163 -0.00089549879780337534 2.0000000004846719 -2.0000000005373058 -6.5875975419005020 
6000.0000000000000 6000.0000000000000 -666.66666666670005 -17725440.620482728 8504067.5841429010 -16346979.475312036 -6.2313145170788339e-05 -0.00045668518686453298 0.00039127696941869140 1.6000000003731321 -1.6000000004092050 -6.5875975418321264 
6000.0000000000000 5000.0000000000000 -666.66666666670005 -17725440.620634958 8504067.5832997244 -16346979.475278510 -4.6835617612902960e-05 0.0011571872246166101 0.00048376191417318868 1.6000000003744645 -2.0000000005378529 -6.5875975424628583 
5000.0000000000000 5000.0000000000000 -500.00000000000000 -16572917.294336902 9656590.9113627896 -12260760.408053480 -9.2722429881360419e-05 0.00092946324989445252 -0.00064240128462848638 2.0000000005950986 -2.0000000006601470 -6.6398008881221120 
6000.0000000000000 6000.0000000000000 -500.00000000000000 -16572917.294734342 9656590.9120164718 -12260760.407984573 -8.1358825054831234e-05 -0.00044124269314477742 0.00037946862195887947 1.6000000004507346 -1.6000000004948736 -6.6398008880539106 
6000.0000000000000 5000.0000000000000 -500.00000000000000 -16572917.294843724 9656590.9112615585 -12260760.407872643 -6.2163251582142876e-05 0.00085249117202326307 0.00045633450133858368 1.6000000004526334 -2.0000000006610681 -6.6398008886831104 
5000.0000000000000 5000.0000000000000 -333.33333333330000 -15420290.806704123 10809217.401526716 -8174175.5842528408 -0.00010555314957995486 0.00059940305952550994 -0.00039410730918326258 2.0000000007073981 -2.0000000007856773 -6.6770906135982191 
6000.0000000000000 6000.0000000000000 -333.33333333330000 -15420290.806971854 10809217.402057108 -8174175.5842050500 -9.7731322764760411e-05 -0.00038417216814341044 0.00033242914712140861 1.6000000005274020 -1.6000000005794628 -6.6770906135302335 
6000.0000000000000 5000.0000000000000 -333.33333333330000 -15420290.807031706 10809217.401455002 -8174175.5840644585 -7.2975325137998066e-05 0.00054393817573327266 0.00039150532116979958 1.6000000005297159 -2.0000000007867773 -6.6770906141580264 
5000.0000000000000 5000.0000000000000 -166.66666666670000 -14267561.147890937 11961947.063172273 -4087224.9712557052 -0.00011340442294012917 0.00027188943899802238 -0.00016069604976594738 2.0000000008214118 -2.0000000009137895 -6.6994653834143776 
6000.0000000000000 6000.0000000000000 -166.66666666670000 -14267561.147964207 11961947.063504761 -4087224.9712310382 -0.00011028314471540859 -0.00027337313523431944 0.00024008450434886313 1.6000000006027706 -1.6000000006625394 -6.6994653833466149 
6000.0000000000000 5000.0000000000000 -166.66666666670000 -14267561.147965226 11961947.063130051 -4087224.9711152306 -7.7125675493255994e-05 0.00024324156277271214 0.00027777823421991062 1.6000000006052892 -2.0000000009147958 -6.6994653839734450 
5000.0000000000000 5000.0000000000000 0.0000000000000000 -13691170.524536248 12538337.688021773 -2043658.2133651683 -0.00011585261198762848 0.00011015255236933174 -4.9016102591711859e-05 2.0000000009369354 -2.0000000010442984 -6.7069238625366783 
6000.0000000000000 6000.0000000000000 0.0000000000000000 -13691170.524495179 12538337.688235374 -2043658.2133523435 -0.00011544925420385667 -0.00020294378979187049 0.00018123730691195120 1.6000000006763910 -1.6000000007435926 -6.7069238624690977 
6000.0000000000000 5000.0000000000000 0.0000000000000000 -13691170.524464101 12538337.687994307 -2043658.2132627810 -7.7239990226670257e-05 9.6458723454717713e-05 0.00020714868351461721 1.6000000006788335 -2.0000000010448482 -6.7069238630957466 
0.0000000000000000 4000.0000000000000 -1333.3333333329999 -22334502.482182354 3895005.7144840872 -32688198.812837616 2.1225965254677763e-05 0.0054268160096744228 -0.0038191402829486020 4.0000000000000000 -2.4000000000599089 -6.2296746400407859 
0.0000000000000000 5000.0000000000000 -1333.3333333329999 -22334502.481255818 3895005.7159452364 -32688198.810280342 3.1304518692550252e-05 0.0020625157842297276 -0.0039775176980506224 4.0000000000000000 -2.0000000000669522 -6.2296746391150677 
1000.0000000000000 5000.0000000000000 -1333.3333333329999 -22334502.481626365 3895005.7152067851 -32688198.813264634 2.2540220187058932e-05 0.0020064867070656886 -0.0064627827384582913 3.5999999999861036 -2.0000000000654836 -6.2296746395320151 
1000.0000000000000 4000.0000000000000 -1333.3333333329999 -22334502.482520275 3895005.7137402911 -32688198.815946788 1.5563515287817715e-05 0.0053359303464390580 -0.0063121809052968476 3.5999999999847918 -2.4000000000588133 -6.2296746404494376 
0.0000000000000000 4000.0000000000000 -1500.0000000000000 -23486510.139031872 2742998.0591830150 -36772589.587697342 2.3671779832767562e-05 0.0056951868182664074 -0.0038109405319024557 4.0000000000000000 -2.3999999999372070 -6.1029232097232065 
0.0000000000000000 5000.0000000000000 -1500.0000000000000 -23486510.138076857 2742998.0602900251 -36772589.584710829 3.7579803939641794e-05 0.0022363205575447408 -0.0039844299312453701 4.0000000000000000 -1.9999999999600584 -6.1029232088052936 
1000.0000000000000 5000.0000000000000 -1500.0000000000000 -23486510.138175733 2742998.0595801971 -36772589.587845072 3.3642638585711072e-05 0.0021719871138226768 -0.0065179869860469229 3.5999999999311965 -1.9999999999583677 -6.1029232092071419 
1000.0000000000000 4000.0000000000000 -1500.0000000000000 -23486510.139098026 2742998.0584697565 -36772589.590955995 2.3173821660284181e-05 0.0055980512460579029 -0.0063527818605296623 3.5999999999295480 -2.3999999999360608 -6.1029232101154864 
0.0000000000000000 4000.0000000000000 -1166.6666666670001 -21182391.709232949 5047116.4857935421 -28603442.445456274 1.8144403849422536e-05 0.0050742761203167921 -0.0037685631125208867 4.0000000000000000 -2.4000000001880104 -6.3415191224013174 
0.0000000000000000 5000.0000000000000 -1166.6666666670001 -21182391.708331909 5047116.4876086125 -28603442.443306714 2.4286906267692453e-05 0.0018564858229516432 -0.0039121877131232203 4.0000000000000000 -2.0000000001762630 -6.3415191214697995 
1000.0000000000000 5000.0000000000000 -1166.6666666670001 -21182391.709023397 5047116.4868385969 -28603442.446105685 1.0304940350258728e-05 0.0018081015791670107 -0.0063124681466664697 3.6000000000465175 -2.0000000001750440 -6.3415191219005171 
1000.0000000000000 4000.0000000000000 -1166.6666666670001 -21182391.709891763 5047116.4850166207 -28603442.448377542 6.7887260709878588e-06 0.0049898488750174507 -0.0061759463477862302 3.6000000000455930 -2.4000000001869890 -6.3415191228249554 
0.0000000000000000 4000.0000000000000 -1000.0000000000000 -20030177.810916744 6199330.3823655657 -24518320.452833354 1.4401143082929451e-05 0.0046347825502080948 -0.0036480611505715654 4.0000000000000000 -2.4000000003219366 -6.4384553224905927 
0.0000000000000000 5000.0000000000000 -1000.0000000000000 -20030177.810039125 6199330.3845297508 -24518320.451069843 1.6646113652017840e-05 0.0016217928777130578 -0.0037773173230028338 4.0000000000000000 -2.0000000002880287 -6.4384553215551419 
1000.0000000000000 5000.0000000000000 -1000.0000000000000 -20030177.811110985 6199330.3837237116 -24518320.453645166 -3.0149547611610939e-06 0.0015804014602252366 -0.0060501090363884423 3.6000000001132468 -2.0000000002870806 -6.4384553219980294 
1000.0000000000000 4000.0000000000000 -1000.0000000000000 -20030177.811955288 6199330.3815517398 -24518320.455524724 -3.2467953160069079e-06 0.0045570749700229677 -0.0059270768342820253 3.6000000001127543 -2.4000000003210169 -6.4384553229275445 
0.0000000000000000 4000.0000000000000 -833.33333333329995 -18877860.777963899 7351647.4134541759 -20432832.802262284 1.0205226520845067e-05 0.0041060380904522336 -0.0034442583582848909 4.0000000000000000 -2.4000000004621400 -6.5204819058729111 
0.0000000000000000 5000.0000000000000 -833.33333333329995 -18877860.777108252 7351647.4159571091 -20432832.800862424 8.6258711046523323e-06 0.0013630195911596222 -0.0035594031562159074 4.0000000000000000 -2.0000000004022720 -6.5204819049352434 
1000.0000000000000 5000.0000000000000 -833.33333333329995 -18877860.778633662 7351647.4151080251 -20432832.803173568 -1.7244629215415630e-05 0.0013280774686464090 -0.0056553448462116906 3.6000000001872512 -2.0000000004016054 -6.5204819053884240 
1000.0000000000000 4000.0000000000000 -833.33333333329995 -18877860.779453918 7351647.4125975426 -20432832.804678902 -1.4398435354655441e-05 0.0040354793572556450 -0.0055453241254948375 3.6000000001872268 -2.4000000004613380 -6.5204819063211854 
0.0000000000000000 4000.0000000000000 -666.66666666670005 -17725440.601099081 8504067.5883146003 -16346979.461047851 6.1329351117017526e-06 0.0034863766688993164 -0.0031407500680561708 4.0000000000000000 -2.4000000006090891 -6.5875975379942764 
0.0000000000000000 5000.0000000000000 -666.66666666670005 -17725440.600264285 8504067.5911389310 -16346979.459988356 6.2865813340192695e-07 0.0010859892176032070 -0.0032416564365448466 4.0000000000000000 -2.0000000005189862 -6.5875975370559550 
1000.0000000000000 5000.0000000000000 -666.66666666670005 -17725440.602334362 8504067.5902368538 -16346979.461989520 -3.2040302193654308e-05 0.0010571675885374212 -0.0051033276841132924 3.6000000002696986 -2.0000000005185998 -6.5875975375172526 
1000.0000000000000 4000.0000000000000 -666.66666666670005 -17725440.603128958 8504067.5874067321 -16346979.463139420 -2.6136496437077853e-05 0.0034237957918882658 -0.0050061950834629967 3.6000000002701542 -2.4000000006084008 -6.5875975384515630 
0.0000000000000000 4000.0000000000000 -500.00000000000000 -16572917.271037798 9656590.9162054230 -12260760.396502011 3.3208898702126287e-06 0.0027748462760597741 -0.0027168908932300329 4.0000000000000000 -2.4000000007632649 -6.6398008841814429 
0.0000000000000000 5000.0000000000000 -500.00000000000000 -16572917.270222381 9656590.9193252008 -12260760.395757908 -6.7228241305342706e-06 0.00079784043963698347 -0.0028025558897236749 4.0000000000000000 -2.0000000006381278 -6.6398008832438657 
1000.0000000000000 5000.0000000000000 -500.00000000000000 -16572917.272952050 9656590.9183568228 -12260760.397393316 -4.6824453440942425e-05 0.00077519111188626799 -0.0043632306468966604 3.6000000003620274 -2.0000000006380017 -6.6398008837107216 
1000.0000000000000 4000.0000000000000 -500.00000000000000 -16572917.273717668 9656590.9152349308 -12260760.398208313 -3.7349383206416588e-05 0.0027218827499897089 -0.0042796947579735508 3.6000000003629324 -2.4000000007626459 -6.6398008846450489 
0.0000000000000000 4000.0000000000000 -333.33333333330000 -15420290.778481837 10809217.406390706 -8174175.5759403296 3.7041167357011176e-06 0.0019714962897886962 -0.0021458578553515619 4.0000000000000000 -2.4000000009251505 -6.6770906096419402 
0.0000000000000000 5000.0000000000000 -333.33333333330000 -15420290.777682802 10809217.409769649 -8174175.5754833519 -1.2512703955705019e-05 0.00050721332658180995 -0.0022137968406143668 4.0000000000000000 -2.0000000007596035 -6.6770906087063020 
1000.0000000000000 5000.0000000000000 -333.33333333330000 -15420290.781221820 10809217.408715332 -8174175.5766887432 -6.0692420526593847e-05 0.00049135014908877528 -0.0033960671269259446 3.6000000004660291 -2.0000000007596941 -6.6770906091756910 
1000.0000000000000 4000.0000000000000 -333.33333333330000 -15420290.781953432 10809217.405340256 -8174175.5771927238 -4.6075735330160215e-05 0.0019311522493688340 -0.0033283645888274971 3.6000000004672863 -2.4000000009244946 -6.6770906101086762 
0.0000000000000000 4000.0000000000000 -166.66666666670000 -14267561.114111098 11961947.068144273 -4087224.9666727297 1.0353610030260797e-05 0.0010774990592282265 -0.0013915336361792659 4.0000000000000000 -2.4000000010952167 -6.6994653794641907 
0.0000000000000000 5000.0000000000000 -166.66666666670000 -14267561.113322726 11961947.071733141 -4087224.9664711752 -1.5458788689650630e-05 0.00022438913657988707 -0.0014369471826742308 4.0000000000000000 -2.0000000008832628 -6.6994653785314586 
1000.0000000000000 5000.0000000000000 -166.66666666670000 -14267561.117872797 11961947.070562162 -4087224.9671771238 -7.2312181655014064e-05 0.00021669099566794763 -0.0021512114507228589 3.6000000005839832 -2.0000000008834924 -6.6994653789997960 
1000.0000000000000 4000.0000000000000 -166.66666666670000 -14267561.118563568 11961947.066985318 -4087224.9673984083 -4.9125241398386958e-05 0.0010549981705300709 -0.0021040618060591014 3.6000000005853989 -2.4000000010943272 -6.6994653799303006 
0.0000000000000000 4000.0000000000000 0.0000000000000000 -13691170.487805456 12538337.693073004 -2043658.2107759281 1.5712252884776963e-05 0.00060805657028723632 -0.00096334029096252992 4.0000000000000000 -2.4000000012739031 -6.7069238586175359 
0.0000000000000000 5000.0000000000000 0.0000000000000000 -13691170.487020563 12538337.696752716 -2043658.2106937466 -1.6035583412265758e-05 8.6319044786782584e-05 -0.00099594145046789408 4.0000000000000000 -2.0000000010088828 -6.7069238576884302 
1000.0000000000000 5000.0000000000000 0.0000000000000000 -13691170.492134344 12538337.695514025 -2043658.2111320579 -7.7363865323759693e-05 8.3153863178111597e-05 -0.0014521834447000091 3.6000000007188833 -2.0000000010091332 -6.7069238581514989 
1000.0000000000000 4000.0000000000000 0.0000000000000000 -13691170.492802758 12538337.691850897 -2043658.2112197019 -4.8741420915546104e-05 0.00059612434773033483 -0.0014168663365353108 3.6000000007201258 -2.4000000012724678 -6.7069238590786302 
7000.0000000000000 2000.0000000000000 -1333.3333333329999 -22334502.493020147 3895005.7033393108 -32688198.851319183 -8.4487613754065636e-06 0.0094242238464787593 0.0010611758734159029 1.2000000000482822 -3.2000000000081217 -6.2296746480163199 
6000.0000000000000 2000.0000000000000 -1333.3333333329999 -22334502.493009917 3895005.7032631477 -32688198.851619530 -8.7364075156904164e-05 0.0094625003489033042 0.0011412258329590520 1.6000000000586798 -3.2000000000051192 -6.2296746477163083 
7000.0000000000000 2000.0000000000000 -1500.0000000000000 -23486510.147210758 2742998.0495783864 -36772589.629418269 2.8803563658172788e-06 0.0096273671194726015 0.0010695707614129962 1.1999999999892916 -3.1999999999045268 -6.1029232175376356 
6000.0000000000000 2000.0000000000000 -1500.0000000000000 -23486510.147146232 2742998.0495367432 -36772589.629605003 -8.6612132072318675e-05 0.0096506875472616924 0.0011059512152995770 1.5999999999787808 -3.1999999999015176 -6.1029232172372367 
7000.0000000000000 2000.0000000000000 -1166.6666666670001 -21182391.722959932 5047116.4729411891 -28603442.480494864 -2.0465468525903609e-05 0.0090804067024119525 0.0010408787145023545 1.2000000001065063 -3.2000000001203475 -6.3415191305190186 
6000.0000000000000 2000.0000000000000 -1166.6666666670001 -21182391.723036744 5047116.4728325261 -28603442.480867792 -8.5838388303680904e-05 0.0091315217804185320 0.0011681378609597179 1.6000000001386196 -3.2000000001174311 -6.3415191302193685 
7000.0000000000000 2000.0000000000000 -1000.0000000000000 -20030177.827782877 6199330.3676279578 -24518320.484170862 -3.3133960586419811e-05 0.0085757827694356858 0.0010042586474922027 1.2000000001637778 -3.2000000002423681 -6.4384553307300170 
6000.0000000000000 2000.0000000000000 -1000.0000000000000 -20030177.827987000 6199330.3674863726 -24518320.484579254 -8.1812392105130125e-05 0.0086370224183750094 0.0011795020021247318 1.6000000002183921 -3.2000000002396254 -6.4384553304305001 
7000.0000000000000 2000.0000000000000 -833.33333333329995 -18877860.798243351 7351647.3966413001 -20432832.829586912 -4.6393955888393438e-05 0.0078870257044160244 0.00094614202291519076 1.2000000002198907 -3.2000000003754958 -6.5204819142118229 
6000.0000000000000 2000.0000000000000 -833.33333333329995 -18877860.798624314 7351647.3964632954 -20432832.829998028 -7.4941899583160187e-05 0.0079549547752276080 0.0011663964584206650 1.6000000002977204 -3.2000000003730205 -6.5204819139120502 
7000.0000000000000 2000.0000000000000 -666.66666666670005 -17725440.625092994 8504067.5692246538 -16346979.483986046 -6.0146039146810247e-05 0.0069871035755900103 0.00086055777226725825 1.2000000002746114 -3.2000000005212170 -6.5875975464083885 
6000.0000000000000 2000.0000000000000 -666.66666666670005 -17725440.625712190 8504067.5690026842 -16346979.484371910 -6.4648248376936201e-05 0.0070574146974502813 0.0011175376817845663 1.6000000003762265 -3.2000000005191178 -6.5875975461078422 
7000.0000000000000 2000.0000000000000 -500.00000000000000 -16572917.299076315 9656590.8946271092 -12260760.414605686 -7.4241667165715288e-05 0.0058446351175257642 0.00074071396880373954 1.2000000003276712 -3.2000000006812042 -6.6398008926440317 
6000.0000000000000 2000.0000000000000 -500.00000000000000 -16572917.300010921 9656590.8943480980 -12260760.414943263 -4.9927308699060182e-05 0.0059119564074832315 0.0010183834217759649 1.6000000004533810 -3.2000000006796148 -6.6398008923421106 
7000.0000000000000 2000.0000000000000 -333.33333333330000 -15420290.810931100 10809217.382102337 -8174175.5886889510 -8.8464485513122163e-05 0.0044233012237393414 0.00057896583468837221 1.2000000003787579 -3.2000000008573464 -6.6770906181234233 
6000.0000000000000 2000.0000000000000 -333.33333333330000 -15420290.812279936 10809217.381745502 -8174175.5889593903 -2.9002234541661989e-05 0.0044807340011264133 0.00084978115259456001 1.6000000005284316 -3.2000000008564524 -6.6770906178195011 
7000.0000000000000 2000.0000000000000 -166.66666666670000 -14267561.151383283 11961947.040912699 -4087224.9734816793 -0.00010248915369401563 0.0026811672092506532 0.00036680997839209830 1.2000000004274989 -3.2000000010517491 -6.6994653879317827 
6000.0000000000000 2000.0000000000000 -166.66666666670000 -14267561.153276052 11961947.040446168 -4087224.9736684128 1.2898228918779895e-06 0.0027194239105443321 0.00058589053731896638 1.6000000006003032 -3.2000000010518628 -6.6994653876252093 
7000.0000000000000 2000.0000000000000 0.0000000000000000 -13691170.527598526 12538337.664310167 -2043658.2144611599 -0.00010940348364245247 0.0017242776990418350 0.00024701805222515248 1.2000000004734299 -3.2000000012667336 -6.7069238670349556 
6000.0000000000000 2000.0000000000000 0.0000000000000000 -13691170.529800257 12538337.663779180 -2043658.2146020231 1.9283218818326907e-05 0.0017502580602294512 0.00042640307859667680 1.6000000006674584 -3.2000000012684335 -6.7069238667250399 
8000.0000000000000 2000.0000000000000 -1333.3333333329999 -22334502.492929123 3895005.7035131832 -32688198.850499660 7.8260224054405535e-05 0.0094737661648175066 -4.1571589032884425e-05 0.80000000003636185 -3.2000000000056597 -6.2296746482949121 
9000.0000000000000 2000.0000000000000 -1333.3333333329999 -22334502.492869198 3895005.7036425220 -32688198.849795774 7.0668701678978398e-05 0.0095614330195385889 -0.00020336046751588257 0.40000000001881247 -3.2000000000016433 -6.2296746485009500 
9000.0000000000000 1000.0000000000000 -1333.3333333329999 -22334502.494767100 3895005.7024140828 -32688198.857483961 6.2735505652729284e-05 0.0062413780460962315 -0.00020213603973326838 0.40000000001548475 -3.5999999999879466 -6.2296746495612121 
8000.0000000000000 2000.0000000000000 -1500.0000000000000 -23486510.147169489 2742998.0497318814 -36772589.628686443 0.00010038731954295046 0.0096652087746221249 -4.3178066860621788e-05 0.79999999999725457 -3.1999999999013573 -6.1029232178206181 
9000.0000000000000 2000.0000000000000 -1500.0000000000000 -23486510.147132117 2742998.0498586232 -36772589.628022105 8.7645939255889067e-05 0.0097326252933001203 -0.00019688714318856574 0.39999999999946279 -3.1999999998964914 -6.1029232180300657 
9000.0000000000000 1000.0000000000000 -1500.0000000000000 -23486510.148942985 2742998.0493161753 -36772589.636051364 7.0983528898252852e-05 0.0062965717404874872 -0.00018064882382895327 0.39999999999568070 -3.5999999999283641 -6.1029232190540181 
8000.0000000000000 2000.0000000000000 -1166.6666666670001 -21182391.722804818 5047116.4731299104 -28603442.479623593 5.2171102447783335e-05 0.0091394018806704863 -4.3695208246492568e-05 0.80000000007476024 -3.2000000001187137 -6.3415191307927747 
9000.0000000000000 2000.0000000000000 -1166.6666666670001 -21182391.722723771 5047116.4732549284 -28603442.478905950 5.0315020673433311e-05 0.0092434872610107077 -0.00021153752918767125 0.40000000003781416 -3.2000000001157183 -6.3415191309952368 
9000.0000000000000 1000.0000000000000 -1166.6666666670001 -21182391.724715706 5047116.4712313851 -28603442.486164790 5.2471528371231214e-05 0.0060919363009278764 -0.00022317289446813210 0.40000000003505282 -3.6000000000533836 -6.3415191320893181 
8000.0000000000000 2000.0000000000000 -1000.0000000000000 -20030177.827548668 6199330.3678255640 -24518320.483286116 2.1891498828580544e-05 0.0086414575939731224 -5.0061959166101573e-05 0.80000000011238814 -3.2000000002416860 -6.4384553309986572 
9000.0000000000000 2000.0000000000000 -1000.0000000000000 -20030177.827452138 6199330.3679376980 -24518320.482582986 2.6352566210450817e-05 0.0087571989530431538 -0.00022014221405430271 0.40000000005650144 -3.2000000002398967 -6.4384553311974830 
9000.0000000000000 1000.0000000000000 -1000.0000000000000 -20030177.829545386 6199330.3649913445 -24518320.489306107 4.0101504338333982e-05 0.0058312802128763393 -0.00024196291099568766 0.40000000005442399 -3.6000000001255437 -6.4384553323222420 
8000.0000000000000 2000.0000000000000 -833.33333333329995 -18877860.797915496 7351647.3968408331 -20432832.828729987 -1.2891541177087756e-05 0.0079560610280282953 -6.0671112787945286e-05 0.80000000014921924 -3.2000000003758911 -6.5204819144752824 
9000.0000000000000 2000.0000000000000 -833.33333333329995 -18877860.797815427 7351647.3969290666 -20432832.828072276 -1.5510336198805421e-06 0.0080776723531943706 -0.00022687368208663481 0.40000000007495007 -3.2000000003755074 -6.5204819146705351 
9000.0000000000000 1000.0000000000000 -833.33333333329995 -18877860.800018068 7351647.3929099720 -20432832.834133808 2.5595134768940699e-05 0.0054391818020140302 -0.00025570462504339366 0.40000000007367648 -3.6000000002054269 -6.5204819158220380 
8000.0000000000000 2000.0000000000000 -666.66666666670005 -17725440.624659326 8504067.5694172438 -16346979.483202115 -5.2670324226794585e-05 0.0070555735255386689 -7.4543946841596875e-05 0.80000000018528461 -3.2000000005228211 -6.5875975466668555 
9000.0000000000000 2000.0000000000000 -666.66666666670005 -17725440.624576762 8504067.5694669504 -16346979.482623100 -3.3897656253148460e-05 0.0071760712662090392 -0.00022801057387417529 0.40000000009328968 -3.2000000005240561 -6.5875975468587251 
9000.0000000000000 1000.0000000000000 -666.66666666670005 -17725440.626898400 8504067.5641985089 -16346979.487876475 9.0442359516658528e-06 0.0048915265957640572 -0.00026022696519180290 0.40000000009293851 -3.6000000002941812 -6.5875975480321083 
8000.0000000000000 2000.0000000000000 -500.00000000000000 -16572917.298530255 9656590.8948005475 -12260760.413944362 -9.8288312885063715e-05 0.0059078555460693504 -8.9021260403742162e-05 0.80000000022070783 -3.2000000006841658 -6.6398008928980152 
9000.0000000000000 2000.0000000000000 -500.00000000000000 -16572917.298499126 9656590.8947918601 -12260760.413478771 -7.1447510288067154e-05 0.0060188645181772863 -0.00021798109280409946 0.40000000011171771 -3.2000000006872615 -6.6398008930868224 
9000.0000000000000 1000.0000000000000 -500.00000000000000 -16572917.300952055 9656590.8880651407 -12260760.417756068 -9.2334992151261173e-06 0.0041595460781921646 -0.00024959961424737923 0.40000000011239939 -3.6000000003931301 -6.6398008942761297 
8000.0000000000000 2000.0000000000000 -333.33333333330000 -15420290.810277035 10809217.382238805 -8174175.5882045086 -0.00015125696281017054 0.0044755059193749549 -9.8625284461594456e-05 0.80000000025576601 -3.2000000008618459 -6.6770906183738026 
9000.0000000000000 2000.0000000000000 -333.33333333330000 -15420290.810349250 10809217.382144196 -8174175.5878866920 -0.00011536911933273198 0.0045667769964871071 -0.00018893391691598196 0.40000000013050580 -3.2000000008671097 -6.6770906185599861 
9000.0000000000000 1000.0000000000000 -333.33333333330000 -15420290.812950300 10809217.373710562 -8174175.5909991460 -2.8549842576005078e-05 0.0032088212460018918 -0.00021577220792143206 0.40000000013231329 -3.6000000005037971 -6.6770906197579984 
8000.0000000000000 2000.0000000000000 -166.66666666670000 -14267561.150645575 11961947.040985115 -4087224.9732324556 -0.00021435136916700357 0.0027148331585996463 -9.3187301697203313e-05 0.80000000029099028 -3.2000000010580694 -6.6994653881798447 
9000.0000000000000 2000.0000000000000 -166.66666666670000 -14267561.150897849 11961947.040765954 -4087224.9730928773 -0.00016744778410297646 0.0027733536929204238 -0.00013046601319566825 0.40000000014999187 -3.2000000010659209 -6.6994653883639135 
9000.0000000000000 1000.0000000000000 -166.66666666670000 -14267561.153671412 11961947.030327121 -4087224.9748331755 -4.7638646504258101e-05 0.0019981482786745552 -0.00014842520148825551 0.40000000015298809 -3.6000000006279440 -6.6994653895619871 
8000.0000000000000 2000.0000000000000 0.0000000000000000 -13691170.526828278 12538337.664342349 -2043658.2143445527 -0.00024888012224472377 0.0017465235613939368 -8.5068067381297230e-05 0.80000000032734231 -3.2000000012753778 -6.7069238672823825 
9000.0000000000000 2000.0000000000000 0.0000000000000000 -13691170.527193345 12538337.664049622 -2043658.2143009165 -0.00019579495668911842 0.0017850027962943817 -9.2411683347452768e-05 0.40000000017053400 -3.2000000012864769 -6.7069238674648162 
9000.0000000000000 1000.0000000000000 0.0000000000000000 -13691170.530060431 12538337.652526699 -2043658.2153011851 -5.6923425927158164e-05 0.0013222122653749702 -0.00010494071698751795 0.40000000017472898 -3.6000000007676003 -6.7069238686527424 
4000.0000000000000 1000.0000000000000 -1333.3333333329999 -22334502.492848769 3895005.7031014990 -32688198.856351659 3.3043421790119245e-05 0.0062224153945339760 -0.0052176150486433247 2.4000000000539541 -3.5999999999876695 -6.2296746473977729 
5000.0000000000000 2000.0000000000000 -1333.3333333329999 -22334502.492419168 3895005.7034973777 -32688198.851048581 -5.9691703171110459e-05 0.0095156705510124982 -0.0013621010880717197 2.0000000000659672 -3.2000000000011180 -6.2296746472066067 
4000.0000000000000 1000.0000000000000 -1500.0000000000000 -23486510.147259250 2742998.0501121613 -36772589.634022847 4.3552663710098504e-05 0.0062742525889567698 -0.0054665763471931257 2.3999999999372332 -3.5999999999290613 -6.1029232168903800 
5000.0000000000000 2000.0000000000000 -1500.0000000000000 -23486510.146611981 2742998.0498078554 -36772589.628807873 -5.3448778748339835e-05 0.0096822306931870043 -0.0015275126813413204 1.9999999999650433 -3.1999999998973836 -6.1029232167289544 
4000.0000000000000 1000.0000000000000 -1166.6666666670001 -21182391.722654343 5047116.4718289291 -28603442.485763803 2.0970327934039208e-05 0.0060767748555171763 -0.0048870385153212074 2.4000000001758992 -3.6000000000520704 -6.3415191299293445 
5000.0000000000000 2000.0000000000000 -1166.6666666670001 -21182391.722425252 5047116.4730308969 -28603442.480482239 -6.4781128406259965e-05 0.0092031636604678682 -0.0011716051695006243 2.0000000001689826 -3.2000000001136724 -6.3415191297088747 
4000.0000000000000 1000.0000000000000 -1000.0000000000000 -20030177.827453546 6199330.3655128824 -24518320.489472393 7.2176649440560357e-06 0.0058202278770364182 -0.0044723144380875617 2.4000000003034461 -3.6000000001231389 -6.4384553301681340 
5000.0000000000000 2000.0000000000000 -1000.0000000000000 -20030177.827400938 6199330.3676467948 -24518320.484342109 -6.8573926714381403e-05 0.0087230957680639459 -0.00096174645267151819 2.0000000002740514 -3.2000000002362237 -6.4384553299196350 
4000.0000000000000 1000.0000000000000 -833.33333333329995 -18877860.798031282 7351647.3933642320 -20432832.834703472 -8.3052274767585170e-06 0.0054323243065877765 -0.0039713608655011796 2.4000000004369961 -3.6000000002018804 -6.5204819136752983 
5000.0000000000000 2000.0000000000000 -833.33333333329995 -18877860.798122849 7351647.3965796195 -20432832.829876643 -7.0859853409337441e-05 0.0080503893941917364 -0.00074001216729247421 2.0000000003810894 -3.2000000003701041 -6.5204819134010412 
4000.0000000000000 1000.0000000000000 -666.66666666670005 -17725440.625177536 8504067.5645886213 -16346979.488685243 -2.5625745984223026e-05 0.0048886658183565296 -0.0033825232089572084 2.4000000005769757 -3.6000000002894512 -6.5875975458932956 
5000.0000000000000 2000.0000000000000 -666.66666666670005 -17725440.625371110 8504067.5690632965 -16346979.484338405 -7.1300796544420401e-05 0.0071559717853452815 -0.00051607737363117991 2.0000000004899436 -3.2000000005168272 -6.5875975455967355 
4000.0000000000000 1000.0000000000000 -500.00000000000000 -16572917.299685938 9656590.8883880358 -12260760.418639174 -4.4630776965413995e-05 0.0041600946500546937 -0.0027044062246763035 2.4000000007238431 -3.6000000003871833 -6.6398008921448124 
5000.0000000000000 2000.0000000000000 -500.00000000000000 -16572917.299927633 9656590.8943339176 -12260760.414974367 -6.9339068238579441e-05 0.0060059404894680811 -0.00030235107659333857 2.0000000006003629 -3.2000000006781240 -6.6398008918307889 
4000.0000000000000 1000.0000000000000 -333.33333333330000 -15420290.812358018 10809217.373956488 -8174175.5917907404 -6.4958366579026422e-05 0.0032116900771653120 -0.0019355103033113876 2.4000000008781011 -3.6000000004966135 -6.6770906176327092 
5000.0000000000000 2000.0000000000000 -333.33333333330000 -15420290.812580094 10809217.381627204 -8174175.5890350267 -6.4037454307249721e-05 0.0045603872298771693 -0.00011460666817957542 2.0000000007119723 -3.2000000008560003 -6.6770906173076359 
4000.0000000000000 1000.0000000000000 -166.66666666670000 -14267561.154003868 11961947.030479286 -4087224.9753657598 -8.5820607554681574e-05 0.0020017143706972116 -0.0010736461562953149 2.4000000010403109 -3.6000000006195134 -6.6994653874401839 
5000.0000000000000 2000.0000000000000 -166.66666666670000 -14267561.154122252 11961947.040180238 -4087224.9737685840 -5.3824694747488507e-05 0.0027719080437378233 2.7205031971485682e-05 2.0000000008242318 -3.2000000010528069 -6.6994653871122116 
4000.0000000000000 1000.0000000000000 0.0000000000000000 -13691170.530922020 12538337.652626896 -2043658.2156621288 -9.6252922220106920e-05 0.0013256577732318239 -0.00061912729090785002 2.4000000012111089 -3.6000000007579245 -6.7069238665307580 
5000.0000000000000 2000.0000000000000 0.0000000000000000 -13691170.530965345 12538337.663426496 -2043658.2147091862 -4.7244998356361181e-05 0.0017854909094445768 8.3850346433331002e-05 2.0000000009364096 -3.2000000012713565 -6.7069238662098982 
2000.0000000000000 7000.0000000000000 -1333.3333333329999 -22334502.482670259 3895005.7141150683 -32688198.819902752 -3.3873770965469843e-05 -0.0016992371070234113 -0.0087409729121898285 3.1999999999929298 -1.2000000000386792 -6.2296746395995086 
2000.0000000000000 6000.0000000000000 -1333.3333333329999 -22334502.482517406 3895005.7140935585 -32688198.819529880 -3.9227890525189813e-05 -0.00046407711842314696 -0.0087891220696171331 3.1999999999940805 -1.6000000000553438 -6.2296746399445135 
1000.0000000000000 6000.0000000000000 -1333.3333333329999 -22334502.481354315 3895005.7158811339 -32688198.812595978 1.6631214203617778e-05 -0.00045914724781226672 -0.0065480814140309249 3.5999999999872818 -1.6000000000559438 -6.2296746389257454 
1000.0000000000000 7000.0000000000000 -1333.3333333329999 -22334502.481478699 3895005.7158847032 -32688198.813063413 7.4708757235874953e-06 -0.0017051138354972476 -0.0065894164829990737 3.5999999999879964 -1.2000000000388782 -6.2296746385817494 
2000.0000000000000 7000.0000000000000 -1500.0000000000000 -23486510.138465218 2742998.0585168866 -36772589.594364643 -2.1270882301007772e-05 -0.0017306265442403703 -0.0089006064493810551 3.1999999998990201 -1.1999999999786690 -6.1029232092434222 
2000.0000000000000 6000.0000000000000 -1500.0000000000000 -23486510.138363764 2742998.0584329022 -36772589.594163209 -2.3387577714561456e-05 -0.00041828965548222017 -0.0089495793949498168 3.1999999998997088 -1.5999999999708079 -6.1029232095899237 
1000.0000000000000 6000.0000000000000 -1500.0000000000000 -23486510.137852047 2742998.0601537372 -36772589.586891234 2.8286913481982480e-05 -0.00040749909448035743 -0.0066186093068967616 3.5999999999328116 -1.5999999999719312 -6.1029232086024301 
1000.0000000000000 7000.0000000000000 -1500.0000000000000 -23486510.137918666 2742998.0602197642 -36772589.587200381 1.7487224311534371e-05 -0.0017328659188376922 -0.0066708975533068607 3.5999999999339320 -1.1999999999793090 -6.1029232082561160 
2000.0000000000000 7000.0000000000000 -1166.6666666670001 -21182391.710923992 5047116.4856554475 -28603442.452702992 -4.7214751642961887e-05 -0.0016466552803823724 -0.0084502958658481259 3.2000000000949962 -1.2000000000975828 -6.3415191219982230 
2000.0000000000000 6000.0000000000000 -1166.6666666670001 -21182391.710722301 5047116.4857278550 -28603442.452201478 -5.6052023425437762e-05 -0.00050716972521370530 -0.0084966179454366297 3.2000000000966375 -1.6000000001400476 -6.3415191223412473 
1000.0000000000000 6000.0000000000000 -1166.6666666670001 -21182391.708800513 5047116.4875885388 -28603442.445682235 4.1296188767292086e-06 -0.00050680875032031465 -0.0063841098323148011 3.6000000000472210 -1.6000000001400863 -6.3415191212937634 
1000.0000000000000 7000.0000000000000 -1166.6666666670001 -21182391.708980542 5047116.4874983309 -28603442.446264409 -3.0825507675091919e-06 -0.0016551056698661899 -0.0064161973565952657 3.6000000000475043 -1.2000000000973172 -6.3415191209524489 
2000.0000000000000 7000.0000000000000 -1000.0000000000000 -20030177.813993625 6199330.3823723998 -24518320.460028712 -6.1518909453430712e-05 -0.0015673526191283848 -0.0080084457945370242 3.2000000002063089 -1.2000000001550823 -6.4384553221239775 
2000.0000000000000 6000.0000000000000 -1000.0000000000000 -20030177.813744247 6199330.3825756051 -24518320.459442828 -7.4127911335188334e-05 -0.00054180287510217462 -0.0080518654949030821 3.2000000002084761 -1.6000000002247086 -6.4384553224647636 
1000.0000000000000 6000.0000000000000 -1000.0000000000000 -20030177.810936153 6199330.3845177367 -24518320.453426078 -9.1339485436982011e-06 -0.00054467028991542069 -0.0061098617120459685 3.6000000001134427 -1.6000000002241508 -6.4384553213916487 
1000.0000000000000 7000.0000000000000 -1000.0000000000000 -20030177.811170775 6199330.3842970105 -24518320.454078201 -1.4094711557027683e-05 -0.0015772760752793007 -0.0061344441356117512 3.6000000001132766 -1.2000000001543307 -6.4384553210531559 
2000.0000000000000 7000.0000000000000 -833.33333333329995 -18877860.782652386 7351647.4134960109 -20432832.809155799 -7.7030865082030830e-05 -0.0014549320110707055 -0.0073918516598013330 3.2000000003281062 -1.2000000002108531 -6.5204819055395609 
2000.0000000000000 6000.0000000000000 -833.33333333329995 -18877860.782354970 7351647.4138725763 -20432832.808531657 -9.3752387230756581e-05 -0.00056108149772532878 -0.0074312092956396528 3.2000000003308449 -1.6000000003090853 -6.5204819058780865 
1000.0000000000000 6000.0000000000000 -833.33333333329995 -18877860.778507274 7351647.4159075972 -20432832.803116918 -2.3029487593216697e-05 -0.00056586223499434818 -0.0057049243367996152 3.6000000001869177 -1.6000000003078996 -6.5204819047830380 
1000.0000000000000 7000.0000000000000 -833.33333333329995 -18877860.778796580 7351647.4155138507 -20432832.803792890 -2.5468076355406048e-05 -0.0014652483933086449 -0.0057236817564444873 3.6000000001862911 -1.2000000002095954 -6.5204819044472666 
2000.0000000000000 7000.0000000000000 -666.66666666670005 -17725440.607677914 8504067.5882546827 -16346979.467361862 -9.4012060107957356e-05 -0.0013020851309683500 -0.0065729518149129883 3.2000000004618032 -1.2000000002645361 -6.5875975376893203 
2000.0000000000000 6000.0000000000000 -666.66666666670005 -17725440.607330527 8504067.5888530929 -16346979.466747947 -0.00011525071870678119 -0.00055690229270672004 -0.0066070022616768909 3.2000000004651641 -1.6000000003928960 -6.5875975380258120 
1000.0000000000000 6000.0000000000000 -666.66666666670005 -17725440.602258217 8504067.5909958035 -16346979.462051412 -3.7372666198126559e-05 -0.00056235076965389626 -0.0051442236567558995 3.6000000002688308 -1.6000000003910573 -6.5875975369132371 
1000.0000000000000 7000.0000000000000 -666.66666666670005 -17725440.602603372 8504067.5903805550 -16346979.462703250 -3.7086176396673571e-05 -0.0013117896568739726 -0.0051586696648134615 3.6000000002677370 -1.2000000002627569 -6.5875975365798354 
2000.0000000000000 7000.0000000000000 -500.00000000000000 -16572917.279851764 9656590.9158770591 -12260760.401917560 -0.00011273745913026624 -0.0011005948149995031 -0.0055195705053071517 3.2000000006090170 -1.2000000003157310 -6.6398008838980633 
2000.0000000000000 6000.0000000000000 -500.00000000000000 -16572917.279450715 9656590.9167520236 -12260760.401364958 -0.00013896474083634655 -0.00051985819544885870 -0.0055470210657470528 3.2000000006130653 -1.6000000004758097 -6.6398008842330327 
1000.0000000000000 6000.0000000000000 -500.00000000000000 -16572917.272929279 9656590.9190207366 -12260760.397526778 -5.1898312709962874e-05 -0.00052489429232279610 -0.0043964921866135901 3.6000000003606343 -1.6000000004732990 -6.6398008831081956 
1000.0000000000000 7000.0000000000000 -500.00000000000000 -16572917.273332451 9656590.9181293231 -12260760.398104064 -4.8803769830501680e-05 -0.0011087959476813584 -0.0044078156840829229 3.6000000003590840 -1.2000000003134195 -6.6398008827765418 
2000.0000000000000 7000.0000000000000 -333.33333333330000 -15420290.789964829 10809217.405588647 -8174175.5800959021 -0.00013348214998436432 -0.00084127589342728208 -0.0041941939608996018 3.2000000007715954 -1.2000000003639906 -6.6770906093709979 
2000.0000000000000 6000.0000000000000 -333.33333333330000 -15420290.789504513 10809217.406801330 -8174175.5796588501 -0.00016523641887178109 -0.00043913088726362632 -0.0042137634907398868 3.2000000007763982 -1.6000000005574344 -6.6770906097052443 
1000.0000000000000 6000.0000000000000 -333.33333333330000 -15420290.781256879 10809217.409220792 -8174175.5768432627 -6.6222212636706464e-05 -0.00044297268156772123 -0.0034220059557275731 3.6000000004641524 -1.6000000005542443 -6.6770906085744803 
1000.0000000000000 7000.0000000000000 -333.33333333330000 -15420290.781721245 10809217.407992037 -8174175.5772930514 -6.0434735052517251e-05 -0.00084725798724544265 -0.0034309111602467083 3.6000000004621659 -1.2000000003611404 -6.6770906082436676 
2000.0000000000000 7000.0000000000000 -166.66666666670000 -14267561.128820583 11961947.066611838 -4087224.9691682537 -0.00015651427587692491 -0.00051393186694735681 -0.0025530000851311909 3.2000000009516358 -1.2000000004088138 -6.6994653791938372 
2000.0000000000000 6000.0000000000000 -166.66666666670000 -14267561.128293335 11961947.068230053 -4087224.9689047355 -0.00019439106900797449 -0.00030240813328809697 -0.0025634397384345282 3.2000000009572700 -1.6000000006373036 -6.6994653795284922 
1000.0000000000000 6000.0000000000000 -166.66666666670000 -14267561.117971526 11961947.070835954 -4087224.9672984453 -7.9807701177341561e-05 -0.00030473151689084353 -0.0021690244702889010 3.6000000005817014 -1.6000000006334452 -6.6994653783994220 
1000.0000000000000 7000.0000000000000 -166.66666666670000 -14267561.118501300 11961947.069201831 -4087224.9675651691 -7.1763800722043518e-05 -0.00051724091224209390 -0.0021755596210784748 3.6000000005793216 -1.2000000004054245 -6.6994653780682398 
2000.0000000000000 7000.0000000000000 0.0000000000000000 -13691170.504285470 12538337.691103946 -2043658.2123365658 -0.00016863494243591140 -0.00033191548412493590 -0.0016475422905075799 3.2000000011515040 -1.2000000004496387 -6.7069238583327824 
2000.0000000000000 6000.0000000000000 0.0000000000000000 -13691170.503722567 12538337.692942727 -2043658.2121748044 -0.00020972772526668129 -0.00021841511040340470 -0.0016531131012295971 3.2000000011580481 -1.6000000007148703 -6.7069238586693398 
1000.0000000000000 6000.0000000000000 0.0000000000000000 -13691170.492266547 12538337.695652409 -2043658.2112227357 -8.6338050956398320e-05 -0.00021996498629587582 -0.0014655616496983758 3.6000000007163324 -1.6000000007103765 -6.7069238575511410 
1000.0000000000000 7000.0000000000000 0.0000000000000000 -13691170.492830206 12538337.693797719 -2043658.2113837083 -7.7324721292967730e-05 -0.00033381114386089107 -0.0014708231406509993 3.6000000007136226 -1.2000000004457159 -6.7069238572180625 
6000.0000000000000 7000.0000000000000 -1333.3333333329999 -22334502.488064978 3895005.7095514927 -32688198.835382979 4.1823536205888004e-06 -0.0015386951131104694 0.00016255067700421166 1.6000000000593710 -1.2000000000449031 -6.2296746432293029 
6000.0000000000000 7000.0000000000000 -1500.0000000000000 -23486510.142175477 2742998.0539544476 -36772589.611429431 2.1449115043197954e-05 -0.0015585702274437084 9.9293589985531593e-05 1.5999999999813146 -1.1999999999832356 -6.1029232128125281 
6000.0000000000000 7000.0000000000000 -1166.6666666670001 -21182391.718099903 5047116.4810784357 -28603442.466559947 -1.3631141533624219e-05 -0.0014991697786343795 0.00022366350705981051 1.6000000001375414 -1.2000000001055342 -6.3415191256802395 
6000.0000000000000 7000.0000000000000 -1000.0000000000000 -20030177.823045999 6199330.3777737916 -24518320.472205810 -3.1721980963472436e-05 -0.0014345283412354865 0.00027773202232403410 1.6000000002156869 -1.2000000001648585 -6.4384553258494668 
6000.0000000000000 7000.0000000000000 -833.33333333329995 -18877860.793672916 7351647.4088720931 -20432832.819579251 -4.9761847408562422e-05 -0.0013384952587796571 0.00031914703176230414 1.6000000002936510 -1.2000000002225812 -6.5204819092994191 
6000.0000000000000 7000.0000000000000 -666.66666666670005 -17725440.620751064 8504067.5836070552 -16346979.475940522 -6.7352979056888664e-05 -0.0012039317514732180 0.00034156956296994584 1.6000000003712527 -1.2000000002783737 -6.5875975414740182 
6000.0000000000000 7000.0000000000000 -500.00000000000000 -16572917.295049138 9656590.9112140071 -12260760.408542404 -8.4018505037763259e-05 -0.0010227999904208092 0.00033789389820980094 1.6000000004482755 -1.2000000003318678 -6.6398008876976089 
6000.0000000000000 7000.0000000000000 -333.33333333330000 -15420290.807337256 10809217.400926756 -8174175.5846408131 -9.9193619269076554e-05 -0.00078612977173893295 0.00030008187532764425 1.6000000005244552 -1.2000000003826476 -6.6770906131748839 
6000.0000000000000 7000.0000000000000 -166.66666666670000 -14267561.148385933 11961947.061978610 -4087224.9714908209 -0.00011222089226879203 -0.00048400979628233470 0.00021899237029985157 1.6000000005994635 -1.2000000004302427 -6.6994653829910584 
6000.0000000000000 7000.0000000000000 0.0000000000000000 -13691170.524946697 12538337.686493501 -2043658.2135103540 -0.00011810947226099695 -0.00031528954652000596 0.00016640462137107475 1.6000000006728821 -1.2000000004741218 -6.7069238621118421 
7000.0000000000000 4000.0000000000000 -1333.3333333329999 -22334502.489181772 3895005.7073174310 -32688198.838257201 -2.1205435120046359e-05 0.0054006238902499937 0.0010955437214766634 1.2000000000473354 -2.4000000000626187 -6.2296746455088403 
6000.0000000000000 4000.0000000000000 -1333.3333333329999 -22334502.489202227 3895005.7072455669 -32688198.838444173 8.9514441865834460e-06 0.0055214881601281631 0.00063786964447488991 1.6000000000554986 -2.4000000000633186 -6.2296746451757041 
7000.0000000000000 4000.0000000000000 -1500.0000000000000 -23486510.143437937 2742998.0521058762 -36772589.615361743 -2.3281464273515565e-06 0.0056676234497008747 0.0011077290124837894 1.1999999999893227 -2.3999999999364339 -6.1029232150822832 
6000.0000000000000 4000.0000000000000 -1500.0000000000000 -23486510.143420290 2742998.0520692016 -36772589.615393050 2.0811915415670127e-05 0.0057951632001221418 0.00061816165946219405 1.5999999999755357 -2.3999999999374921 -6.1029232147498993 
7000.0000000000000 4000.0000000000000 -1166.6666666670001 -21182391.719052289 5047116.4785132157 -28603442.468518235 -4.1296848342128058e-05 0.0050471825912070528 0.0010708418801511042 1.2000000001045208 -2.4000000001944275 -6.3415191279653049 
6000.0000000000000 4000.0000000000000 -1166.6666666670001 -21182391.719138879 5047116.4784091385 -28603442.468823463 -2.8723303814973934e-06 0.0051608062012795152 0.00065698681706398280 1.6000000001356425 -2.4000000001947517 -6.3415191276319636 
7000.0000000000000 4000.0000000000000 -1000.0000000000000 -20030177.823804997 6199330.3749501435 -24518320.473391242 -6.2704831951409851e-05 0.0046047963063829793 0.0010292944419715562 1.2000000001606921 -2.4000000003322959 -6.4384553281365253 
6000.0000000000000 4000.0000000000000 -1000.0000000000000 -20030177.823991694 6199330.3748153187 -24518320.473777782 -1.4305115929704253e-05 0.0047104190654082547 0.00067002483419063179 1.6000000002157724 -2.4000000003322324 -6.4384553278033811 
7000.0000000000000 4000.0000000000000 -833.33333333329995 -18877860.794198036 7351647.4058832452 -20432832.820137490 -8.5526527435445099e-05 0.0040718215419159529 0.00096588215352252417 1.2000000002156426 -2.4000000004766648 -6.5204819115857040 
6000.0000000000000 4000.0000000000000 -833.33333333329995 -18877860.794525534 7351647.4057175983 -20432832.820568498 -2.4633172642240706e-05 0.0041682879025529817 0.00067019047773207111 1.6000000002956534 -2.4000000004762110 -6.5204819112529853 
7000.0000000000000 4000.0000000000000 -666.66666666670005 -17725440.620988518 8504067.5805691648 -16346979.476021711 -0.00010985602835175562 0.0034477834039240711 0.00087483181875074143 1.2000000002691407 -2.4000000006279616 -6.5875975437575942 
6000.0000000000000 4000.0000000000000 -666.66666666670005 -17725440.621505238 8504067.5803711861 -16346979.476459717 -3.2612976309267838e-05 0.0035332998780504368 0.00064922693994739610 1.6000000003749988 -2.4000000006271431 -6.5875975434253551 
7000.0000000000000 4000.0000000000000 -500.00000000000000 -16572917.294929687 9656590.9082687665 -12260760.408303766 -0.00013579245144095621 0.0027339063965617699 0.00074954966107805554 1.2000000003209212 -2.4000000007865836 -6.6398008899774430 
6000.0000000000000 4000.0000000000000 -500.00000000000000 -16572917.295693001 9656590.9080358129 -12260760.408709515 -3.6261320785417371e-05 0.0028056375344436462 0.00059714295344965923 1.6000000004534525 -2.4000000007854747 -6.6398008896455352 
7000.0000000000000 4000.0000000000000 -333.33333333330000 -15420290.806773588 10809217.398244040 -8174175.5842499603 -0.00016344037055756770 0.0019337261742087496 0.00058254417397429899 1.2000000003706790 -2.4000000009528768 -6.6770906154509637 
6000.0000000000000 4000.0000000000000 -333.33333333330000 -15420290.807851523 10809217.397972759 -8174175.5845814599 -3.2594966444799168e-05 0.0019872496029427356 0.00050194362912964836 1.6000000005305781 -2.4000000009516231 -6.6770906151189919 
7000.0000000000000 4000.0000000000000 -166.66666666670000 -14267561.147269461 11961947.059759034 -4087224.9711293927 -0.00019292487927640285 0.0010538440673107576 0.00036538242238868228 1.2000000004180589 -2.4000000011271099 -6.6994653852645021 
6000.0000000000000 4000.0000000000000 -166.66666666670000 -14267561.148742775 11961947.059446160 -4087224.9713404090 -1.7364328162359379e-05 0.0010825053294337918 0.00034935317089484195 1.6000000006058355 -2.4000000011259588 -6.6994653849317851 
7000.0000000000000 4000.0000000000000 0.0000000000000000 -13691170.523523789 12538337.684559643 -2043658.2132110121 -0.00020814360702588351 0.00059502442684807402 0.00024315302700104503 1.2000000004626481 -2.4000000013094556 -6.7069238643850504 
6000.0000000000000 4000.0000000000000 0.0000000000000000 -13691170.525216714 12538337.684225241 -2043658.2133495694 -6.2391544318660411e-06 0.00060926602224962729 0.00025677265027516520 1.6000000006785693 -2.4000000013087757 -6.7069238640505828 
0.0000000000000000 7000.0000000000000 -1333.3333333329999 -22334502.481040504 3895005.7166001191 -32688198.810284112 1.5620912184333706e-05 -0.0016905652878528169 -0.0041221417697591438 4.0000000000000000 -1.2000000000395679 -6.2296746381592536 
0.0000000000000000 8000.0000000000000 -1333.3333333329999 -22334502.481305212 3895005.7162444605 -32688198.811189856 6.7428057766178570e-06 -0.0018192392153904573 -0.0041443008737201883 4.0000000000000000 -0.80000000002247174 -6.2296746379958554 
1000.0000000000000 8000.0000000000000 -1333.3333333329999 -22334502.481761735 3895005.7155381972 -32688198.813922789 8.5870915757434022e-07 -0.0018232577097931108 -0.0066039381408188767 3.5999999999882766 -0.80000000002217597 -6.2296746384185493 
0.0000000000000000 7000.0000000000000 -1500.0000000000000 -23486510.137745436 2742998.0609065047 -36772589.584293142 2.2269975019526746e-05 -0.0017143367537434263 -0.0041555153399976874 4.0000000000000000 -1.1999999999802300 -6.1029232078468549 
0.0000000000000000 8000.0000000000000 -1500.0000000000000 -23486510.137956508 2742998.0606757700 -36772589.585137345 1.1686239328993675e-05 -0.0018733327111837318 -0.0041838101284560666 4.0000000000000000 -0.79999999998548976 -6.1029232076796118 
1000.0000000000000 8000.0000000000000 -1500.0000000000000 -23486510.138151359 2742998.0599991148 -36772589.587988280 8.1721842894490058e-06 -0.0018792383463926165 -0.0066915473556421884 3.5999999999345347 -0.79999999998502092 -6.1029232080894698 
0.0000000000000000 7000.0000000000000 -1166.6666666670001 -21182391.708228447 5047116.4882458542 -28603442.443645455 8.6479981046760982e-06 -0.0016439102132297532 -0.0040332988167336914 4.0000000000000000 -1.2000000000977649 -6.3415191205178179 
0.0000000000000000 8000.0000000000000 -1166.6666666670001 -21182391.708545160 5047116.4877385460 -28603442.444576241 1.6679745025759642e-06 -0.0017403178925350594 -0.0040504955573445684 4.0000000000000000 -0.80000000005806926 -6.3415191203581625 
1000.0000000000000 8000.0000000000000 -1166.6666666670001 -21182391.709312275 5047116.4869991364 -28603442.447159022 -6.7301870685716723e-06 -0.0017429244802151418 -0.0064259627161294443 3.6000000000474510 -0.80000000005794980 -6.3415191207926762 
0.0000000000000000 7000.0000000000000 -1000.0000000000000 -20030177.810045015 6199330.3850817103 -24518320.451655436 1.4848070991787265e-06 -0.0015688024965328285 -0.0038779095116970078 4.0000000000000000 -1.2000000001545310 -6.4384553206077424 
0.0000000000000000 8000.0000000000000 -1000.0000000000000 -20030177.810412616 6199330.3843921078 -24518320.452573992 -3.4282964250816784e-06 -0.0016324964303797156 -0.0038912591397477440 4.0000000000000000 -0.80000000009202443 -6.4384553204515402 
1000.0000000000000 8000.0000000000000 -1000.0000000000000 -20030177.811550278 6199330.3836144069 -24518320.454970684 -1.4523988896130113e-05 -0.0016341397610835518 -0.0061407784423923228 3.6000000001128791 -0.80000000009207983 -6.4384553208966091 
0.0000000000000000 7000.0000000000000 -833.33333333329995 -18877860.777222849 7351647.4163432764 -20432832.801605511 -5.7166913185028715e-06 -0.0014589139962704640 -0.0036422573363601228 4.0000000000000000 -1.2000000002095503 -6.5204819039926996 
0.0000000000000000 8000.0000000000000 -833.33333333329995 -18877860.777640749 7351647.4154366329 -20432832.802473940 -8.4252596825667638e-06 -0.0014912116958081349 -0.0036527720978800451 4.0000000000000000 -0.80000000012406081 -6.5204819038394746 
1000.0000000000000 8000.0000000000000 -833.33333333329995 -18877860.779223680 7351647.4146130728 -20432832.804644756 -2.2440986285124611e-05 -0.0014922750380585708 -0.0057278232198966919 3.6000000001855499 -0.80000000012428452 -6.5204819042935469 
0.0000000000000000 7000.0000000000000 -666.66666666670005 -17725440.600488290 8504067.5912651420 -16346979.460796565 -1.2788281265069097e-05 -0.0013071051411591829 -0.0033090704280097859 4.0000000000000000 -1.2000000002624733 -6.5875975361180501 
0.0000000000000000 8000.0000000000000 -666.66666666670005 -17725440.600956328 8504067.5901025552 -16346979.461576089 -1.3191736249343038e-05 -0.0013113802275302633 -0.0033175555319586545 4.0000000000000000 -0.80000000015387873 -6.5875975359671308 
1000.0000000000000 8000.0000000000000 -666.66666666670005 -17725440.603078626 8504067.5892227534 -16346979.463474594 -3.0388095868966318e-05 -0.0013121520932463417 -0.0051616870461157292 3.6000000002666570 -0.80000000015425887 -6.5875975364283414 
0.0000000000000000 7000.0000000000000 -500.00000000000000 -16572917.270557107 9656590.9190828577 -12260760.396533903 -1.9532656135507277e-05 -0.0011054036570994278 -0.0028560660991893698 4.0000000000000000 -1.2000000003129114 -6.6398008823098573 
0.0000000000000000 8000.0000000000000 -500.00000000000000 -16572917.271075508 9656590.9176212065 -12260760.397184623 -1.7593363788429040e-05 -0.0010873997079756032 -0.0028630447342128671 4.0000000000000000 -0.80000000018115092 -6.6398008821603725 
1000.0000000000000 8000.0000000000000 -500.00000000000000 -16572917.273857104 9656590.9166714810 -12260760.398753399 -3.8267761322244530e-05 -0.0010880541381278594 -0.0044105007785257182 3.6000000003576753 -0.80000000018167161 -6.6398008826264592 
0.0000000000000000 7000.0000000000000 -333.33333333330000 -15420290.778129889 10809217.409034371 -8174175.5761249457 -2.5717246371205526e-05 -0.00084498884846578534 -0.0022538085386316128 4.0000000000000000 -1.2000000003604299 -6.6770906077748995 
0.0000000000000000 8000.0000000000000 -333.33333333330000 -15420290.778699297 10809217.407226104 -8174175.5766061591 -2.1499348609850590e-05 -0.00081313393887273819 -0.0022594604145724181 4.0000000000000000 -0.80000000020551931 -6.6770906076257681 
1000.0000000000000 8000.0000000000000 -333.33333333330000 -15420290.782297246 10809217.406186881 -8174175.5777772637 -4.5984888442982309e-05 -0.00081371066763786973 -0.0034336677248301517 3.6000000004604504 -0.80000000020615947 -6.6770906080939501 
0.0000000000000000 7000.0000000000000 -166.66666666670000 -14267561.113883726 11961947.070363399 -4087224.9668717021 -3.1099071545483020e-05 -0.00051615899428140879 -0.0014623422579810809 4.0000000000000000 -1.2000000004045406 -6.6994653776007889 
0.0000000000000000 8000.0000000000000 -166.66666666670000 -14267561.114505351 11961947.068156283 -4087224.9671422937 -2.4805293902858590e-05 -0.00048191357719599157 -0.0014664359821009467 4.0000000000000000 -0.80000000022658824 -6.6994653774507196 
1000.0000000000000 8000.0000000000000 -166.66666666670000 -14267561.119131317 11961947.066997716 -4087224.9678396168 -5.3466822459411936e-05 -0.00048229626598727182 -0.0021783366949678709 3.6000000005773276 -0.80000000022732376 -6.6994653779176128 
0.0000000000000000 7000.0000000000000 0.0000000000000000 -13691170.487638883 12538337.695028124 -2043658.2109465674 -3.3559077396885838e-05 -0.00033336978415222755 -0.0010135242437017155 4.0000000000000000 -1.2000000004446933 -6.7069238567560152 
0.0000000000000000 8000.0000000000000 0.0000000000000000 -13691170.488286989 12538337.692607936 -2043658.2111015166 -2.6297804141832220e-05 -0.00030119905624192853 -0.0010167312492978804 4.0000000000000000 -0.80000000024392004 -6.7069238566035061 
1000.0000000000000 8000.0000000000000 0.0000000000000000 -13691170.493487988 12538337.691380661 -2043658.2115419246 -5.7141922241638201e-05 -0.00030143450362969318 -0.0014735455600866187 3.6000000007113848 -0.80000000024472673 -6.7069238570650036 
4000.0000000000000 4000.0000000000000 -1333.3333333329999 -22334502.487250865 3895005.7083169026 -32688198.835359260 -5.4202263155173610e-05 0.0057428239789915608 -0.0048948395776791300 2.4000000000554653 -2.4000000000631072 -6.2296746437729631 
5000.0000000000000 4000.0000000000000 -1333.3333333329999 -22334502.488644574 3895005.7074961402 -32688198.837658502 -1.1210842087347202e-05 0.0057447157507074303 -0.0016396024119468082 2.0000000000632521 -2.4000000000641681 -6.2296746446252218 
5000.0000000000000 3000.0000000000000 -1333.3333333329999 -22334502.490313109 3895005.7054271251 -32688198.843117397 -3.8408577078279059e-05 0.0088504807197426552 -0.0014656666956696213 2.0000000000638640 -2.8000000000348426 -6.2296746458699968 
4000.0000000000000 4000.0000000000000 -1500.0000000000000 -23486510.141858943 2742998.0531980451 -36772589.611607850 -3.0273703895867300e-05 0.0060252628662029843 -0.0051595175170220907 2.3999999999409858 -2.3999999999381454 -6.1029232133566191 
5000.0000000000000 4000.0000000000000 -1500.0000000000000 -23486510.142944608 2742998.0523557635 -36772589.614317685 3.5441177662791896e-06 0.0060290091679566175 -0.0017947944971646414 1.9999999999627696 -2.3999999999386343 -6.1029232142024545 
5000.0000000000000 3000.0000000000000 -1500.0000000000000 -23486510.144582435 2742998.0509325801 -36772589.620342985 -2.8933090270172595e-05 0.0091279770725063471 -0.0016205386440907505 1.9999999999630691 -2.7999999999089207 -6.1029232154267152 
4000.0000000000000 4000.0000000000000 -1166.6666666670001 -21182391.716834243 5047116.4794285772 -28603442.466382697 -7.9374110565956485e-05 0.0053719761251109707 -0.0045548753504310226 2.4000000001749378 -2.4000000001936699 -6.3415191262229005 
5000.0000000000000 4000.0000000000000 -1166.6666666670001 -21182391.718528017 5047116.4786265250 -28603442.468292259 -2.6027593688765084e-05 0.0053719940377749374 -0.0014554638227895070 2.0000000001659006 -2.4000000001953192 -6.3415191270796134 
5000.0000000000000 3000.0000000000000 -1166.6666666670001 -21182391.720234305 5047116.4758646069 -28603442.473161168 -4.7129572760065249e-05 0.0084357328422717676 -0.0012834918204855618 2.0000000001668101 -2.8000000001690699 -6.3415191283415941 
4000.0000000000000 4000.0000000000000 -1000.0000000000000 -20030177.821384761 6199330.3757857215 -24518320.471922491 -0.00010600940179412547 0.0049095317390654807 -0.0041382267032549266 2.4000000002997663 -2.4000000003302913 -6.4384553263907822 
5000.0000000000000 4000.0000000000000 -1000.0000000000000 -20030177.823364284 6199330.3750006417 -24518320.473464638 -4.0610661397242935e-05 0.0049077589685358062 -0.0012470264827890375 2.0000000002706950 -2.4000000003325428 -6.4384553272501321 
5000.0000000000000 3000.0000000000000 -1000.0000000000000 -20030177.825115927 6199330.3714965321 -24518320.477718350 -5.4897337003111879e-05 0.0078700980147950808 -0.0010791300975399880 2.0000000002718732 -2.8000000003125143 -6.4384553285259027 
4000.0000000000000 4000.0000000000000 -833.33333333329995 -18877860.791683137 7351647.4066392826 -20432832.819235206 -0.00013451847570237420 0.0043526552600349714 -0.0036443209724495692 2.4000000004303206 -2.4000000004734616 -6.5204819098392459 
5000.0000000000000 4000.0000000000000 -833.33333333329995 -18877860.793927036 7351647.4058704190 -20432832.820434801 -5.4421745360461116e-05 0.0043492700720325914 -0.0010203695890652021 2.0000000003775842 -2.4000000004763238 -6.5204819106996021 
5000.0000000000000 3000.0000000000000 -833.33333333329995 -18877860.795732841 7351647.4015727341 -20432832.824047498 -6.1305641137387399e-05 0.0071385807548164041 -0.00085932153462363358 2.0000000003789826 -2.8000000004661847 -6.5204819119856419 
4000.0000000000000 4000.0000000000000 -666.66666666670005 -17725440.618512180 8504067.5812418908 -16346979.475579146 -0.00016559913469559395 0.0036988959301015342 -0.0030736197770854174 2.4000000005669659 -2.4000000006236948 -6.5875975420124018 
5000.0000000000000 4000.0000000000000 -666.66666666670005 -17725440.620991077 8504067.5804896336 -16346979.476463936 -6.6574734557856967e-05 0.0036942405814802807 -0.00078308222356653491 2.0000000004864815 -2.4000000006271738 -6.5875975428723672 
5000.0000000000000 3000.0000000000000 -666.66666666670005 -17725440.622861970 8504067.5753451791 -16346979.479410185 -6.5589385296051844e-05 0.0062247059382527824 -0.00063272668259173803 2.0000000004880119 -2.8000000006312011 -6.5875975441650656 
4000.0000000000000 4000.0000000000000 -500.00000000000000 -16572917.292653941 9656590.9088510796 -12260760.408204967 -0.00020035120939843637 0.0029463867497915579 -0.0024279086348437109 2.4000000007100577 -2.4000000007815299 -6.6398008882347685 
5000.0000000000000 4000.0000000000000 -500.00000000000000 -16572917.295329845 9656590.9081170019 -12260760.408806108 -7.5693457337183622e-05 0.0029410323907020294 -0.00054441011194275341 2.0000000005972542 -2.4000000007856221 -6.6398008890932081 
5000.0000000000000 3000.0000000000000 -500.00000000000000 -16572917.297279980 9656590.9020715579 -12260760.411061106 -6.6404793365644309e-05 0.0051102274756437659 -0.00041026583734495449 2.0000000005987606 -2.8000000008088080 -6.6398008903888819 
4000.0000000000000 4000.0000000000000 -333.33333333330000 -15420290.804892432 10809217.398726836 -8174175.5843667872 -0.00024038794348787745 0.0020940718717076122 -0.0017104942096068858 2.4000000008599263 -2.4000000009475158 -6.6770906137112362 
5000.0000000000000 4000.0000000000000 -333.33333333330000 -15420290.807718802 10809217.398013534 -8174175.5847197324 -7.9739556682445654e-05 0.0020888995275012406 -0.00031524955545626679 2.0000000007097145 -2.4000000009522009 -6.6770906145672990 
5000.0000000000000 3000.0000000000000 -333.33333333330000 -15420290.809766553 10809217.391013656 -8174175.5862580081 -6.1515455364158120e-05 0.0037747270962501301 -0.00020541757034300576 2.0000000007109366 -2.8000000010003991 -6.6770906158621841 
4000.0000000000000 4000.0000000000000 -166.66666666670000 -14267561.146011816 11961947.060133444 -4087224.9713185672 -0.00028794750349785548 0.0011420724632185116 -0.00092649077522417498 2.4000000010168807 -2.4000000011221974 -6.6994653835272135 
5000.0000000000000 4000.0000000000000 -166.66666666670000 -14267561.148934532 11961947.059444295 -4087224.9714632984 -7.5838983846125650e-05 0.0011384141140335345 -0.00010798421745329078 2.0000000008236083 -2.4000000011274278 -6.6994653843803755 
5000.0000000000000 3000.0000000000000 -166.66666666670000 -14267561.151103670 11961947.051440518 -4087224.9722565897 -4.7350356757792205e-05 0.0021951305950405051 -3.4518203351791098e-05 2.0000000008241376 -2.8000000012075463 -6.6994653856706199 
4000.0000000000000 4000.0000000000000 0.0000000000000000 -13691170.522639662 12538337.684877858 -2043658.2133984617 -0.00031393000309651873 0.00064126537178886035 -0.00051860575309294792 2.4000000011812102 -2.4000000013060823 -6.7069238626486758 
5000.0000000000000 4000.0000000000000 0.0000000000000000 -13691170.525596175 12538337.684201702 -2043658.2134496358 -7.1484831809443938e-05 0.00063876182011249707 -1.1462994075694549e-05 2.0000000009386123 -2.4000000013117653 -6.7069238634987345 
5000.0000000000000 3000.0000000000000 0.0000000000000000 -13691170.527832700 12538337.675684366 -2043658.2138628664 -3.7402447737694175e-05 0.0013412425684867183 4.0216235645328895e-05 2.0000000009378369 -2.8000000014320134 -6.7069238647803555 
9000.0000000000000 7000.0000000000000 -1333.3333333329999 -22334502.487682324 3895005.7101419098 -32688198.833322786 -4.3681867477573333e-05 -0.0013989473406503606 0.00077814776370337504 0.40000000001406327 -1.2000000000482602 -6.2296746438431985 
9000.0000000000000 6000.0000000000000 -1333.3333333329999 -22334502.487640057 3895005.7100711116 -32688198.832841866 -6.4400772427031212e-05 -6.0978360103775844e-05 0.00065640404798193242 0.40000000001599745 -1.6000000000670300 -6.2296746442331843 
9000.0000000000000 7000.0000000000000 -1500.0000000000000 -23486510.141987540 2742998.0544546493 -36772589.609536923 -3.8300757421275889e-05 -0.0014116884796718900 0.00080628807626372228 0.39999999999692260 -1.1999999999854047 -6.1029232134348570 
9000.0000000000000 6000.0000000000000 -1500.0000000000000 -23486510.141983077 2742998.0543350619 -36772589.609210245 -5.7436439763134325e-05 1.2650450953028970e-05 0.00067697139999131541 0.39999999999869695 -1.5999999999789389 -6.1029232138274860 
9000.0000000000000 7000.0000000000000 -1166.6666666670001 -21182391.717462938 5047116.4817511691 -28603442.464431558 -4.9719643297676172e-05 -0.0013682297602471132 0.00073971066174916326 0.40000000003049546 -1.2000000001101483 -6.3415191262856316 
9000.0000000000000 6000.0000000000000 -1166.6666666670001 -21182391.717387065 5047116.4817595473 -28603442.463842977 -7.2291109974727881e-05 -0.00013552238331719586 0.00062599679753901245 0.40000000003261749 -1.6000000001554560 -6.3415191266726190 
9000.0000000000000 7000.0000000000000 -1000.0000000000000 -20030177.822086453 6199330.3785238313 -24518320.470106263 -5.6860738546168321e-05 -0.0013142820929786267 0.00068944242923172619 0.40000000004613046 -1.2000000001708218 -6.4384553264467561 
9000.0000000000000 6000.0000000000000 -1000.0000000000000 -20030177.821980372 6199330.3786472566 -24518320.469456468 -8.1786633972062001e-05 -0.00020558200582106127 0.00058446249531303972 0.40000000004848918 -1.6000000002440671 -6.4384553268306259 
9000.0000000000000 7000.0000000000000 -833.33333333329995 -18877860.792313278 7351647.4096976640 -20432832.817602482 -6.5616091134015892e-05 -0.0012310696595550803 0.00062564125198795581 0.40000000006087305 -1.2000000002300106 -6.5204819098894751 
9000.0000000000000 6000.0000000000000 -833.33333333329995 -18877860.792179681 7351647.4099777974 -20432832.816938151 -9.3692574207473016e-05 -0.00026477520927403351 0.00053046044436360360 0.40000000006354247 -1.6000000003326884 -6.5204819102703464 
9000.0000000000000 7000.0000000000000 -666.66666666670005 -17725440.618904024 8504067.5845097564 -16346979.474177571 -7.6564842481671483e-05 -0.0011117515580645141 0.00054642726536349544 0.40000000007462067 -1.2000000002874149 -6.5875975420581856 
9000.0000000000000 6000.0000000000000 -666.66666666670005 -17725440.618744891 8504067.5849944763 -16346979.473545555 -0.00010894881440788822 -0.00030568799760351180 0.00046259066585832483 0.40000000007770276 -1.6000000004211137 -6.5875975424364253 
9000.0000000000000 7000.0000000000000 -500.00000000000000 -16572917.292616863 9656590.9121990297 -12260760.407081474 -9.0362370446287090e-05 -0.00094866747247610863 0.00044972907111451380 0.40000000008725933 -1.2000000003426976 -6.6398008882777066 
9000.0000000000000 6000.0000000000000 -500.00000000000000 -16572917.292433543 9656590.9129427634 -12260760.406529058 -0.00012864954930455816 -0.00031976719873755461 0.00037938458518188290 0.40000000009088937 -1.6000000005090946 -6.6398008886539301 
9000.0000000000000 7000.0000000000000 -333.33333333330000 -15420290.804210536 10809217.402003076 -8174175.5835676240 -0.00010774486642393113 -0.00073329434898780047 0.00033328062699163595 0.40000000009866132 -1.2000000003954769 -6.6770906137532169 
9000.0000000000000 6000.0000000000000 -333.33333333330000 -15420290.804003770 10809217.403067166 -8174175.5831425376 -0.00015405819102434965 -0.00029722072300389330 0.00027932214616728583 0.40000000010301207 -1.6000000005963300 -6.6770906141283106 
9000.0000000000000 7000.0000000000000 -166.66666666670000 -14267561.144443285 11961947.063159062 -4087224.9708893611 -0.00012953035074769119 -0.00045622508134474164 0.00019457998165533773 0.40000000010868131 -1.2000000004453193 -6.6994653835704261 
9000.0000000000000 6000.0000000000000 -166.66666666670000 -14267561.144213259 11961947.064612100 -4087224.9706398821 -0.00018661980901829719 -0.00022701900725167952 0.00016081186763569838 0.40000000011396875 -1.6000000006824562 -6.6994653839455376 
9000.0000000000000 7000.0000000000000 0.0000000000000000 -13691170.520564111 12538337.687729716 -2043658.2131655738 -0.00014163125089027738 -0.00030103431527658060 0.00011933729164684663 0.40000000011715098 -1.2000000004917279 -6.7069238626955636 
9000.0000000000000 6000.0000000000000 0.0000000000000000 -13691170.520322459 12538337.689395292 -2043658.2130160881 -0.00020488151651657495 -0.00017854763015976829 9.6739993936350172e-05 0.40000000012364328 -1.6000000007670374 -6.7069238630721220 
8000.0000000000000 4000.0000000000000 -1333.3333333329999 -22334502.489075683 3895005.7075245688 -32688198.837229438 -5.2149850252278853e-05 0.0056005915950672197 0.00057307157888113127 0.80000000003798266 -2.4000000000645927 -6.2296746457380578 
8000.0000000000000 3000.0000000000000 -1333.3333333329999 -22334502.490757134 3895005.7054526340 -32688198.842766650 1.7963163098835650e-05 0.0086619871454015097 0.00019894169103106115 0.80000000003889749 -2.8000000000374419 -6.2296746469712687 
7000.0000000000000 3000.0000000000000 -1333.3333333329999 -22334502.490840908 3895005.7052707300 -32688198.843767617 -1.4744590642915536e-05 0.0084709982119977548 0.0010698032788999106 1.2000000000478972 -2.8000000000377301 -6.2296746467152317 
8000.0000000000000 4000.0000000000000 -1500.0000000000000 -23486510.143400069 2742998.0522866896 -36772589.614370756 -2.7769678367056045e-05 0.0058770147709725287 0.00056181822893132860 0.80000000000088711 -2.3999999999375903 -6.1029232153173147 
8000.0000000000000 3000.0000000000000 -1500.0000000000000 -23486510.145060122 2742998.0508650597 -36772589.620453402 4.5787544519919714e-05 0.0089479220014161871 0.00018176419611960840 0.80000000000082216 -2.7999999999106042 -6.1029232165295051 
7000.0000000000000 3000.0000000000000 -1500.0000000000000 -23486510.145085059 2742998.0507065332 -36772589.621394515 1.1389295266390465e-06 0.0087575971696146511 0.0010802267413767476 1.1999999999893303 -2.7999999999118312 -6.1029232162674125 
8000.0000000000000 4000.0000000000000 -1166.6666666670001 -21182391.718859859 5047116.4787425688 -28603442.467494465 -7.9058358206188426e-05 0.0052358036648354365 0.00057098157368403249 0.80000000007408478 -2.4000000001972790 -6.3415191281888648 
8000.0000000000000 3000.0000000000000 -1166.6666666670001 -21182391.720566139 5047116.4759736778 -28603442.472461224 -1.3671835565280737e-05 0.0082417512442648621 0.00020729263745829240 0.80000000007608840 -2.8000000001725729 -6.3415191294399413 
7000.0000000000000 3000.0000000000000 -1166.6666666670001 -21182391.720725037 5047116.4757731948 -28603442.473481528 -3.1673894486483235e-05 0.0080530833199944432 0.0010473176090232334 1.2000000001056732 -2.8000000001718139 -6.3415191291900461 
8000.0000000000000 4000.0000000000000 -1000.0000000000000 -20030177.823506318 6199330.3751979852 -24518320.472411368 -0.00010913726361714303 0.0047798728788396149 0.00055319636734738986 0.80000000010910965 -2.4000000003360955 -6.4384553283548067 
8000.0000000000000 3000.0000000000000 -1000.0000000000000 -20030177.825239640 6199330.3716841545 -24518320.476777975 -4.9497107955187396e-05 0.0076742959069261612 0.00020523329554817334 0.80000000011232586 -2.8000000003169063 -6.4384553296204476 
7000.0000000000000 3000.0000000000000 -1000.0000000000000 -20030177.825491082 6199330.3714700630 -24518320.477776058 -4.9689066796858902e-05 0.0074914404338260899 0.0010084241750115811 1.2000000001624722 -2.8000000003149914 -6.4384553293765459 
8000.0000000000000 4000.0000000000000 -833.33333333329995 -18877860.793771625 7351647.4061463326 -20432832.819239974 -0.00014340149767834131 0.0042307297828459668 0.00051750040633979965 0.80000000014298345 -2.4000000004815001 -6.5204819117992949 
8000.0000000000000 3000.0000000000000 -833.33333333329995 -18877860.795532815 7351647.4018388195 -20432832.822973020 -9.0207530046371810e-05 0.0069457179901323187 0.00019154311512383621 0.80000000014756789 -2.8000000004714320 -6.5204819130760550 
7000.0000000000000 3000.0000000000000 -833.33333333329995 -18877860.795894608 7351647.4016165351 -20432832.823906377 -6.8808377796999084e-05 0.0067727556674551728 0.00094806328804056782 1.2000000002180899 -2.8000000004682417 -6.5204819128377514 
8000.0000000000000 4000.0000000000000 -666.66666666670005 -17725440.620411750 8504067.5808448531 -16346979.475243142 -0.00018340595425817756 0.0035872151636659232 0.00046193035854713549 0.80000000017564699 -2.4000000006339555 -6.5875975439672922 
8000.0000000000000 3000.0000000000000 -666.66666666670005 -17725440.622199841 8504067.5756951533 -16346979.478306506 -0.00013704773691155457 0.0060410973278905286 0.00016567281267621903 0.80000000018181183 -2.8000000006372190 -6.5875975452515769 
7000.0000000000000 3000.0000000000000 -666.66666666670005 -17725440.622689076 8504067.5754708666 -16346979.479131959 -8.9020774401231452e-05 0.0058829182851275986 0.00086040598674026747 1.2000000002722959 -2.8000000006326120 -6.5875975450182063 
8000.0000000000000 4000.0000000000000 -500.00000000000000 -16572917.294179369 9656590.9085553009 -12260760.407678152 -0.00023145562523581409 0.0028494819871182878 0.00038491241592472018 0.80000000020705309 -2.4000000007939151 -6.6398008901842340 
8000.0000000000000 3000.0000000000000 -500.00000000000000 -16572917.295990985 9656590.9025167786 -12260760.410033796 -0.00019217345517306991 0.0049446109281725019 0.00012817969422725708 0.80000000021511142 -2.8000000008154178 -6.6398008914723254 
7000.0000000000000 3000.0000000000000 -500.00000000000000 -16572917.296622196 9656590.9022978600 -12260760.410708113 -0.00011028412713476957 0.0048074102532137163 0.00073881965598902844 1.2000000003248263 -2.8000000008092023 -6.6398008912429507 
8000.0000000000000 4000.0000000000000 -333.33333333330000 -15420290.805826824 10809217.398541084 -8174175.5838077590 -0.00029086541744341183 0.0020194453808110159 0.00028543678328445902 0.80000000023717077 -2.4000000009618048 -6.6770906156560077 
8000.0000000000000 3000.0000000000000 -333.33333333330000 -15420290.807655245 10809217.391571496 -8174175.5854164623 -0.00025922145376869592 0.0036397824171745339 8.1348717938331528e-05 0.80000000024759843 -2.8000000010072599 -6.6770906169440698 
7000.0000000000000 3000.0000000000000 -333.33333333330000 -15420290.808437575 10809217.391366897 -8174175.5858975416 -0.00013251696461958430 0.0035319143820928775 0.00057582677224320589 1.2000000003753757 -2.8000000009991366 -6.6770906167174910 
8000.0000000000000 4000.0000000000000 -166.66666666670000 -14267561.146104893 11961947.060068507 -4087224.9708963777 -0.00036624984140553809 0.0011013783343614993 0.00016323808242682016 0.80000000026598272 -2.4000000011380052 -6.6994653854691020 
8000.0000000000000 3000.0000000000000 -166.66666666670000 -14267561.147938851 11961947.052133814 -4087224.9717183369 -0.00034417879589226518 0.0021098596216109831 3.0075643986963005e-05 0.80000000027951490 -2.8000000012140522 -6.6994653867532268 
7000.0000000000000 3000.0000000000000 -166.66666666670000 -14267561.148871692 11961947.051954243 -4087224.9719674066 -0.00015559185699736495 0.0020433815321238289 0.00036308096444206229 1.2000000004235865 -2.8000000012035207 -6.6994653865280043 
8000.0000000000000 4000.0000000000000 0.0000000000000000 -13691170.522245277 12538337.684876153 -2043658.2130884128 -0.00040860296239729455 0.00062104972243925266 9.6479336904065188e-05 0.80000000029349050 -2.4000000013228231 -6.7069238645906282 
8000.0000000000000 3000.0000000000000 0.0000000000000000 -13691170.524078544 12538337.676451700 -2043658.2135070285 -0.00039206273827802301 0.0012865341267737371 4.1397277289521812e-06 0.80000000031125407 -2.8000000014371600 -6.7069238658668819 
7000.0000000000000 3000.0000000000000 0.0000000000000000 -13691170.525084926 12538337.676287552 -2043658.2136309408 -0.00016732074304667431 0.0012443478313509549 0.00024317685500985635 1.2000000004690341 -2.8000000014233621 -6.7069238656414170 
2000.0000000000000 5000.0000000000000 -1333.3333333329999 -22334502.482753452 3895005.7133991872 -32688198.820331540 -3.7005168456752862e-05 0.0019812869769965766 -0.0088479084195397031 3.1999999999953128 -2.0000000000645457 -6.2296746405496757 
2000.0000000000000 4000.0000000000000 -1333.3333333329999 -22334502.483618658 3895005.7119155936 -32688198.823155366 -2.3483606603509907e-05 0.0052804008381986808 -0.0089156276483529466 3.1999999999963404 -2.4000000000580637 -6.2296746414617061 
2000.0000000000000 5000.0000000000000 -1500.0000000000000 -23486510.138645552 2742998.0578406537 -36772589.595262103 -1.8516751201563909e-05 0.0021396007951986224 -0.0090098628964353361 3.1999999999003839 -1.9999999999569131 -6.1029232101923236 
2000.0000000000000 4000.0000000000000 -1500.0000000000000 -23486510.139536176 2742998.0567161804 -36772589.598516539 -3.4509996852252969e-06 0.0055378629732929100 -0.0090800307725270174 3.1999999999007800 -2.3999999999349484 -6.1029232110939109 
2000.0000000000000 5000.0000000000000 -1166.6666666670001 -21182391.710915595 5047116.4849569192 -28603442.452743959 -5.6856999798282283e-05 0.0017888463957506590 -0.0085527455561382713 3.2000000000984636 -2.0000000001746741 -6.3415191229479797 
2000.0000000000000 4000.0000000000000 -1166.6666666670001 -21182391.711758424 5047116.4831152186 -28603442.455152497 -4.5509136245930683e-05 0.0049385283429209106 -0.0086167170251903510 3.2000000001001747 -2.4000000001866604 -6.3415191238683510 
2000.0000000000000 5000.0000000000000 -1000.0000000000000 -20030177.813896019 6199330.3817600533 -24518320.459765218 -7.8353609436840322e-05 0.0015658269808754121 -0.0081040711764295038 3.2000000002109426 -2.0000000002873297 -6.4384553230720716 
2000.0000000000000 4000.0000000000000 -1000.0000000000000 -20030177.814717676 6199330.3795665167 -24518320.461772706 -6.9810587874479671e-05 0.0045095359262618349 -0.0081628976840452446 3.2000000002133966 -2.4000000003211710 -6.4384553239987543 
2000.0000000000000 5000.0000000000000 -833.33333333329995 -18877860.782464456 7351647.4130513500 -20432832.808674697 -0.00010180239396045716 0.0013170208004412477 -0.0074781510839724685 3.2000000003340068 -2.0000000004025189 -6.5204819064851938 
2000.0000000000000 4000.0000000000000 -833.33333333329995 -18877860.783263735 7351647.4105187068 -20432832.810294867 -9.6677070496997979e-05 0.0039914599159055720 -0.0075303810517386403 3.2000000003372731 -2.4000000004620330 -6.5204819074162543 
2000.0000000000000 5000.0000000000000 -666.66666666670005 -17725440.607394647 8504067.5880727898 -16346979.466754649 -0.00012753918457548662 0.0010486397441391807 -0.0066472519759523145 3.2000000004690885 -2.0000000005202119 -6.5875975386321866 
2000.0000000000000 4000.0000000000000 -666.66666666670005 -17725440.608167239 8504067.5852215700 -16346979.468001844 -0.00012639418696035659 0.0033834209250234375 -0.0066913662294493352 3.2000000004732465 -2.4000000006096776 -6.5875975395657900 
2000.0000000000000 5000.0000000000000 -500.00000000000000 -16572917.279463716 9656590.9160675425 -12260760.401281375 -0.00015591933243198095 0.00076858917046593572 -0.0055791025219390248 3.2000000006178264 -2.0000000006403300 -6.6398008848384000 
2000.0000000000000 4000.0000000000000 -500.00000000000000 -16572917.280201174 9656590.9129277039 -12260760.402171832 -0.00015924744985381726 0.0026861412644326502 -0.0056135775127247210 3.2000000006229605 -2.4000000007645053 -6.6398008857728348 
2000.0000000000000 5000.0000000000000 -333.33333333330000 -15420290.789457472 10809217.406276507 -8174175.5795348706 -0.00018728786112663943 0.00048667241658045650 -0.0042362255408945433 3.2000000007820799 -2.0000000007627308 -6.6770906103096248 
2000.0000000000000 4000.0000000000000 -333.33333333330000 -15420290.790145874 10809217.402889196 -8174175.5800882541 -0.00019550397310016452 0.0019024880156875913 -0.0042596645394104614 3.2000000007882821 -2.4000000009268696 -6.6770906112433437 
2000.0000000000000 5000.0000000000000 -166.66666666670000 -14267561.128173470 11961947.067938335 -4087224.9687947663 -0.00022194219031023668 0.00021480558364207568 -0.0025749802846251474 3.2000000009639606 -2.0000000008871930 -6.6994653801322306 
2000.0000000000000 4000.0000000000000 -166.66666666670000 -14267561.128791623 11961947.064357642 -4087224.9690360157 -0.00023536224706766933 0.0010383020958199512 -0.0025863246940882267 3.2000000009713179 -2.4000000010970504 -6.6994653810638942 
2000.0000000000000 5000.0000000000000 0.0000000000000000 -13691170.503562570 12538337.692787167 -2043658.2120860578 -0.00024012345397865078 8.3010700724239626e-05 -0.0016588993638075094 3.2000000011658343 -2.0000000010133974 -6.7069238592731386 
2000.0000000000000 4000.0000000000000 0.0000000000000000 -13691170.504139265 12538337.689125031 -2043658.2121782515 -0.00025621027594133243 0.00058702082641525421 -0.0016639871713485877 3.2000000011744238 -2.4000000012752309 -6.7069238602016625 
6000.0000000000000 3000.0000000000000 -1333.3333333329999 -22334502.490863107 3895005.7051927438 -32688198.843923476 -4.3185037525204116e-05 0.0086145263897019625 0.00093965609723706029 1.6000000000556409 -2.8000000000365430 -6.2296746463985890 
6000.0000000000000 3000.0000000000000 -1500.0000000000000 -23486510.145062104 2742998.0506625683 -36772589.621412106 -3.9593090168977101e-05 0.0088972016963061729 0.00092293350067564127 1.5999999999755667 -2.7999999999106882 -6.1029232159519857 
6000.0000000000000 3000.0000000000000 -1166.6666666670001 -21182391.720822573 5047116.4756638277 -28603442.473738763 -4.5272793224967708e-05 0.0081982331631048466 0.00095255157677020803 1.6000000001358676 -2.8000000001706269 -6.3415191288725179 
6000.0000000000000 3000.0000000000000 -1000.0000000000000 -20030177.825700998 6199330.3713298906 -24518320.478100281 -4.5640697125582497e-05 0.0076354500039600573 0.00095547404872502564 1.6000000002160419 -2.8000000003138470 -6.4384553290583275 
6000.0000000000000 3000.0000000000000 -833.33333333329995 -18877860.796262063 7351647.4014437720 -20432832.824265435 -4.3741368070671435e-05 0.0069122073394141783 0.00094072762168690902 1.6000000002959038 -2.8000000004671892 -6.5204819125189113 
6000.0000000000000 3000.0000000000000 -666.66666666670005 -17725440.623269118 8504067.5752609838 -16346979.479495432 -3.8446662317886947e-05 0.0060134966898753167 0.00089863444434518081 1.6000000003751129 -2.8000000006317238 -6.5875975446987018 
6000.0000000000000 3000.0000000000000 -500.00000000000000 -16572917.297482222 9656590.9020432420 -12260760.411046149 -2.7670261346318587e-05 0.0049233699801547086 0.00081695382140649288 1.6000000004532156 -2.8000000008086050 -6.6398008909226158 
6000.0000000000000 3000.0000000000000 -333.33333333330000 -15420290.809660709 10809217.391056608 -8174175.5861790366 -7.7824935905679452e-06 0.0036251138060812765 0.00068014078205025775 1.6000000005296138 -2.8000000009990695 -6.6770906163960166 
6000.0000000000000 3000.0000000000000 -166.66666666670000 -14267561.150561664 11961947.051574050 -4087224.9721572436 2.7253486421804414e-05 0.0021017026110142080 0.00046830939491592633 1.6000000006035253 -2.8000000012044337 -6.6994653862048938 
6000.0000000000000 3000.0000000000000 0.0000000000000000 -13691170.527037174 12538337.675868455 -2043658.2137654445 4.9495946756331420e-05 0.0012815764012760996 0.00034084847410189813 1.6000000006739417 -2.8000000014260782 -6.7069238653158774 
3000.0000000000000 5000.0000000000000 -1333.3333333329999 -22334502.484460656 3895005.7113822005 -32688198.827731278 -0.00010016213895822475 0.0021351679662983476 -0.0074988828263311009 2.8000000000242045 -2.0000000000678022 -6.2296746417332152 
3000.0000000000000 4000.0000000000000 -1333.3333333329999 -22334502.485368464 3895005.7098706882 -32688198.830467097 -6.5621815549302869e-05 0.0054860596879595797 -0.0077995411700653881 2.8000000000277199 -2.4000000000603077 -6.2296746426662954 
3000.0000000000000 5000.0000000000000 -1500.0000000000000 -23486510.139622897 2742998.0558850537 -36772589.603085481 -7.9066658434782220e-05 0.0023055370906645812 -0.0077448796206517996 2.7999999999101779 -1.9999999999595275 -6.1029232113443390 
3000.0000000000000 4000.0000000000000 -1500.0000000000000 -23486510.140548486 2742998.0547339874 -36772589.606257625 -3.7489084628122957e-05 0.0057542518975717671 -0.0080650168339294441 2.7999999999129348 -2.3999999999362918 -6.1029232122681307 
3000.0000000000000 5000.0000000000000 -1166.6666666670001 -21182391.713445365 5047116.4828742100 -28603442.459650379 -0.00012229598120305242 0.0019297757652864019 -0.0071355514456239444 2.8000000001458187 -2.0000000001786016 -6.3415191241603983 
3000.0000000000000 4000.0000000000000 -1166.6666666670001 -21182391.714339823 5047116.4810030432 -28603442.461968467 -9.5875339926635789e-05 0.0051314157965325416 -0.0074151463711147111 2.8000000001501282 -2.4000000001898685 -6.3415191251006497 
3000.0000000000000 5000.0000000000000 -1000.0000000000000 -20030177.817353144 6199330.3796078656 -24518320.466093611 -0.00014607116154142209 0.0016927767520202380 -0.0066430454853641753 2.8000000002758556 -2.0000000002919744 -6.4384553243102465 
3000.0000000000000 4000.0000000000000 -1000.0000000000000 -20030177.818237484 6199330.3773827236 -24518320.468012266 -0.00012870076876201822 0.0046873972097901794 -0.0068998034583635168 2.8000000002810150 -2.4000000003254178 -6.4384553252556680 
3000.0000000000000 5000.0000000000000 -833.33333333329995 -18877860.786966536 7351647.4108267520 -20432832.814323843 -0.00017231527282015932 0.0014287332403547718 -0.0060086060743815180 2.8000000004152081 -2.0000000004079510 -6.5204819077454195 
3000.0000000000000 4000.0000000000000 -833.33333333329995 -18877860.787842512 7351647.4082593098 -20432832.815861538 -0.00016488750899071916 0.0041517101902829017 -0.0062403595098058382 2.8000000004213059 -2.4000000004674127 -6.5204819086941299 
3000.0000000000000 5000.0000000000000 -666.66666666670005 -17725440.613072067 8504067.5857742652 -16346979.471604778 -0.00020214445451959684 0.0011434394077659480 -0.0052189081346949171 2.8000000005648142 -2.0000000005265322 -6.5875975399100515 
3000.0000000000000 4000.0000000000000 -666.66666666670005 -17725440.613939624 8504067.5828834996 -16346979.472780980 -0.00020573412113546999 0.0035228607385211826 -0.0054226931254039139 2.8000000005719907 -2.4000000006163167 -6.5875975408603136 
3000.0000000000000 5000.0000000000000 -500.00000000000000 -16572917.286458377 9656590.9136959892 -12260760.405191731 -0.00023702843030384865 0.00084424295958390489 -0.0042606076619969785 2.8000000007256349 -2.0000000006476779 -6.6398008861286817 
3000.0000000000000 4000.0000000000000 -500.00000000000000 -16572917.287315167 9656590.9105099104 -12260760.406027542 -0.00025328852604738784 0.0028005783593933425 -0.0044321830584806042 2.8000000007341055 -2.4000000007725877 -6.6398008870789109 
3000.0000000000000 5000.0000000000000 -333.33333333330000 -15420290.797920071 10809217.403836284 -8174175.5823428007 -0.00027885703829308060 0.00054021375797840953 -0.0031212827098294248 2.8000000008986294 -2.0000000007712937 -6.6770906116061735 
3000.0000000000000 4000.0000000000000 -333.33333333330000 -15420290.798760775 10809217.400394049 -8174175.5828615623 -0.00031062529016702005 0.0019862198885945950 -0.0032544077260759563 2.8000000009087129 -2.4000000009366578 -6.6770906125549709 
3000.0000000000000 5000.0000000000000 -166.66666666670000 -14267561.138257157 11961947.065439021 -4087224.9703151360 -0.00033000553244371918 0.00024238753138930349 -0.0017909382060999409 2.8000000010846970 -2.0000000008972130 -6.6994653814278644 
3000.0000000000000 4000.0000000000000 -166.66666666670000 -14267561.139072688 11961947.061793402 -4087224.9705430968 -0.00038216939345409279 0.0010834287897473031 -0.0018764874229097439 2.8000000010968482 -2.4000000011089195 -6.6994653823740560 
3000.0000000000000 5000.0000000000000 0.0000000000000000 -13691170.514494829 12538337.690261509 -2043658.2129134717 -0.00035823849096839548 9.6542788003286170e-05 -0.0010769664837911937 2.8000000012845963 -2.0000000010251844 -6.7069238605595549 
3000.0000000000000 4000.0000000000000 0.0000000000000000 -13691170.515294978 12538337.686529260 -2043658.2130029858 -0.00042214182941136566 0.00061055401221775038 -0.0011360325351015758 2.8000000012994550 -2.4000000012896945 -6.7069238615022080 
9000.0000000000000 3000.0000000000000 -1333.3333333329999 -22334502.490713384 3895005.7055906728 -32688198.841758952 2.2212439265150550e-05 0.0089692266018771005 -3.6531861025902506e-05 0.40000000002101471 -2.8000000000363374 -6.2296746471490589 
9000.0000000000000 3000.0000000000000 -1500.0000000000000 -23486510.145053446 2742998.0509954519 -36772589.619442731 4.2478580804175488e-05 0.0092521648774969677 -3.9468826269879078e-05 0.40000000000241209 -2.7999999999084553 -6.1029232167129202 
9000.0000000000000 3000.0000000000000 -1166.6666666670001 -21182391.720482923 5047116.4761139406 -28603442.471488945 -1.2945475305714901e-06 0.0085472779168063867 -3.8596712121625165e-05 0.40000000003913139 -2.8000000001726706 -6.3415191296123279 
9000.0000000000000 3000.0000000000000 -1000.0000000000000 -20030177.825117718 6199330.3718200726 -24518320.475874100 -2.8515610642017895e-05 0.0079724859411090046 -4.5177036844569914e-05 0.40000000005678349 -2.8000000003183803 -6.4384553297878204 
9000.0000000000000 3000.0000000000000 -833.33333333329995 -18877860.795377392 7351647.4019624200 -20432832.822169974 -6.0242609581413501e-05 0.0072297456889802150 -5.4977676689580359e-05 0.40000000007402381 -2.8000000004744829 -6.5204819132389611 
9000.0000000000000 3000.0000000000000 -666.66666666670005 -17725440.622022483 8504067.5757966638 -16346979.477634996 -9.7759226251768728e-05 0.0063024801702108091 -6.5642953187072667e-05 0.40000000009094322 -2.8000000006421035 -6.5875975454107083 
9000.0000000000000 3000.0000000000000 -500.00000000000000 -16572917.295811728 9656590.9025844745 -12260760.409520390 -0.00014305625190906557 0.0051724078310428391 -7.3519137647367854e-05 0.40000000010767700 -2.8000000008224912 -6.6398008916284805 
9000.0000000000000 3000.0000000000000 -333.33333333330000 -15420290.807505356 10809217.391591769 -8174175.5850805510 -0.00019910814689098265 0.0038192665047435291 -7.3457429214292470e-05 0.40000000012440567 -2.8000000010170427 -6.6770906170981004 
9000.0000000000000 3000.0000000000000 -166.66666666670000 -14267561.147864062 11961947.052091882 -4087224.9715678175 -0.00027017673837867419 0.0022204452716462963 -5.8790439286552858e-05 0.40000000014134679 -2.8000000012273278 -6.6994653869059437 
9000.0000000000000 3000.0000000000000 0.0000000000000000 -13691170.524054751 12538337.676374910 -2043658.2134493841 -0.00031008791719091731 0.0013566304077526968 -4.6879524468299969e-05 0.40000000015873255 -2.8000000014551234 -6.7069238660189345 
3.7084029529999999e-30 3000.0000000000000 -1333.3333333329999 -22334502.483792510 3895005.7124967342 -32688198.818120047 -6.9170237909248424e-06 0.0084960957149101835 -0.0036145875193589567 4.0000000000000000 -2.8000000000341303 -6.2296746412481294 
1000.0000000000000 3000.0000000000000 -1333.3333333329999 -22334502.484123740 3895005.7117521809 -32688198.821281109 -7.3146502165166540e-06 0.0083986683467942441 -0.0061152667125971144 3.5999999999843015 -2.8000000000343732 -6.2296746416425544 
1.0619517550000000e-29 3000.0000000000000 -1500.0000000000000 -23486510.140625935 2742998.0578278508 -36772589.593520366 -8.6072988658498309e-06 0.0087669168093033548 -0.0036022850739751752 4.0000000000000000 -2.7999999999109866 -6.1029232109107445 
1000.0000000000000 3000.0000000000000 -1500.0000000000000 -23486510.140689414 2742998.0571156535 -36772589.596812166 -4.0101837597198469e-06 0.0086718845171033856 -0.0061528175993873684 3.5999999999289760 -2.7999999999113836 -6.1029232112882577 
3.8769667240000000e-30 3000.0000000000000 -1166.6666666670001 -21182391.710863519 5047116.4831278045 -28603442.450176693 -5.3307532532938666e-06 0.0080936843585419742 -0.0035701482273827667 4.0000000000000000 -2.8000000001652663 -6.3415191236252753 
1000.0000000000000 3000.0000000000000 -1166.6666666670001 -21182391.711510908 5047116.4823485678 -28603442.453167342 -1.1387913630681410e-05 0.0079953483045888483 -0.0059839047190584698 3.6000000000452208 -2.8000000001653529 -6.3415191240354059 
-1.2136591500000000e-29 3000.0000000000000 -1000.0000000000000 -20030177.812571742 6199330.3789731506 -24518320.456968006 -4.0564824417589061e-06 0.0075467987858679753 -0.0034579385791292049 4.0000000000000000 -2.8000000003052734 -6.4384553237278750 
1000.0000000000000 3000.0000000000000 -1000.0000000000000 -20030177.813592862 6199330.3781562662 -24518320.459742781 -1.6507061390807930e-05 0.0074492456958454066 -0.0057418814396080573 3.6000000001125483 -2.8000000003052126 -6.4384553241521720 
-1.6274744300000000e-29 3000.0000000000000 -833.33333333329995 -18877860.779647816 7351647.4092847640 -20432832.805786416 -3.0709804363075586e-06 0.0068413749173751254 -0.0032648412835192308 4.0000000000000000 -2.8000000004551233 -6.5204819071201401 
1000.0000000000000 3000.0000000000000 -833.33333333329995 -18877860.781111922 7351647.4084261181 -20432832.808294225 -2.2713185009177558e-05 0.0067465922638362333 -0.0053692386673690907 3.6000000001872294 -2.8000000004549253 -6.5204819075566993 
0.0000000000000000 3000.0000000000000 -666.66666666670005 -17725440.602817267 8504067.5833169110 -16346979.463934345 -1.9043938953620578e-06 0.0059620174154729902 -0.0029750403191891369 4.0000000000000000 -2.8000000006158925 -6.5875975392479980 
1000.0000000000000 3000.0000000000000 -666.66666666670005 -17725440.604808267 8504067.5824110769 -16346979.466116656 -2.9586631732123370e-05 0.0058725028902924387 -0.0048421333968813856 3.6000000002703731 -2.8000000006155501 -6.5875975396945332 
0.0000000000000000 3000.0000000000000 -500.00000000000000 -16572917.272797162 9656590.9103287533 -12260760.398719424 6.7571011933260275e-07 0.0048918235016407489 -0.0025692631593758316 4.0000000000000000 -2.8000000007887804 -6.6398008854381247 
1000.0000000000000 3000.0000000000000 -500.00000000000000 -16572917.275417414 9656590.9093689807 -12260760.400506798 -3.5924760575297482e-05 0.0048110767950124466 -0.0041319650469068148 3.6000000003633024 -2.8000000007882369 -6.6398008858918862 
-1.4159356700000001e-29 3000.0000000000000 -333.33333333330000 -15420290.780293612 10809217.399585666 -8174175.5774555579 7.1160348761715420e-06 0.0036121136277215333 -0.0020234310179724981 4.0000000000000000 -2.8000000009751203 -6.6770906108979471 
1000.0000000000000 3000.0000000000000 -333.33333333330000 -15420290.783671085 10809217.398562154 -8174175.5787684489 -3.9257606107273814e-05 0.0035455499184777767 -0.0032039781615536395 3.6000000004676060 -2.8000000009742192 -6.6770906113556512 
0.0000000000000000 3000.0000000000000 -166.66666666670000 -14267561.115995238 11961947.060363827 -4087224.9674550937 2.1899828564469630e-05 0.0021018634917310424 -0.0013064865571635388 4.0000000000000000 -2.8000000011764077 -6.6994653807157931 
1000.0000000000000 3000.0000000000000 -166.66666666670000 -14267561.120295133 11961947.059260139 -4087224.9682073761 -3.4981023542749479e-05 0.0020585039307042387 -0.0020150768431000171 3.6000000005852373 -2.8000000011748090 -6.6994653811735603 
0.0000000000000000 3000.0000000000000 0.0000000000000000 -13691170.489732170 12538337.684793495 -2043658.2111846926 3.2099382741725295e-05 0.0012863093436696364 -0.00090084159003314907 4.0000000000000000 -2.8000000013943449 -6.7069238598609182 
1000.0000000000000 3000.0000000000000 0.0000000000000000 -13691170.494540101 12538337.683644528 -2043658.2116344923 -3.0195703964343302e-05 0.0012573952491547397 -0.0013494146035039675 3.6000000007186834 -2.8000000013913908 -6.7069238603142463 
3000.0000000000000 8000.0000000000000 -1333.3333333329999 -22334502.484572433 3895005.7117826128 -32688198.828304715 -5.0720778962463423e-05 -0.0017648973827285447 -0.0070556810570656147 2.8000000000151068 -0.80000000002365301 -6.2296746405864871 
2000.0000000000000 8000.0000000000000 -1333.3333333329999 -22334502.482970446 3895005.7137816660 -32688198.820707269 -2.4320579298792314e-05 -0.0018130307832601620 -0.0087050533553128442 3.1999999999920261 -0.80000000002223337 -6.2296746394344558 
3000.0000000000000 8000.0000000000000 -1500.0000000000000 -23486510.139603063 2742998.0563653600 -36772589.603132643 -4.2979014118017034e-05 -0.0018198456007230829 -0.0072608639020817272 2.7999999999022416 -0.79999999998594440 -6.1029232101938895 
2000.0000000000000 8000.0000000000000 -1500.0000000000000 -23486510.138720334 2742998.0583097339 -36772589.595086701 -1.5493763513189923e-05 -0.0018707034966153292 -0.0088642204411800655 3.1999999998984658 -0.79999999998475757 -6.1029232090753718 
3000.0000000000000 8000.0000000000000 -1166.6666666670001 -21182391.713679500 5047116.4831118174 -28603442.460628305 -5.9066440112390562e-05 -0.0016867996813851704 -0.0067332938882216989 2.8000000001354994 -0.80000000006001293 -6.3415191230189123 
2000.0000000000000 8000.0000000000000 -1166.6666666670001 -21182391.711267408 5047116.4851689115 -28603442.453553967 -3.3662835461477985e-05 -0.0017317939222711192 -0.0084156266129160034 3.2000000000937225 -0.80000000005834060 -6.3415191218362388 
3000.0000000000000 8000.0000000000000 -1000.0000000000000 -20030177.817703538 6199330.3795842063 -24518320.467351522 -6.8421608320352100e-05 -0.0015815476624323039 -0.0062821886766979565 2.8000000002641903 -0.80000000009477035 -6.4384553231748933 
2000.0000000000000 8000.0000000000000 -1000.0000000000000 -20030177.814379387 6199330.3817019779 -24518320.460888688 -4.3681822348768777e-05 -0.0016228926076657609 -0.0079758675188070210 3.2000000002046360 -0.80000000009281436 -6.4384553219649527 
3000.0000000000000 8000.0000000000000 -833.33333333329995 -18877860.787430421 7351647.4104267620 -20432832.815733761 -7.9229876302976048e-05 -0.0014445879232182083 -0.0056902991882166005 2.8000000004019938 -0.80000000012765493 -6.5204819066164239 
2000.0000000000000 8000.0000000000000 -833.33333333329995 -18877860.783080634 7351647.4126069825 -20432832.809985638 -5.4549307133739024e-05 -0.0014816517417636651 -0.0073622516491143788 3.2000000003260034 -0.80000000012536987 -6.5204819053831908 
3000.0000000000000 8000.0000000000000 -666.66666666670005 -17725440.613650218 8504067.5848650970 -16346979.473034479 -9.1970099730489602e-05 -0.0012708099459987684 -0.0049454502683943012 2.8000000005497583 -0.80000000015837203 -6.5875975387869428 
2000.0000000000000 8000.0000000000000 -666.66666666670005 -17725440.608149841 8504067.5871082805 -16346979.468120575 -6.6445453550697397e-05 -0.0013028085144625378 -0.0065472807040658360 3.2000000004592306 -0.80000000015570016 -6.5875975375350801 
3000.0000000000000 8000.0000000000000 -500.00000000000000 -16572917.287155550 9656590.9121256489 -12260760.406504508 -0.00010715300562348370 -0.0010545744700697789 -0.0040359978802772239 2.8000000007083403 -0.80000000018660189 -6.6398008850102386 
2000.0000000000000 8000.0000000000000 -500.00000000000000 -16572917.280369688 9656590.9144303761 -12260760.402562177 -7.9559874611339585e-05 -0.0010805438684293317 -0.0054988092695390104 3.2000000006059297 -0.80000000018346984 -6.6398008837452087 
3000.0000000000000 8000.0000000000000 -333.33333333330000 -15420290.798745211 10809217.401432583 -8174175.5833960418 -0.00012530244307033868 -0.00078967107763354297 -0.0029518289225918810 2.8000000008785690 -0.80000000021199269 -6.6770906104903940 
2000.0000000000000 8000.0000000000000 -333.33333333330000 -15420290.790532144 10809217.403794674 -8174175.5805809963 -9.4081057710831891e-05 -0.00080845380065199131 -0.0041793034410599504 3.2000000007679397 -0.80000000020831341 -6.6770906092185305 
3000.0000000000000 8000.0000000000000 -166.66666666670000 -14267561.139223725 11961947.062008552 -4087224.9709591107 -0.00014693949875587843 -0.00046930929995292752 -0.0016860081117387284 2.8000000010611932 -0.80000000023415629 -6.6994653803118984 
2000.0000000000000 8000.0000000000000 -166.66666666670000 -14267561.129441742 11961947.064419487 -4087224.9694456887 -0.00011019393287953461 -0.00047954736288626464 -0.0025449229455756059 3.2000000009473544 -0.80000000022983120 -6.6994653790405057 
3000.0000000000000 8000.0000000000000 0.0000000000000000 -13691170.515536087 12538337.686266568 -2043658.2133144948 -0.00015869445363271814 -0.00029438071178935880 -0.0010070761290189188 2.8000000012567923 -0.80000000025266615 -6.7069238594396552 
2000.0000000000000 8000.0000000000000 0.0000000000000000 -13691170.504934799 12538337.688699126 -2043658.2124977999 -0.00011867101171194526 -0.00029998086317723762 -0.0016431110029295538 3.2000000011465355 -0.80000000024758666 -6.7069238581770527 
3000.0000000000000 9000.0000000000000 -1333.3333333329999 -22334502.484818228 3895005.7114265873 -32688198.829009339 -2.4577044559422347e-05 -0.0010921344659356625 -0.0070079584432132880 2.8000000000139016 -0.40000000001021846 -6.2296746405199377 
3000.0000000000000 10000.000000000000 -1333.3333333329999 -22334502.484913673 3895005.7112804046 -32688198.829277515 -1.1957862660788402e-05 -0.00059886587400751856 -0.0069933747020441885 2.8000000000135259 0.0000000000000000 -6.2296746405041521 
4000.0000000000000 10000.000000000000 -1333.3333333329999 -22334502.486555167 3895005.7097555478 -32688198.834710822 -1.2841512425778924e-05 -0.00058466790774564198 -0.0044289997836927482 2.4000000000442423 0.0000000000000000 -6.2296746415451558 
3000.0000000000000 9000.0000000000000 -1500.0000000000000 -23486510.139820062 2742998.0561168496 -36772589.603811204 -2.0766903772422851e-05 -0.0011318894643696392 -0.0072096471245783316 2.7999999999011931 -0.39999999999231090 -6.1029232101246800 
3000.0000000000000 10000.000000000000 -1500.0000000000000 -23486510.139905456 2742998.0560121317 -36772589.604073994 -1.0105181168290170e-05 -0.00062195534646062082 -0.0071941671670078923 2.7999999999008658 0.0000000000000000 -6.1029232101079032 
4000.0000000000000 10000.000000000000 -1500.0000000000000 -23486510.140986253 2742998.0544920932 -36772589.610024691 -1.0815770646383172e-05 -0.00060706854106872920 -0.0046549923952991451 2.3999999999319295 0.0000000000000000 -6.1029232111267238 
3000.0000000000000 9000.0000000000000 -1166.6666666670001 -21182391.713952750 5047116.4826310743 -28603442.461335655 -2.8767649808353865e-05 -0.0010379620745776654 -0.0066890600919928267 2.8000000001341183 -0.40000000002725805 -6.3415191229549075 
3000.0000000000000 10000.000000000000 -1166.6666666670001 -21182391.714057829 5047116.4824375305 -28603442.461601302 -1.4029493491535607e-05 -0.00056786153129426771 -0.0066753673461695225 2.8000000001336871 0.0000000000000000 -6.3415191229400589 
4000.0000000000000 10000.000000000000 -1166.6666666670001 -21182391.716296427 5047116.4809073722 -28603442.466485191 -1.5050202907442089e-05 -0.00055438196700084393 -0.0041285811641683197 2.4000000001614534 0.0000000000000000 -6.3415191240002029 
3000.0000000000000 9000.0000000000000 -1000.0000000000000 -20030177.818003334 6199330.3789593019 -24518320.468037475 -3.3570862957770792e-05 -0.00096728845038754276 -0.0062415478970308351 2.8000000002626004 -0.40000000004328407 -6.4384553231132049 
3000.0000000000000 10000.000000000000 -1000.0000000000000 -20030177.818117734 6199330.3787117992 -24518320.468292303 -1.6446869979855298e-05 -0.00052788263844649535 -0.0062287713075975951 2.8000000002621017 0.0000000000000000 -6.4384553230991957 
4000.0000000000000 10000.000000000000 -1000.0000000000000 -20030177.820987627 6199330.3771775682 -24518320.472590528 -1.7552560406207622e-05 -0.00051519792431646062 -0.0037527422589036428 2.4000000002838613 0.0000000000000000 -6.4384553241752496 
3000.0000000000000 9000.0000000000000 -833.33333333329995 -18877860.787756309 7351647.4096359480 -20432832.816373453 -3.9233689576576649e-05 -0.00087775922015959637 -0.0056535435542775306 2.8000000004001526 -0.40000000005814185 -6.5204819065567019 
3000.0000000000000 10000.000000000000 -833.33333333329995 -18877860.787879895 7351647.4093271308 -20432832.816608980 -1.9343179378086950e-05 -0.00047773800331042741 -0.0056417900834440718 2.8000000003995673 0.0000000000000000 -6.5204819065433890 
4000.0000000000000 10000.000000000000 -833.33333333329995 -18877860.791410990 7351647.4077920476 -20432832.820281923 -2.0465475468796613e-05 -0.00046600622901762581 -0.0033017489807010128 2.4000000004117572 0.0000000000000000 -6.5204819076319449 
3000.0000000000000 9000.0000000000000 -666.66666666670005 -17725440.614002276 8504067.5838842392 -16346979.473602515 -4.6019626340297628e-05 -0.00076676453999692214 -0.0049130924295173748 2.8000000005476053 -0.40000000007166486 -6.5875975387287014 
3000.0000000000000 10000.000000000000 -666.66666666670005 -17725440.614135083 8504067.5835059844 -16346979.473810080 -2.2861891363118265e-05 -0.00041611730063112647 -0.0049025594915035513 2.8000000005469099 0.0000000000000000 -6.5875975387159054 
4000.0000000000000 10000.000000000000 -666.66666666670005 -17725440.618350197 8504067.5819756147 -16346979.476816056 -2.3907664622791864e-05 -0.00040559421458248471 -0.0027773707675014568 2.4000000005454121 0.0000000000000000 -6.5875975398133946 
3000.0000000000000 9000.0000000000000 -500.00000000000000 -16572917.287534306 9656590.9109282978 -12260760.406974608 -5.4204009292765692e-05 -0.00063143313830920679 -0.0040088380881965939 2.8000000007058001 -0.40000000008367420 -6.6398008849528640 
3000.0000000000000 10000.000000000000 -500.00000000000000 -16572917.287676506 9656590.9104717746 -12260760.407145211 -2.7148732052065290e-05 -0.00034157649892006315 -0.0039998404043425622 2.8000000007049657 0.0000000000000000 -6.6398008849403567 
4000.0000000000000 10000.000000000000 -500.00000000000000 -16572917.292587515 9656590.9089543931 -12260760.409442667 -2.7999101059411030e-05 -0.00033263279605918615 -0.0021833368415418012 2.4000000006850679 0.0000000000000000 -6.6398008860430879 
3000.0000000000000 9000.0000000000000 -333.33333333330000 -15420290.799151691 10809217.399989944 -8174175.5837411657 -6.4056190571899595e-05 -0.00046863125702154343 -0.0029310419425764571 2.8000000008755510 -0.40000000009397485 -6.6770906104331322 
3000.0000000000000 10000.000000000000 -333.33333333330000 -15420290.799303610 10809217.399445580 -8174175.5838655755 -3.2345183718691535e-05 -0.00025255591891983601 -0.0029240449644296258 2.8000000008745434 0.0000000000000000 -6.6770906104206347 
4000.0000000000000 10000.000000000000 -333.33333333330000 -15420290.804906184 10809217.397952823 -8174175.5854153940 -3.2862401476385433e-05 -0.00024569548664983793 -0.0015256959622988917 2.4000000008309228 0.0000000000000000 -6.6770906115248625 
3000.0000000000000 9000.0000000000000 -166.66666666670000 -14267561.139659474 11961947.060289504 -4087224.9711514032 -7.5824422863759821e-05 -0.00027496443589793639 -0.0016731600799364131 2.8000000010575934 -0.40000000010235498 -6.6994653802538533 
3000.0000000000000 10000.000000000000 -166.66666666670000 -14267561.139821626 11961947.059647003 -4087224.9712201813 -3.8576577731895335e-05 -0.00014736352900358835 -0.0016687648815162548 2.8000000010563708 0.0000000000000000 -6.6994653802410413 
4000.0000000000000 10000.000000000000 -166.66666666670000 -14267561.146088403 11961947.058194675 -4087224.9719887031 -3.8621980780736067e-05 -0.00014323923532579802 -0.00081304698608067750 2.4000000009831290 0.0000000000000000 -6.6994653813430700 
3000.0000000000000 9000.0000000000000 0.0000000000000000 -13691170.515986921 12538337.684401250 -2043658.2134232977 -8.2216761815558201e-05 -0.00016997406681105540 -0.00099863807011308790 2.8000000012524939 -0.40000000010858361 -6.7069238593797698 
3000.0000000000000 10000.000000000000 0.0000000000000000 -13691170.516154341 12538337.683707017 -2043658.2134618713 -4.1964844907326239e-05 -9.0503609718795252e-05 -0.00099571083533366543 2.8000000012510142 0.0000000000000000 -6.7069238593662730 
4000.0000000000000 10000.000000000000 0.0000000000000000 -13691170.522743035 12538337.682279427 -2043658.2138322450 -4.1741578825348118e-05 -8.7930156995604444e-05 -0.00044421540387341754 2.4000000011417972 0.0000000000000000 -6.7069238604626209 
10000.000000000000 8000.0000000000000 -1333.3333333329999 -22334502.487800017 3895005.7099329992 -32688198.833926778 -1.2741420208696207e-05 -0.0015906694713275740 0.00046421653171479355 0.0000000000000000 -0.80000000002926830 -6.2296746436671633 
10000.000000000000 7000.0000000000000 -1333.3333333329999 -22334502.487587836 3895005.7102346411 -32688198.833067305 -2.5140809207580426e-05 -0.0013546670131525335 0.00042565076059586864 0.0000000000000000 -1.2000000000490623 -6.2296746438671073 
10000.000000000000 8000.0000000000000 -1500.0000000000000 -23486510.142100990 2742998.0543530243 -36772589.610074483 -1.0415971095279144e-05 -0.0016366160376047240 0.00048278145270806271 0.0000000000000000 -0.79999999998974280 -6.1029232132562212 
10000.000000000000 7000.0000000000000 -1500.0000000000000 -23486510.141921561 2742998.0545414081 -36772589.609277062 -2.2252996174670107e-05 -0.0013646780261272018 0.00044320514351149149 0.0000000000000000 -1.1999999999861122 -6.1029232134596869 
10000.000000000000 8000.0000000000000 -1166.6666666670001 -21182391.717577297 5047116.4814084815 -28603442.465071641 -1.5353808675888670e-05 -0.0015237509941367778 0.00043976808515543088 0.0000000000000000 -0.80000000006754091 -6.3415191261122370 
10000.000000000000 7000.0000000000000 -1166.6666666670001 -21182391.717335761 5047116.4818493258 -28603442.464187808 -2.8481823053183354e-05 -0.0013269651477572321 0.00040262125390969620 0.0000000000000000 -1.2000000001110593 -6.3415191263086932 
10000.000000000000 8000.0000000000000 -1000.0000000000000 -20030177.822189890 6199330.3780172579 -24518320.470751669 -1.8399138593969747e-05 -0.0014320495826300626 0.00040860321581288937 0.0000000000000000 -0.80000000010433914 -6.4384553262758946 
10000.000000000000 7000.0000000000000 -1000.0000000000000 -20030177.821921997 6199330.3786272351 -24518320.469881039 -3.2563136751793530e-05 -0.0012764224973935635 0.00037339354891752533 0.0000000000000000 -1.2000000001718651 -6.4384553264690778 
10000.000000000000 8000.0000000000000 -833.33333333329995 -18877860.792398207 7351647.4089933010 -20432832.818222173 -2.2040734578113285e-05 -0.0013112743622976427 0.00036977465619352542 0.0000000000000000 -0.80000000013942496 -6.5204819097208784 
10000.000000000000 7000.0000000000000 -833.33333333329995 -18877860.792106591 7351647.4098064909 -20432832.817402162 -3.7710312971002551e-05 -0.0011971336316679874 0.00033717789153943660 0.0000000000000000 -1.2000000002312199 -6.5204819099111937 
10000.000000000000 8000.0000000000000 -666.66666666670005 -17725440.618962862 8504067.5835697539 -16346979.474740300 -2.6457181722329734e-05 -0.0011566221842118614 0.00032222326796862055 0.0000000000000000 -0.80000000017253969 -6.5875975418914239 
10000.000000000000 7000.0000000000000 -666.66666666670005 -17725440.618649736 8504067.5846246332 -16346979.474007858 -4.4288999171196885e-05 -0.0010824189876163159 0.00029309519349114720 0.0000000000000000 -1.2000000002888342 -6.5875975420794655 
10000.000000000000 8000.0000000000000 -500.00000000000000 -16572917.292641917 9656590.9109815247 -12260760.407555606 -3.1840961320989623e-05 -0.00096278655358760239 0.00026475628294768747 0.0000000000000000 -0.80000000020339834 -6.6398008881121822 
10000.000000000000 7000.0000000000000 -500.00000000000000 -16572917.292309221 9656590.9123210311 -12260760.406947535 -5.2707822791943114e-05 -0.00092483092390642095 0.00024013847839912504 0.0000000000000000 -1.2000000003443831 -6.6398008882987360 
10000.000000000000 8000.0000000000000 -333.33333333330000 -15420290.804193906 10809217.400462095 -8174175.5839211335 -3.8397735750843509e-05 -0.00072394511868908605 0.00019601462982396370 0.0000000000000000 -0.80000000023168527 -6.6770906135881667 
10000.000000000000 7000.0000000000000 -333.33333333330000 -15420290.803843331 10809217.402133800 -8174175.5834740354 -6.3423959452182260e-05 -0.00071610737008449572 0.00017715047708484436 0.0000000000000000 -1.2000000003974982 -6.6770906137742170 
10000.000000000000 8000.0000000000000 -166.66666666670000 -14267561.144376781 11961947.061244331 -4087224.9710900974 -4.6337308824322547e-05 -0.00043373448201402718 0.00011445098074671289 0.0000000000000000 -0.80000000025704865 -6.6994653834049140 
10000.000000000000 7000.0000000000000 -166.66666666670000 -14267561.144009700 11961947.063300731 -4087224.9708399768 -7.6948760165014508e-05 -0.00044713705656685993 0.00010277946382234751 0.0000000000000000 -1.2000000004477598 -6.6994653835916447 
10000.000000000000 8000.0000000000000 0.0000000000000000 -13691170.520470578 12538337.685614999 -2043658.2132818783 -5.0678807438493005e-05 -0.00027495605929751940 7.0258605817540086e-05 0.0000000000000000 -0.80000000027909601 -6.7069238625284822 
10000.000000000000 7000.0000000000000 0.0000000000000000 -13691170.520095564 12538337.687877484 -2043658.2131392076 -8.4480643089483335e-05 -0.00029639682377614928 6.2566991225030235e-05 0.0000000000000000 -1.2000000004946891 -6.7069238627172831 
8000.0000000000000 10000.000000000000 -1333.3333333329999 -22334502.488493964 3895005.7091542548 -32688198.835801601 -3.0022943957568469e-06 -0.00056295042038030131 0.0013904414774513906 0.80000000002746052 0.0000000000000000 -6.2296746434673347 
8000.0000000000000 10000.000000000000 -1500.0000000000000 -23486510.142657574 2742998.0537474547 -36772589.611920923 -4.6496728062178120e-07 -0.00058410313811372053 0.0014326365209193660 0.79999999999237903 0.0000000000000000 -6.1029232130492543 
8000.0000000000000 10000.000000000000 -1166.6666666670001 -21182391.718424857 5047116.4804358399 -28603442.466915019 -5.6892009336286623e-06 -0.00053415169591855679 0.0013305605665599640 0.80000000006137895 0.0000000000000000 -6.3415191259191230 
8000.0000000000000 10000.000000000000 -1000.0000000000000 -20030177.823210537 6199330.3768260945 -24518320.472504560 -8.5503845003980509e-06 -0.00049671829676382266 0.0012496284291451426 0.80000000009395222 0.0000000000000000 -6.4384553260887829 
8000.0000000000000 10000.000000000000 -833.33333333329995 -18877860.793614823 7351647.4075549049 -20432832.819826674 -1.1613889176656789e-05 -0.00044954217190612344 0.0011438145600468654 0.80000000012498185 0.0000000000000000 -6.5204819095387672 
8000.0000000000000 10000.000000000000 -666.66666666670005 -17725440.620401729 8504067.5818513297 -16346979.476139324 -1.4911931721695836e-05 -0.00039140189983551837 0.0010087701810276414 0.80000000015425010 0.0000000000000000 -6.5875975417130199 
8000.0000000000000 10000.000000000000 -500.00000000000000 -16572917.294332845 9656590.9089460671 -12260760.408693023 -1.8479237014906108e-05 -0.00032098613469179758 0.00083959503985817226 0.80000000018151352 0.0000000000000000 -6.6398008879359027 
8000.0000000000000 10000.000000000000 -333.33333333330000 -15420290.806170424 10809217.398068216 -8174175.5847420329 -2.2349832174930998e-05 -0.00023687466605234992 0.00063087624886085201 0.80000000020649942 0.0000000000000000 -6.6770906134121315 
8000.0000000000000 10000.000000000000 -166.66666666670000 -14267561.146676179 11961947.058446337 -4087224.9715403700 -2.6549187204778724e-05 -0.00013756310785970773 0.00037661574556359687 0.80000000022889939 0.0000000000000000 -6.6994653832269488 
8000.0000000000000 10000.000000000000 0.0000000000000000 -13691170.522941213 12538337.682602987 -2043658.2135333738 -2.8733089822671935e-05 -8.3916428889002859e-05 0.00023731349854795776 0.80000000024836559 0.0000000000000000 -6.7069238623461160 
7.4168059059999997e-30 6000.0000000000000 -1333.3333333329999 -22334502.480945960 3895005.7166084554 -32688198.809732582 2.5984054806697619e-05 -0.00042825891389832490 -0.0040717778572331321 4.0000000000000000 -1.6000000000571060 -6.2296746385048207 
2.1239035100000000e-29 6000.0000000000000 -1500.0000000000000 -23486510.137712404 2742998.0608530180 -36772589.583888106 3.3444727949006508e-05 -0.00037013223601223397 -0.0040941641881966180 4.0000000000000000 -1.5999999999733585 -6.1029232081954845 
7.7539334480000000e-30 6000.0000000000000 -1166.6666666670001 -21182391.708074331 5047116.4883471699 -28603442.442991827 1.7968220996393641e-05 -0.00048162371141281232 -0.0039924386416474453 4.0000000000000000 -1.6000000001409649 -6.3415191208600650 
-2.4273182999999999e-29 6000.0000000000000 -1000.0000000000000 -20030177.809832506 6199330.3853125647 -24518320.450945083 9.5453253688968754e-06 -0.00052440331870068097 -0.0038450598521650200 4.0000000000000000 -1.6000000002247330 -6.4384553209466411 
-3.2549488500000001e-29 6000.0000000000000 -833.33333333329995 -18877860.776952319 7351647.4167460566 -20432832.800884563 9.1062290433546516e-07 -0.00054978381393220883 -0.0036160463322667050 4.0000000000000000 -1.6000000003081800 -6.5204819043284630 
0.0000000000000000 6000.0000000000000 -666.66666666670005 -17725440.600159455 8504067.5918882750 -16346979.460112523 -7.6885666624783576e-06 -0.00054983857947227418 -0.0032883301736643215 4.0000000000000000 -1.6000000003910391 -6.5875975364511374 
0.0000000000000000 6000.0000000000000 -500.00000000000000 -16572917.270169297 9656590.9199809544 -12260760.395936381 -1.5930641584415357e-05 -0.00051551347186088500 -0.0028399373699244785 4.0000000000000000 -1.6000000004729960 -6.6398008826409898 
-2.8318713500000002e-29 6000.0000000000000 -333.33333333330000 -15420290.777682031 10809217.410268702 -8174175.5756652830 -2.3391460527477461e-05 -0.00043659021888122997 -0.0022418749552676814 4.0000000000000000 -1.6000000005536836 -6.6770906081050656 
0.0000000000000000 6000.0000000000000 -166.66666666670000 -14267561.113374405 11961947.072002294 -4087224.9666028386 -2.9528179515869816e-05 -0.00030162615524834900 -0.0014547651733516681 4.0000000000000000 -1.6000000006326702 -6.6994653779312596 
0.0000000000000000 6000.0000000000000 0.0000000000000000 -13691170.487098437 12538337.696887292 -2043658.2107865410 -3.2189529264570789e-05 -0.00021862420256930240 -0.0010082504221711056 4.0000000000000000 -1.6000000007094515 -6.7069238570883520 
0.0000000000000000 9000.0000000000000 -1333.3333333329999 -22334502.481546752 3895005.7158745313 -32688198.811930683 1.7610578691648033e-06 -0.0011233759396882326 -0.0041499317821241033 4.0000000000000000 -0.40000000000952857 -6.2296746379351049 
0.0000000000000000 9000.0000000000000 -1500.0000000000000 -23486510.138162155 2742998.0604142994 -36772589.585861154 4.4622129592169678e-06 -0.0011630124923674540 -0.0041919986597871084 4.0000000000000000 -0.39999999999200420 -6.1029232076159641 
0.0000000000000000 9000.0000000000000 -1166.6666666670001 -21182391.708821476 5047116.4872428775 -28603442.445310805 -9.6314241851173714e-07 -0.0010683750772074443 -0.0040543715245680602 4.0000000000000000 -0.40000000002616826 -6.3415191203001138 
0.0000000000000000 9000.0000000000000 -1000.0000000000000 -20030177.810722843 6199330.3837511167 -24518320.453278616 -3.6435677657584557e-06 -0.00099591528964703161 -0.0038941160569067601 4.0000000000000000 -0.40000000004177549 -6.4384553203958843 
0.0000000000000000 9000.0000000000000 -833.33333333329995 -18877860.777984288 7351647.4146283930 -20432832.803124543 -6.2049294407718627e-06 -0.00090366543124986275 -0.0036552256051835905 4.0000000000000000 -0.40000000005619352 -6.5204819037857851 
0.0000000000000000 9000.0000000000000 -666.66666666670005 -17725440.601332814 8504067.5891027935 -16346979.462148178 -8.5646903314457343e-06 -0.00078904454402540223 -0.0033200342836211851 4.0000000000000000 -0.40000000006925390 -6.5875975359148642 
0.0000000000000000 9000.0000000000000 -500.00000000000000 -16572917.271484835 9656590.9164032154 -12260760.397653537 -1.0642212206912162e-05 -0.00064924538027123118 -0.0028657608495016341 4.0000000000000000 -0.40000000008077524 -6.6398008821088670 
0.0000000000000000 9000.0000000000000 -333.33333333330000 -15420290.779141704 10809217.405760685 -8174175.5769471573 -1.2366677558466280e-05 -0.00048120863749708572 -0.0022623341335325179 4.0000000000000000 -0.40000000009055975 -6.6770906075742422 
0.0000000000000000 9000.0000000000000 -166.66666666670000 -14267561.114981454 11961947.066411724 -4087224.9673306034 -1.3694712397749607e-05 -0.00028163248407406602 -0.0014690641725926307 4.0000000000000000 -0.40000000009839115 -6.6994653773982753 
0.0000000000000000 9000.0000000000000 0.0000000000000000 -13691170.488780143 12538337.690715563 -2043658.2112072827 -1.4256567750329864e-05 -0.00017353437540383455 -0.0010190960542003262 4.0000000000000000 -0.40000000010403131 -6.7069238565491309 
3000.0000000000000 1000.0000000000000 -1333.3333333329999 -22334502.490993731 3895005.7046829555 -32688198.850823671 6.8368521224672222e-05 0.0063307505474573646 -0.0084088837446533483 2.8000000000229255 -3.5999999999907577 -6.2296746462324331 
3000.0000000000000 1000.0000000000000 -1500.0000000000000 -23486510.146009985 2742998.0516662188 -36772589.627940781 8.1237957966138512e-05 0.0064002354095062663 -0.0086419956126382747 2.7999999999052063 -3.5999999999325749 -6.1029232157479205 
3000.0000000000000 1000.0000000000000 -1166.6666666670001 -21182391.720145978 5047116.4734437149 -28603442.480821982 5.2720170727161897e-05 0.0061683804412145634 -0.0080444876574172763 2.8000000001486991 -3.6000000000546324 -6.3415191287444506 
3000.0000000000000 1000.0000000000000 -1000.0000000000000 -20030177.824241202 6199330.3671674049 -24518320.485150378 3.4015565669418809e-05 0.0058964271276008466 -0.0075344018615961109 2.8000000002834144 -3.6000000001250649 -6.4384553289672208 
3000.0000000000000 1000.0000000000000 -833.33333333329995 -18877860.794060439 7351647.3950659558 -20432832.831034735 1.2023132797978055e-05 0.0054949020176396132 -0.0068625812620141564 2.8000000004280556 -3.6000000002030541 -6.5204819124621087 
3000.0000000000000 1000.0000000000000 -666.66666666670005 -17725440.620388635 8504067.5663469266 -16346979.485700905 -1.3375407012483522e-05 0.0049397851454136320 -0.0060111917743679785 2.8000000005837125 -3.6000000002897639 -6.5875975446717643 
3000.0000000000000 1000.0000000000000 -500.00000000000000 -16572917.294012694 9656590.8902152516 -12260760.416365994 -4.2043834201104207e-05 0.0042020741305804857 -0.0049603730865722369 2.8000000007516026 -3.6000000003865504 -6.6398008909190276 
3000.0000000000000 1000.0000000000000 -333.33333333330000 -15420290.805724960 10809217.375869391 -8174175.5902491184 -7.3352289513991284e-05 0.0032465047975917859 -0.0036878785864423837 2.8000000009330956 -3.6000000004950223 -6.6770906164068720 
3000.0000000000000 1000.0000000000000 -166.66666666670000 -14267561.146322526 11961947.032501332 -4087224.9745679954 -0.00010578536157957670 0.0020297645749206249 -0.0021687797749676469 2.8000000011297557 -3.6000000006170976 -6.6994653862185336 
3000.0000000000000 1000.0000000000000 0.0000000000000000 -13691170.522692516 12538337.654710369 -2043658.2152383095 -0.00012202258049064704 0.0013501182518247733 -0.0013442886933660489 2.8000000013434234 -3.6000000007551045 -6.7069238653175107 
10000.000000000000 6000.0000000000000 -1333.3333333329999 -22334502.487564370 3895005.7101612026 -32688198.832550205 -3.5765143464991115e-05 1.3805831664655851e-05 0.00035901576172668245 0.0000000000000000 -1.6000000000681835 -6.2296746442617037 
10000.000000000000 6000.0000000000000 -1500.0000000000000 -23486510.141933583 2742998.0544204749 -36772589.608906277 -3.2013995572038356e-05 9.2479779242097681e-05 0.00037485927694671183 0.0000000000000000 -1.5999999999799750 -6.1029232138569798 
10000.000000000000 6000.0000000000000 -1166.6666666670001 -21182391.717281736 5047116.4818535540 -28603442.463571571 -4.0194066987947045e-05 -6.6129778430614133e-05 0.00033823314879096226 0.0000000000000000 -1.6000000001567498 -6.3415191267002626 
10000.000000000000 6000.0000000000000 -1000.0000000000000 -20030177.821841836 6199330.3787448052 -24518320.469212245 -4.5748888227361721e-05 -0.00014211177198696545 0.00031201676395546158 0.0000000000000000 -1.6000000002455377 -6.4384553268575218 
10000.000000000000 6000.0000000000000 -833.33333333329995 -18877860.792004347 7351647.4100789344 -20432832.816726983 -5.2954823153676875e-05 -0.00020797827591462968 0.00027988336798087893 0.0000000000000000 -1.6000000003343899 -6.5204819102966463 
10000.000000000000 6000.0000000000000 -666.66666666670005 -17725440.618529215 8504067.5850997176 -16346979.473372251 -6.2412956200704145e-05 -0.00025660543763990557 0.00024131547233669295 0.0000000000000000 -1.6000000004231179 -6.5875975424623006 
10000.000000000000 6000.0000000000000 -500.00000000000000 -16572917.292174047 9656590.9130531829 -12260760.406397175 -7.4811734225003454e-05 -0.00027983052562217763 0.00019572802025760635 0.0000000000000000 -1.6000000005114932 -6.6398008886795727 
10000.000000000000 6000.0000000000000 -333.33333333330000 -15420290.803697065 10809217.403184479 -8174175.5830542948 -9.0939838629524228e-05 -0.00026831898683855518 0.00014248080063624792 0.0000000000000000 -1.6000000005992387 -6.6770906141539204 
10000.000000000000 6000.0000000000000 -166.66666666670000 -14267561.143856011 11961947.064738778 -4087224.9705959596 -0.00011169280194064405 -0.00021159424568067227 8.0830521232723172e-05 0.0000000000000000 -1.6000000006860169 -6.6994653839713294 
10000.000000000000 6000.0000000000000 0.0000000000000000 -13691170.519939113 12538337.689527364 -2043658.2129943098 -0.00012334427820433528 -0.00017054894529519970 4.7803984558404934e-05 0.0000000000000000 -1.6000000007714215 -6.7069238630983214 
10000.000000000000 9000.0000000000000 -1333.3333333329999 -22334502.488010284 3895005.7095951932 -32688198.834625646 -4.4705669952315897e-06 -0.0010062977196261783 0.00048121760771485504 0.0000000000000000 -0.40000000001304886 -6.2296746435836150 
10000.000000000000 9000.0000000000000 -1500.0000000000000 -23486510.142289519 2742998.0541164032 -36772589.610756010 -3.0922586676608175e-06 -0.0010422210812085341 0.00050017845412492852 0.0000000000000000 -0.39999999999421237 -6.1029232131700084 
10000.000000000000 9000.0000000000000 -1166.6666666670001 -21182391.717807271 5047116.4809528375 -28603442.465764232 -5.9869816148396214e-06 -0.00095706892844998957 0.00045613671220250682 0.0000000000000000 -0.40000000003107022 -6.3415191260312138 
10000.000000000000 9000.0000000000000 -1000.0000000000000 -20030177.822437868 6199330.3774248082 -24518320.471414521 -7.6952769685727952e-06 -0.00089257081319150759 0.00042406337225246303 0.0000000000000000 -0.40000000004814806 -6.4384553261971389 
10000.000000000000 9000.0000000000000 -833.33333333329995 -18877860.792662803 7351647.4082426969 -20432832.818832073 -9.6535182063993398e-06 -0.00081062797106960728 0.00038399150018149700 0.0000000000000000 -0.40000000006414560 -6.5204819096440216 
10000.000000000000 9000.0000000000000 -666.66666666670005 -17725440.619243044 8504067.5826371759 -16346979.475274447 -1.1921395115251901e-05 -0.00070880725134304945 0.00033479140398211965 0.0000000000000000 -0.40000000007891506 -6.5875975418159793 
10000.000000000000 9000.0000000000000 -500.00000000000000 -16572917.292936951 9656590.9098406695 -12260760.407991473 -1.4562813553843607e-05 -0.00058443491814200296 0.00027519796357578375 0.0000000000000000 -0.40000000009229530 -6.6398008880375503 
10000.000000000000 9000.0000000000000 -333.33333333330000 -15420290.804503392 10809217.399084069 -8174175.5842366414 -1.7642491699369793e-05 -0.00043459467868642906 0.00020381760842035849 0.0000000000000000 -0.40000000010411024 -6.6770906135136281 
10000.000000000000 9000.0000000000000 -166.66666666670000 -14267561.144700706 11961947.059597597 -4087224.9712637421 -2.1216222640061076e-05 -0.00025612430904007911 0.00011910960641346746 0.0000000000000000 -0.40000000011416476 -6.6994653833296312 
10000.000000000000 9000.0000000000000 0.0000000000000000 -13691170.520801770 12538337.683825690 -2043658.2133792851 -2.3132764862467871e-05 -0.00015932317598788036 7.3219957973215313e-05 0.0000000000000000 -0.40000000012224296 -6.7069238624515020 
4000.0000000000000 5000.0000000000000 -1333.3333333329999 -22334502.486283731 3895005.7098543784 -32688198.832783513 -7.5800180017091172e-05 0.0023209611718320736 -0.0047432736266227078 2.4000000000529371 -2.0000000000718932 -6.2296746428159899 
4000.0000000000000 5000.0000000000000 -1500.0000000000000 -23486510.140880115 2742998.0543744043 -36772589.608592451 -5.5784663029951349e-05 0.0025084216714648601 -0.0049970448781353153 2.3999999999391188 -1.9999999999629792 -6.1029232124076014 
4000.0000000000000 5000.0000000000000 -1166.6666666670001 -21182391.715872768 5047116.4813269107 -28603442.464222707 -9.6535692366629656e-05 0.0020981199393630429 -0.0044146842325948491 2.4000000001717261 -2.0000000001833516 -6.3415191252600529 
4000.0000000000000 5000.0000000000000 -1000.0000000000000 -20030177.820423003 6199330.3780403286 -24518320.470153678 -0.00011831188883526521 0.0018431653272799780 -0.0040099939271391596 2.4000000002958370 -2.0000000002974256 -6.4384553254239876 
4000.0000000000000 5000.0000000000000 -833.33333333329995 -18877860.790714979 7351647.4092403017 -20432832.817831986 -0.00014156149217275661 0.0015602959807019161 -0.0035288778106343289 2.4000000004256203 -2.0000000004141776 -6.5204819088702664 
4000.0000000000000 5000.0000000000000 -666.66666666670005 -17725440.617530998 8504067.5841728169 -16346979.474514902 -0.00016685708970855476 0.0012547305945889656 -0.0029722996260591146 2.4000000005614130 -2.0000000005336509 -6.5875975410428333 
4000.0000000000000 5000.0000000000000 -500.00000000000000 -16572917.291652277 9656590.9120868258 -12260760.407452455 -0.00019493319092289631 0.00093297110493053919 -0.0023428209260180880 2.4000000007035323 -2.0000000006558589 -6.6398008872660359 
4000.0000000000000 5000.0000000000000 -333.33333333330000 -15420290.803861625 10809217.402231069 -8174175.5838988312 -0.00022670022431911245 0.00060297092892877741 -0.0016449055186001354 2.4000000008522595 -2.0000000007807697 -6.6770906127445775 
4000.0000000000000 5000.0000000000000 -166.66666666670000 -14267561.144941494 11961947.063855050 -4087224.9711089111 -0.00026325195937625687 0.00027439701755233167 -0.00088520622274556812 2.4000000010078426 -2.0000000009082974 -6.6994653825636865 
4000.0000000000000 5000.0000000000000 0.0000000000000000 -13691170.521546740 12538337.688693274 -2043658.2133115486 -0.00028287216539262379 0.00011179896224621775 -0.00049088280907446736 2.4000000011705023 -2.0000000010382881 -6.7069238616891464 
2000.0000000000000 3000.0000000000000 -1333.3333333329999 -22334502.485224135 3895005.7099152375 -32688198.828571480 -1.3154699386579505e-07 0.0083405099537728830 -0.0089907272974081940 3.1999999999967566 -2.8000000000346477 -6.2296746426434391 
2000.0000000000000 3000.0000000000000 -1500.0000000000000 -23486510.141131032 2742998.0553535465 -36772589.604437806 1.9155747302658149e-05 0.0086174206318537991 -0.0091579600531717497 3.1999999999005455 -2.7999999999115022 -6.1029232122546713 
2000.0000000000000 3000.0000000000000 -1166.6666666670001 -21182391.713377632 5047116.4804314598 -28603442.460038677 -2.2089050170571831e-05 0.0079342777567516804 -0.0086875902297829464 3.2000000001013196 -2.8000000001658201 -6.3415191250682188 
2000.0000000000000 3000.0000000000000 -1000.0000000000000 -20030177.816352285 6199330.3761527333 -24518320.466097411 -4.7041856249773354e-05 0.0073861611258322461 -0.0082280049826222341 3.2000000002153572 -2.8000000003059222 -6.4384553252137646 
2000.0000000000000 3000.0000000000000 -833.33333333329995 -18877860.784913257 7351647.4063283028 -20432832.814019956 -7.5301548383985766e-05 0.0066826123105688945 -0.0075880775202022410 3.2000000003401423 -2.8000000004559347 -6.5204819086432044 
2000.0000000000000 3000.0000000000000 -666.66666666670005 -17725440.609827880 8504067.5802094340 -16346979.471083153 -0.00010714389134068444 0.0058092355000205313 -0.0067399749091934177 3.2000000004771212 -2.8000000006169028 -6.5875975408012684 
2000.0000000000000 3000.0000000000000 -500.00000000000000 -16572917.281863898 9656590.9070525616 -12260760.404559683 -0.00014281824606522661 0.0047511311902439495 -0.0056514433569134935 3.2000000006279383 -2.8000000007899288 -6.6398008870132141 
2000.0000000000000 3000.0000000000000 -333.33333333330000 -15420290.791793488 10809217.396116985 -8174175.5817285627 -0.00018256501717098630 0.0034934929120622777 -0.0042852583203152649 3.2000000007944633 -2.8000000009761434 -6.6770906124847755 
2000.0000000000000 3000.0000000000000 -166.66666666670000 -14267561.130394448 11961947.056666130 -4087224.9698724602 -0.00022659887196694838 0.0020227019864348466 -0.0025985349933959757 3.2000000009787963 -2.8000000011766621 -6.6994653823023631 
2000.0000000000000 3000.0000000000000 0.0000000000000000 -13691170.505710384 12538337.680970127 -2043658.2125985709 -0.00024971131151012868 0.0012324359931279315 -0.0016693085100389596 3.2000000011832781 -2.8000000013925077 -6.7069238614330713 
10000.000000000000 3000.0000000000000 -1333.3333333329999 -22334502.490681320 3895005.7056337791 -32688198.841412120 1.4863623072130301e-05 0.0090943891890463632 6.0755722353615071e-05 0.0000000000000000 -2.8000000000357930 -6.2296746472010858 
10000.000000000000 3000.0000000000000 -1500.0000000000000 -23486510.145034175 2742998.0510388184 -36772589.619079664 2.5963812802126144e-05 0.0093758968399041027 7.3785095578466188e-05 0.0000000000000000 -2.7999999999075635 -6.1029232167656335 
10000.000000000000 3000.0000000000000 -1166.6666666670001 -21182391.720439620 5047116.4761543619 -28603442.471169963 1.8390022575447232e-06 0.0086720346224502688 4.4352609956957072e-05 0.0000000000000000 -2.8000000001725325 -6.3415191296639160 
10000.000000000000 3000.0000000000000 -1000.0000000000000 -20030177.825066850 6199330.3718548892 -24518320.475593813 -1.3482858696157139e-05 0.0080945909337396850 2.5544104505315119e-05 0.0000000000000000 -2.8000000003187195 -6.4384553298392397 
10000.000000000000 3000.0000000000000 -833.33333333329995 -18877860.795325249 7351647.4019882120 -20432832.821937617 -3.1691935593970446e-05 0.0073463805706090977 6.0130660638792341e-06 0.0000000000000000 -2.8000000004753942 -6.5204819132904754 
10000.000000000000 3000.0000000000000 -666.66666666670005 -17725440.621978421 8504067.5758095160 -16346979.477457210 -5.3661075059361707e-05 0.0064100158628898505 -1.1721234981211991e-05 0.0000000000000000 -2.8000000006437129 -6.5875975454625451 
10000.000000000000 3000.0000000000000 -500.00000000000000 -16572917.295788400 9656590.9025801532 -12260760.409399807 -8.0584760177391751e-05 0.0052661084208202921 -2.4275325522151302e-05 0.0000000000000000 -2.8000000008249666 -6.6398008916807871 
10000.000000000000 3000.0000000000000 -333.33333333330000 -15420290.807518192 10809217.391566217 -8174175.5850139642 -0.00011395056479010388 0.0038928521171200242 -2.7594951785836052e-05 0.0000000000000000 -2.8000000010206030 -6.6770906171508946 
10000.000000000000 3000.0000000000000 -166.66666666670000 -14267561.147929363 11961947.052042250 -4087224.9715439756 -0.00015532160488693978 0.0022655901281817630 -1.7612779588732281e-05 0.0000000000000000 -2.8000000012322395 -6.6994653869590701 
10000.000000000000 3000.0000000000000 0.0000000000000000 -13691170.524150278 12538337.676312771 -2043658.2134429147 -0.00017819776389519417 0.0013851843605213639 -8.8179462397817458e-06 0.0000000000000000 -2.8000000014616688 -6.7069238660720236 
10000.000000000000 2000.0000000000000 -1333.3333333329999 -22334502.492834613 3895005.7036825148 -32688198.849577561 4.0121090239515971e-05 0.0095998913979884297 1.7168316406893152e-06 0.0000000000000000 -3.2000000000002964 -6.2296746485591292 
10000.000000000000 2000.0000000000000 -1500.0000000000000 -23486510.147104993 2742998.0499014142 -36772589.627803139 4.9935456184007753e-05 0.0097634837866599055 1.6326060170029911e-05 0.0000000000000000 -3.1999999998948194 -6.1029232180884367 
10000.000000000000 2000.0000000000000 -1166.6666666670001 -21182391.722684916 5047116.4732889161 -28603442.478698060 2.8366126684060028e-05 0.0092879632114619935 -1.5210142862273432e-05 0.0000000000000000 -3.2000000001147586 -6.3415191310534347 
10000.000000000000 2000.0000000000000 -1000.0000000000000 -20030177.827414874 6199330.3679617764 -24518320.482394904 1.4536998141908127e-05 0.0088057381344282034 -3.3197908102491012e-05 0.0000000000000000 -3.2000000002393869 -6.4384553312559429 
10000.000000000000 2000.0000000000000 -833.33333333329995 -18877860.797789089 7351647.3969383724 -20432832.827912971 -1.5794873311599308e-06 0.0081278982132357656 -5.0100749109350009e-05 0.0000000000000000 -3.2000000003755127 -6.5204819147295057 
10000.000000000000 2000.0000000000000 -666.66666666670005 -17725440.624574862 8504067.5694554858 -16346979.482499922 -2.0297238756817985e-05 0.0072251233329865454 -6.2661671457011427e-05 0.0000000000000000 -3.2000000005246521 -6.5875975469184276 
10000.000000000000 2000.0000000000000 -500.00000000000000 -16572917.298539676 9656590.8947522938 -12260760.413396085 -4.2027313587186236e-05 0.0060633643244089545 -6.6410264365336408e-05 0.0000000000000000 -3.2000000006885356 -6.6398008931473891 
10000.000000000000 2000.0000000000000 -333.33333333330000 -15420290.810453923 10809217.382067882 -8174175.5878437469 -6.7256905039135643e-05 0.0046026882218924807 -5.5897717628284254e-05 0.0000000000000000 -3.2000000008691609 -6.6770906186213841 
10000.000000000000 2000.0000000000000 -166.66666666670000 -14267561.151088422 11961947.040643487 -4087224.9730806593 -9.6395702814863356e-05 0.0027958660790494048 -2.5754467220633646e-05 0.0000000000000000 -3.2000000010688607 -6.6994653884258595 
10000.000000000000 2000.0000000000000 0.0000000000000000 -13691170.527431991 12538337.663901690 -2043658.2143005568 -0.00011198053278422263 0.0017995137759447338 -5.1600830573151477e-06 0.0000000000000000 -3.2000000012903937 -6.7069238675266840 
0.0000000000000000 1000.0000000000000 -1333.3333333329999 -22334502.487616524 3895005.7093703449 -32688198.832828388 -3.0919077044191481e-05 0.0061275305416099730 -0.0036000170530012922 4.0000000000000000 -3.5999999999907346 -6.2296746435741195 
0.0000000000000000 2000.0000000000000 -1333.3333333329999 -22334502.485828072 3895005.7106058872 -32688198.825657599 -3.3237142390892114e-05 0.0092402807553028411 -0.0035041469480159865 4.0000000000000000 -3.2000000000036724 -6.2296746425477529 
0.0000000000000000 1000.0000000000000 -1500.0000000000000 -23486510.144311827 2742998.0561604090 -36772589.609060131 -3.0934212550953887e-05 0.0061902851298041416 -0.0036226459131034139 4.0000000000000000 -3.5999999999330838 -6.1029232131701114 
0.0000000000000000 2000.0000000000000 -1500.0000000000000 -23486510.142599069 2742998.0567250708 -36772589.601565957 -3.5313997748629551e-05 0.0094139347845248154 -0.0035053788671801588 4.0000000000000000 -3.1999999999021496 -6.1029232121777532 
0.0000000000000000 1000.0000000000000 -1166.6666666670001 -21182391.714837614 5047116.4783403873 -28603442.463906828 -3.0821751569973366e-05 0.0059735201784398475 -0.0035257594241245461 4.0000000000000000 -3.6000000000539649 -6.3415191260118817 
0.0000000000000000 2000.0000000000000 -1166.6666666670001 -21182391.712967481 5047116.4803527137 -28603442.457138076 -3.0913675473429483e-05 0.0089259160576749472 -0.0034495284584248470 4.0000000000000000 -3.2000000001136755 -6.3415191249539378 
0.0000000000000000 1000.0000000000000 -1000.0000000000000 -20030177.816708479 6199330.3722908758 -24518320.469547298 -3.0738936742146724e-05 0.0057119356867349766 -0.0033894950954887005 4.0000000000000000 -3.6000000001236168 -6.4384553261680209 
0.0000000000000000 2000.0000000000000 -1000.0000000000000 -20030177.814750366 6199330.3752046125 -24518320.463275239 -2.8568199585124264e-05 0.0084503391617289387 -0.0033308596424028165 4.0000000000000000 -3.2000000002332936 -6.4384553250815255 
0.0000000000000000 1000.0000000000000 -833.33333333329995 -18877860.783961993 7351647.4004359590 -20432832.817016430 -3.0832901856147879e-05 0.0053232717028722770 -0.0031786905900021618 4.0000000000000000 -3.6000000002006627 -6.5204819096055289 
0.0000000000000000 2000.0000000000000 -833.33333333329995 -18877860.781908605 7351647.4043983649 -20432832.811352476 -2.6369649198702616e-05 0.0077897935426799588 -0.0031353510522788000 4.0000000000000000 -3.2000000003638127 -6.5204819084942187 
0.0000000000000000 1000.0000000000000 -666.66666666670005 -17725440.607326664 8504067.5719862282 -16346979.473585101 -3.1383084469854587e-05 0.0047841442299342554 -0.0028782883834768090 4.0000000000000000 -3.6000000002862249 -6.5875975417689778 
0.0000000000000000 2000.0000000000000 -666.66666666670005 -17725440.605169512 8504067.5771712735 -16346979.468660759 -2.4320940329228851e-05 0.0069166769795331933 -0.0028478039731924193 4.0000000000000000 -3.2000000005066993 -6.5875975406374270 
0.0000000000000000 1000.0000000000000 -500.00000000000000 -16572917.277522933 9656590.8961508982 -12260760.406519398 -3.2923726314621995e-05 0.0040666586122725034 -0.0024701674140695205 4.0000000000000000 -3.6000000003815997 -6.6398008879834540 
0.0000000000000000 2000.0000000000000 -500.00000000000000 -16572917.275252443 9656590.9027639478 -12260760.402491415 -2.2127833170927263e-05 0.0057989440219398201 -0.0024500863179864525 4.0000000000000000 -3.2000000006636364 -6.6398008868372287 
0.0000000000000000 1000.0000000000000 -333.33333333330000 -15420290.785265032 10809217.382133937 -8174175.5830928106 -3.6515118239408192e-05 0.0031374206453704482 -0.0019323661447827514 4.0000000000000000 -3.6000000004882868 -6.6770906134545296 
0.0000000000000000 2000.0000000000000 -333.33333333330000 -15420290.782869205 10809217.390419040 -8174175.5801441222 -1.9009085630708972e-05 0.0043990344518613786 -0.0019204500297376342 4.0000000000000000 -3.2000000008365603 -6.6770906123003702 
0.0000000000000000 1000.0000000000000 -166.66666666670000 -14267561.121258153 11961947.039134081 -4087224.9705839725 -4.4278869490294887e-05 0.0019563678925487256 -0.0012379881968966810 4.0000000000000000 -3.6000000006080124 -6.6994653832684437 
0.0000000000000000 2000.0000000000000 -166.66666666670000 -14267561.118720554 11961947.049383461 -4087224.9689231687 -1.3290710660651105e-05 0.0026724955358808115 -0.0012326033723926233 4.0000000000000000 -3.2000000010277261 -6.6994653821144521 
0.0000000000000000 1000.0000000000000 0.0000000000000000 -13691170.495154912 12538337.661537983 -2043658.2129689329 -4.9557676018085830e-05 0.0012974271926480033 -0.00084793896702056986 4.0000000000000000 -3.6000000007427326 -6.7069238623921397 
0.0000000000000000 2000.0000000000000 0.0000000000000000 -13691170.492541663 12538337.672849193 -2043658.2120075284 -9.4986830136538047e-06 0.0017215370892265283 -0.00084552395111587393 4.0000000000000000 -3.2000000012398129 -6.7069238612479767 
4000.0000000000000 7.4168059059999997e-30 -1333.3333333329999 -22334502.493593775 3895005.7027076390 -32688198.859563857 2.2582620434672718e-05 0.0035410576722991211 -0.0051847208573955689 2.4000000000529731 -4.0000000000000000 -6.2296746477949183 
4000.0000000000000 2.1239035100000000e-29 -1500.0000000000000 -23486510.147964448 2742998.0499863364 -36772589.637335718 2.7439673983661124e-05 0.0035523319307712246 -0.0054273682751560326 2.3999999999361132 -4.0000000000000000 -6.1029232172716856 
4000.0000000000000 2.3261800339999999e-29 -1166.6666666670001 -21182391.723442696 5047116.4711187538 -28603442.488837071 1.6910499017849346e-05 0.0034771752805643624 -0.0048600393817848347 2.4000000001750830 -4.0000000000000000 -6.3415191303416014 
4000.0000000000000 -2.4273182999999999e-29 -1000.0000000000000 -20030177.828288898 6199330.3644287465 -24518320.492358893 1.0341216966237443e-05 0.0033500326358517117 -0.0044506473075252243 2.4000000003028257 -4.0000000000000000 -6.4384553305944907 
4000.0000000000000 -4.5191771299999999e-29 -833.33333333329995 -18877860.798917398 7351647.3918372504 -20432832.837344211 2.8277570083713860e-06 0.0031466304207201585 -0.0039543261303558036 2.4000000004366040 -4.0000000000000000 -6.5204819141143799 
4000.0000000000000 0.0000000000000000 -666.66666666670005 -17725440.626118425 8504067.5625363588 -16346979.491008718 -5.5741571964483067e-06 0.0028511999365647524 -0.0033693623720532080 2.4000000005768407 -4.0000000000000000 -6.5875975463432610 
4000.0000000000000 -1.8204887200000001e-29 -500.00000000000000 -16572917.300685931 9656590.8857117705 -12260760.420560172 -1.4577811938469068e-05 0.0024446181787662713 -0.0026944196645708176 2.4000000007239799 -4.0000000000000000 -6.6398008926032386 
4000.0000000000000 0.0000000000000000 -333.33333333330000 -15420290.813421922 10809217.370537959 -8174175.5932097808 -2.3466367400165387e-05 0.0019037455402411863 -0.0019283392112936447 2.4000000008784910 -4.0000000000000000 -6.6770906180964511 
4000.0000000000000 -1.9553397400000001e-29 -166.66666666670000 -14267561.155137248 11961947.026176807 -4087224.9761700011 -3.0720371446237237e-05 0.0012009270340078006 -0.0010698055561688179 2.4000000010408704 -4.0000000000000000 -6.6994653879052333 
4000.0000000000000 0.0000000000000000 0.0000000000000000 -13691170.532091640 12538337.647843841 -2043658.2161291677 -3.3683028865798385e-05 0.00080528138802024975 -0.00061723129791303028 2.4000000012116427 -4.0000000000000000 -6.7069238669921134 
3000.0000000000000 -3.7084029499999999e-30 -1333.3333333329999 -22334502.491759401 3895005.7042791494 -32688198.853865549 4.5204607072713730e-05 0.0036941335776132064 -0.0083392484578844860 2.8000000000209897 -4.0000000000000000 -6.2296746466415120 
3000.0000000000000 -1.0619517500000000e-29 -1500.0000000000000 -23486510.146739285 2742998.0515311328 -36772589.631082840 5.0816366977705713e-05 0.0037164394265609170 -0.0085602035284951979 2.7999999999031280 -4.0000000000000000 -6.1029232161423774 
3000.0000000000000 -1.1630900200000000e-29 -1166.6666666670001 -21182391.720950831 5047116.4727230417 -28603442.483728092 3.8157751182496625e-05 0.0036188025774770709 -0.0079864321025271828 2.8000000001469512 -4.0000000000000000 -6.3415191291673549 
3000.0000000000000 1.2136591479999999e-29 -1000.0000000000000 -20030177.825088270 6199330.3660722766 -24518320.487876546 2.9481384416980525e-05 0.0034798565147586449 -0.0074870615234329321 2.8000000002819103 -4.0000000000000000 -6.4384553294028910 
3000.0000000000000 2.2595885659999999e-29 -833.33333333329995 -18877860.794953167 7351647.3935272414 -20432832.833526812 1.9043300207463635e-05 0.0032643996599806334 -0.0068248105632311967 2.8000000004268562 -4.0000000000000000 -6.5204819129091458 
3000.0000000000000 0.0000000000000000 -666.66666666670005 -17725440.621331263 8504067.5642811544 -16346979.487893496 6.8759635216620401e-06 0.0029566600374925831 -0.0059816571379616088 2.8000000005828789 -4.0000000000000000 -6.5875975451283466 
3000.0000000000000 9.1024436120000003e-30 -500.00000000000000 -16572917.295010896 9656590.8875208888 -12260760.418181181 -6.6036077146547315e-06 0.0025372515348017562 -0.0049377419353154222 2.8000000007511745 -4.0000000000000000 -6.6398008913828175 
3000.0000000000000 0.0000000000000000 -333.33333333330000 -15420290.806786817 10809217.372421794 -8174175.5915952465 -2.0186516970536529e-05 0.0019820393227689566 -0.0036712846555742315 2.8000000009330508 -4.0000000000000000 -6.6770906168748896 
3000.0000000000000 9.7766986949999993e-30 -166.66666666670000 -14267561.147460209 11961947.028145462 -4087224.9753391724 -3.1132390489039364e-05 0.0012606346364039047 -0.0021588610330410853 2.8000000011299329 -4.0000000000000000 -6.6994653866870166 
3000.0000000000000 0.0000000000000000 0.0000000000000000 -13691170.523871800 12538337.649857268 -2043658.2156937469 -3.5477433450091567e-05 0.00085414246969682810 -0.0013381404283465805 2.8000000013433604 -4.0000000000000000 -6.7069238657817483 
0.0000000000000000 10000.000000000000 -1333.3333333329999 -22334502.481641378 3895005.7157236664 -32688198.812209345 3.5525394955006599e-07 -0.00061607457028015945 -0.0041500274829613572 4.0000000000000000 0.0000000000000000 -6.2296746379214989 
0.0000000000000000 10000.000000000000 -1500.0000000000000 -23486510.138244215 2742998.0603052555 -36772589.586137891 1.7949704300735221e-06 -0.00063921760715283601 -0.0041926985034025453 4.0000000000000000 0.0000000000000000 -6.1029232076013074 
0.0000000000000000 10000.000000000000 -1166.6666666670001 -21182391.708928280 5047116.4870442636 -28603442.445583530 -1.0816957881087928e-06 -0.00058448646217971133 -0.0040541708471884914 4.0000000000000000 0.0000000000000000 -6.3415191202874670 
0.0000000000000000 10000.000000000000 -1000.0000000000000 -20030177.810841493 6199330.3834980866 -24518320.453537405 -2.4773908555005619e-06 -0.00054340068472798881 -0.0038939002162488565 4.0000000000000000 0.0000000000000000 -6.4384553203840653 
0.0000000000000000 10000.000000000000 -833.33333333329995 -18877860.778114505 7351647.4143135529 -20432832.803361163 -3.7840086055704232e-06 -0.00049165446997520210 -0.0036552001664236014 4.0000000000000000 0.0000000000000000 -6.5204819037746278 
0.0000000000000000 10000.000000000000 -666.66666666670005 -17725440.601474419 8504067.5887179859 -16346979.462354373 -4.9548441970382153e-06 -0.00042796511843770185 -0.0033203356051778321 4.0000000000000000 0.0000000000000000 -6.5875975359041590 
0.0000000000000000 10000.000000000000 -500.00000000000000 -16572917.271637745 9656590.9159394912 -12260760.397821143 -5.9422624409604006e-06 -0.00035094510683316934 -0.0028664341990373432 4.0000000000000000 0.0000000000000000 -6.6398008820983687 
0.0000000000000000 10000.000000000000 -333.33333333330000 -15420290.779305957 10809217.405208290 -8174175.5770681072 -6.6996626394519718e-06 -0.00025908382827199961 -0.0022632929748288098 4.0000000000000000 0.0000000000000000 -6.6770906075636729 
0.0000000000000000 10000.000000000000 -166.66666666670000 -14267561.115157193 11961947.065760156 -4087224.9673967669 -7.2064695290769600e-06 -0.00015076317210921660 -0.0014700886103420836 4.0000000000000000 0.0000000000000000 -6.6994653773873232 
0.0000000000000000 10000.000000000000 0.0000000000000000 -13691170.488961669 12538337.690011693 -2043658.2112439931 -7.3971178996927752e-06 -9.2280073867549844e-05 -0.0010200799454545991 4.0000000000000000 0.0000000000000000 -6.7069238565374505 
9000.0000000000000 0.0000000000000000 -1333.3333333329999 -22334502.495535064 3895005.7020224156 -32688198.860722244 4.0391717266163727e-05 0.0035449631884752640 -0.00016060361208840849 0.40000000001390212 -4.0000000000000000 -6.2296746499617841 
10000.000000000000 1000.0000000000000 -1333.3333333329999 -22334502.494725350 3895005.7024632832 -32688198.857422635 3.4689855967130813e-05 0.0061966543732223404 -1.5856338743419330e-05 0.0000000000000000 -3.5999999999868058 -6.2296746496213986 
10000.000000000000 0.0000000000000000 -1333.3333333329999 -22334502.495489389 3895005.7020776430 -32688198.860731393 2.2158735987716024e-05 0.0034848307365700753 -1.6427898524704710e-05 0.0000000000000000 -4.0000000000000000 -6.2296746500220399 
9000.0000000000000 0.0000000000000000 -1500.0000000000000 -23486510.149671640 2742998.0491936416 -36772589.639394738 4.3846136326196588e-05 0.0035579891666254332 -0.00013181516310831908 0.39999999999399277 -4.0000000000000000 -6.1029232194386909 
10000.000000000000 1000.0000000000000 -1500.0000000000000 -23486510.148904145 2742998.0493687070 -36772589.635998696 3.9870181029017422e-05 0.0062448902057259843 1.0765788759602221e-06 0.0000000000000000 -3.5999999999270358 -6.1029232191138849 
10000.000000000000 0.0000000000000000 -1500.0000000000000 -23486510.149626970 2742998.0492517510 -36772589.639414370 2.4569190411704465e-05 0.0034935054648128410 1.7247812531860864e-06 0.0000000000000000 -4.0000000000000000 -6.1029232194983978 
9000.0000000000000 0.0000000000000000 -1166.6666666670001 -21182391.725525953 5047116.4705223320 -28603442.489259388 3.5926541427354618e-05 0.0034791258446982428 -0.00018836617225440573 0.40000000003361219 -4.0000000000000000 -6.3415191325050495 
10000.000000000000 1000.0000000000000 -1166.6666666670001 -21182391.724675197 5047116.4712737463 -28603442.486101221 2.8322077499356299e-05 0.0060536524945798854 -3.3787116717808521e-05 0.0000000000000000 -3.6000000000524714 -6.3415191321499460 
10000.000000000000 0.0000000000000000 -1166.6666666670001 -21182391.725483742 5047116.4705711771 -28603442.489263099 1.9123032390793701e-05 0.0034233443649847369 -3.4940969992973165e-05 0.0000000000000000 -4.0000000000000000 -6.3415191325659270 
9000.0000000000000 0.0000000000000000 -1000.0000000000000 -20030177.830400910 6199330.3639074657 -24518320.492208932 3.0410926704769005e-05 0.0033499361018672971 -0.00021314971754490965 0.40000000005316227 -4.0000000000000000 -6.4384553327521115 
10000.000000000000 1000.0000000000000 -1000.0000000000000 -20030177.829512950 6199330.3650227487 -24518320.489246532 2.0767907888324459e-05 0.0057987510650572786 -5.1324045200403498e-05 0.0000000000000000 -3.6000000001248993 -6.4384553323834544 
10000.000000000000 0.0000000000000000 -1000.0000000000000 -20030177.830369212 6199330.3639459256 -24518320.492211830 1.5488372356767434e-05 0.0032984718241138716 -5.2374421598142923e-05 0.0000000000000000 -4.0000000000000000 -6.4384553328136915 
9000.0000000000000 0.0000000000000000 -833.33333333329995 -18877860.800921980 7351647.3913827613 -20432832.836786002 2.3885364050442840e-05 0.0031445553844003898 -0.00023205973503525492 0.40000000007262781 -4.0000000000000000 -6.5204819162646652 
10000.000000000000 1000.0000000000000 -833.33333333329995 -18877860.800004058 7351647.3929255232 -20432832.834084101 1.2067039653375073e-05 0.0054115806363389503 -6.6267504599259018e-05 0.0000000000000000 -3.6000000002050814 -6.5204819158839840 
10000.000000000000 0.0000000000000000 -833.33333333329995 -18877860.800911143 7351647.3914063293 -20432832.836791962 1.1339695238725007e-05 0.0030973655403861021 -6.6564709020350144e-05 0.0000000000000000 -4.0000000000000000 -6.5204819163270180 
9000.0000000000000 0.0000000000000000 -666.66666666670005 -17725440.627854045 8504067.5621461719 -16346979.490206920 1.6556876648156698e-05 0.0028474040070118828 -0.00024096005870060365 0.40000000009212711 -4.0000000000000000 -6.5875975484856530 
10000.000000000000 1000.0000000000000 -666.66666666670005 -17725440.626917370 8504067.5641925242 -16346979.487841230 2.3309166416626594e-06 0.0048679495031061643 -7.5406045866683514e-05 0.0000000000000000 -3.6000000002941555 -6.5875975480949087 
10000.000000000000 0.0000000000000000 -666.66666666670005 -17725440.627878353 8504067.5621500183 -16346979.490218401 6.8611959882291714e-06 0.0028045142021261549 -7.4488674470342067e-05 0.0000000000000000 -4.0000000000000000 -6.5875975485488167 
9000.0000000000000 0.0000000000000000 -500.00000000000000 -16572917.301963212 9656590.8853899203 -12260760.419680225 8.9470979355590130e-06 0.0024396164075553770 -0.00023418478101337671 0.40000000011182635 -4.0000000000000000 -6.6398008947381681 
10000.000000000000 1000.0000000000000 -500.00000000000000 -16572917.301023029 9656590.8880312294 -12260760.417737607 -8.1974737772389555e-06 0.0041392037349309053 -7.4454321035727179e-05 0.0000000000000000 -3.6000000003934258 -6.6398008943398317 
10000.000000000000 0.0000000000000000 -500.00000000000000 -16572917.302041015 9656590.8853693604 -12260760.419697411 2.4052403113377193e-06 0.0024013204094872594 -7.2258881065374140e-05 0.0000000000000000 -4.0000000000000000 -6.6398008948021152 
9000.0000000000000 0.0000000000000000 -333.33333333330000 -15420290.814021546 10809217.370295458 -8174175.5924185636 2.1306002925300281e-06 0.0018983885150807415 -0.00020433692293174148 0.40000000013193721 -4.0000000000000000 -6.6770906202253881 
10000.000000000000 1000.0000000000000 -333.33333333330000 -15420290.813095735 10809217.373642037 -8174175.5909959385 -1.9097420058478774e-05 0.0031913187681544136 -5.8351412389940743e-05 0.0000000000000000 -3.6000000005043913 -6.6770906198225122 
10000.000000000000 0.0000000000000000 -333.33333333330000 -15420290.814174108 10809217.370247021 -8174175.5924380934 -1.4508216378934010e-06 0.0018655924546827924 -5.5467702606799499e-05 0.0000000000000000 -4.0000000000000000 -6.6770906202899818 
9000.0000000000000 0.0000000000000000 -166.66666666670000 -14267561.154808680 11961947.026031995 -4087224.9756362806 -1.9063379054049368e-06 0.0011963703300104369 -0.00014236482655140416 0.40000000015269860 -4.0000000000000000 -6.6994653900307179 
10000.000000000000 1000.0000000000000 -166.66666666670000 -14267561.153913079 11961947.030218098 -4087224.9748375621 -2.9738507516723277e-05 0.0019839356767942132 -2.2468173786291258e-05 0.0000000000000000 -3.6000000006287820 -6.6994653896270071 
10000.000000000000 0.0000000000000000 -166.66666666670000 -14267561.155056112 11961947.025955500 -4087224.9756497191 -3.9168192059640908e-06 0.0011711405233288043 -2.0404912613067941e-05 0.0000000000000000 -4.0000000000000000 -6.6994653900956651 
9000.0000000000000 0.0000000000000000 0.0000000000000000 -13691170.531232405 12538337.647753377 -2043658.2157666904 -2.9107106940582284e-06 0.00080144080177953886 -0.00010212245785678461 0.40000000017432363 -4.0000000000000000 -6.7069238691177802 
10000.000000000000 1000.0000000000000 0.0000000000000000 -13691170.530355193 12538337.652396157 -2043658.2153065335 -3.4900819242694721e-05 0.0013099047377935046 9.1221282683481044e-07 0.0000000000000000 -3.6000000007686017 -6.7069238687176629 
10000.000000000000 0.0000000000000000 0.0000000000000000 -13691170.531531777 12538337.647663390 -2043658.2157742346 -4.6913683501910553e-06 0.00078070421328158370 2.0583456049720428e-06 0.0000000000000000 -4.0000000000000000 -6.7069238691825852 
0.0000000000000000 0.0000000000000000 -1333.3333333329999 -22334502.488339663 3895005.7089644838 -32688198.835842479 -2.0085845021887446e-05 0.0035212789253208638 -0.0036996322377910599 4.0000000000000000 -4.0000000000000000 -6.2296746439634214 
0.0000000000000000 0.0000000000000000 -1500.0000000000000 -23486510.145000502 2742998.0560191730 -36772589.612175852 -1.9231508151186330e-05 0.0035402507970450380 -0.0037324639013443656 4.0000000000000000 -4.0000000000000000 -6.1029232135445257 
0.0000000000000000 0.0000000000000000 -1166.6666666670001 -21182391.715597823 5047116.4776228629 -28603442.466784619 -2.1013637700637342e-05 0.0034507954530845070 -0.0036153090248005849 4.0000000000000000 -4.0000000000000000 -6.3415191264153465 
0.0000000000000000 0.0000000000000000 -1000.0000000000000 -20030177.817508459 6199330.3712054240 -24518320.472245656 -2.2038686424675253e-05 0.0033185758872870180 -0.0034691733464258644 4.0000000000000000 -4.0000000000000000 -6.4384553265846654 
0.0000000000000000 0.0000000000000000 -833.33333333329995 -18877860.784804754 7351647.3989149900 -20432832.819482956 -2.3257136376407554e-05 0.0031121557909648996 -0.0032487800947175434 4.0000000000000000 -4.0000000000000000 -6.5204819100340332 
0.0000000000000000 0.0000000000000000 -666.66666666670005 -17725440.608215459 8504067.5699486136 -16346979.475756278 -2.4932123200923900e-05 0.0028162977912294922 -0.0029389646027625630 4.0000000000000000 -4.0000000000000000 -6.5875975422075932 
0.0000000000000000 0.0000000000000000 -500.00000000000000 -16572917.278460996 9656590.8934992924 -12260760.408318333 -2.7687257548407745e-05 0.0024125379028661093 -0.0025212739939750551 4.0000000000000000 -4.0000000000000000 -6.6398008884299067 
0.0000000000000000 0.0000000000000000 -333.33333333330000 -15420290.786255376 10809217.378751226 -8174175.5844277488 -3.2900203793103168e-05 0.0018785708879016263 -0.0019728938663800934 4.0000000000000000 -4.0000000000000000 -6.6770906139058788 
0.0000000000000000 0.0000000000000000 -166.66666666670000 -14267561.122302590 11961947.034879565 -4087224.9713462642 -4.3515609490102640e-05 0.0011875115317881825 -0.0012648917962252326 4.0000000000000000 -4.0000000000000000 -6.6994653837209492 
0.0000000000000000 0.0000000000000000 0.0000000000000000 -13691170.496226586 12538337.656809215 -2043658.2134154225 -5.0674398701431492e-05 0.00079904211555920264 -0.00086691283829793059 4.0000000000000000 -4.0000000000000000 -6.7069238628410721 
9000.0000000000000 10000.000000000000 -1333.3333333329999 -22334502.488212198 3895005.7093709009 -32688198.835134283 -2.5642707471847146e-06 -0.00055879496699868083 0.00087745827351917271 0.40000000001263536 0.0000000000000000 -6.2296746435425545 
9000.0000000000000 10000.000000000000 -1500.0000000000000 -23486510.142453622 2742998.0539400345 -36772589.611262478 -1.1361402193721652e-06 -0.00058011560554244678 0.00090967560212735664 0.39999999999580499 0.0000000000000000 -6.1029232131270517 
9000.0000000000000 10000.000000000000 -1166.6666666670001 -21182391.718051173 5047116.4806753444 -28603442.466259912 -4.1021111346224735e-06 -0.00053000565015696511 0.00083409790711678003 0.40000000002872133 0.0000000000000000 -6.3415191259919093 
9000.0000000000000 10000.000000000000 -1000.0000000000000 -20030177.822728742 6199330.3770878688 -24518320.471882388 -5.7793405135811423e-06 -0.00049276499959798254 0.00077782445400456537 0.40000000004395575 0.0000000000000000 -6.4384553261593815 
9000.0000000000000 10000.000000000000 -833.33333333329995 -18877860.793006517 7351647.4078390468 -20432832.819257632 -7.6273407604671932e-06 -0.00044598781337265407 0.00070663190410506804 0.40000000005822378 0.0000000000000000 -6.5204819096075282 
9000.0000000000000 10000.000000000000 -666.66666666670005 -17725440.619646285 8504067.5821585767 -16346979.475643359 -9.6789691164517788e-06 -0.00038845816874230328 0.00061825241695962440 0.40000000007140002 0.0000000000000000 -6.5875975417803980 
9000.0000000000000 10000.000000000000 -500.00000000000000 -16572917.293407295 9656590.9092778526 -12260760.408289710 -1.1969420841927265e-05 -0.00031885759643849167 0.00051014493538382912 0.40000000008334602 0.0000000000000000 -6.6398008880024522 
9000.0000000000000 10000.000000000000 -333.33333333330000 -15420290.805049414 10809217.398426650 -8174175.5844507338 -1.4533542316912257e-05 -0.00023576124818607718 0.00037952209612084466 0.40000000009390713 0.0000000000000000 -6.6770906134785175 
9000.0000000000000 10000.000000000000 -166.66666666670000 -14267561.145331927 11961947.058834150 -4087224.9713804964 -1.7399653601995694e-05 -0.00013763230073144821 0.00022329908849148700 0.40000000010291065 0.0000000000000000 -6.6994653832939415 
9000.0000000000000 10000.000000000000 0.0000000000000000 -13691170.521478090 12538337.683006249 -2043658.2134440895 -1.8911024209831760e-05 -8.4612592771143744e-05 0.00013838210540498649 0.40000000011016240 0.0000000000000000 -6.7069238624145990 
5000.0000000000000 10000.000000000000 -1333.3333333329999 -22334502.487912536 3895005.7089737197 -32688198.837034851 -1.0045331694818294e-05 -0.00057240425924800164 -0.0019204839388270965 2.0000000000616538 0.0000000000000000 -6.2296746423798428 
5000.0000000000000 10000.000000000000 -1500.0000000000000 -23486510.142035667 2742998.0536802411 -36772589.612768799 -7.6724921294363037e-06 -0.00059408229015236493 -0.0020929600090493737 1.9999999999636329 0.0000000000000000 -6.1029232119548871 
5000.0000000000000 10000.000000000000 -1166.6666666670001 -21182391.717954695 5047116.4801528621 -28603442.468409993 -1.2519410790352950e-05 -0.00054291771626151447 -0.0017199272822815926 2.0000000001617733 0.0000000000000000 -6.3415191248393938 
5000.0000000000000 10000.000000000000 -1000.0000000000000 -20030177.822933830 6199330.3764486117 -24518320.474139363 -1.5134388956638253e-05 -0.00050462648796089520 -0.0014953222772722298 2.0000000002640066 0.0000000000000000 -6.4384553250170944 
5000.0000000000000 10000.000000000000 -833.33333333329995 -18877860.793625515 7351647.4070878532 -20432832.821481116 -1.7930673830994037e-05 -0.00045645169042970421 -0.0012516377301538899 2.0000000003683587 0.0000000000000000 -6.5204819084747969 
5000.0000000000000 10000.000000000000 -666.66666666670005 -17725440.620806139 8504067.5812963471 -16346979.477695700 -2.0942285589170683e-05 -0.00039721837788381161 -0.00099471355818166836 2.0000000004748220 0.0000000000000000 -6.5875975406558505 
5000.0000000000000 10000.000000000000 -500.00000000000000 -16572917.295250345 9656590.9083011709 -12260760.410036955 -2.4203433600753093e-05 -0.00032563865061270309 -0.00073123865556795837 2.0000000005833720 0.0000000000000000 -6.6398008868840250 
5000.0000000000000 10000.000000000000 -333.33333333330000 -15420290.807734128 10809217.397327596 -8174175.5857628547 -2.7750403160336248e-05 -0.00024033489978527890 -0.00046855918632065011 2.0000000006939658 0.0000000000000000 -6.6770906123634601 
5000.0000000000000 10000.000000000000 -166.66666666670000 -14267561.149034109 11961947.057599880 -4087224.9721321501 -3.1632013220121956e-05 -0.00013984500767671781 -0.00021429503106167155 2.0000000008065406 0.0000000000000000 -6.6994653821788273 
5000.0000000000000 10000.000000000000 0.0000000000000000 -13691170.525735218 12538337.681700513 -2043658.2138848263 -3.3664192797061500e-05 -8.5615354808618656e-05 -9.0224172160917435e-05 2.0000000009210130 0.0000000000000000 -6.7069238612953139 
10000.000000000000 10000.000000000000 -1333.3333333329999 -22334502.488094509 3895005.7094550803 -32688198.834887289 -1.7168802409403848e-06 -0.00055647370792119544 0.00048556371988143078 0.0000000000000000 0.0000000000000000 -6.2296746435621921 
10000.000000000000 10000.000000000000 -1500.0000000000000 -23486510.142366286 2742998.0540157282 -36772589.611015663 -9.6443379661164950e-07 -0.00057785592992596257 0.00050460457619055487 0.0000000000000000 0.0000000000000000 -6.1029232131476174 
10000.000000000000 10000.000000000000 -1166.6666666670001 -21182391.717898265 5047116.4807676598 -28603442.466019839 -2.5352529258482445e-06 -0.00052770957989532112 0.00046032844220010604 0.0000000000000000 0.0000000000000000 -6.3415191260106871 
10000.000000000000 10000.000000000000 -1000.0000000000000 -20030177.822535098 6199330.3771881601 -24518320.471656308 -3.4412588063318729e-06 -0.00049057934910677397 0.00042801974511990677 0.0000000000000000 0.0000000000000000 -6.4384553261773991 
10000.000000000000 10000.000000000000 -833.33333333329995 -18877860.792765871 7351647.4079474155 -20432832.819052361 -4.4559313767659171e-06 -0.00044400858897642728 0.00038762013378439034 0.0000000000000000 0.0000000000000000 -6.5204819096249205 
10000.000000000000 10000.000000000000 -666.66666666670005 -17725440.619351663 8504067.5822753571 -16346979.475465622 -5.5989155529229664e-06 -0.00038678740319673716 0.00033798391976057221 0.0000000000000000 0.0000000000000000 -6.5875975417973356 
10000.000000000000 10000.000000000000 -500.00000000000000 -16572917.293050973 9656590.9094036110 -12260760.408146136 -6.8922064198595923e-06 -0.00031759183761378724 0.00027782727881613524 0.0000000000000000 0.0000000000000000 -6.6398008880191410 
10000.000000000000 10000.000000000000 -333.33333333330000 -15420290.804622851 10809217.398562230 -8174175.5843477100 -8.3574866324469037e-06 -0.00023499029546042953 0.00020575929953697177 0.0000000000000000 0.0000000000000000 -6.6770906134951939 
10000.000000000000 10000.000000000000 -166.66666666670000 -14267561.144825816 11961947.058980610 -4087224.9713244326 -1.0012432796289077e-05 -0.00013742634675319119 0.00012025265654710810 0.0000000000000000 0.0000000000000000 -6.6994653833108799 
10000.000000000000 10000.000000000000 0.0000000000000000 -13691170.520929791 12538337.683158424 -2043658.2134131673 -1.0889212568645927e-05 -8.4703850156870851e-05 7.3936978305959075e-05 0.0000000000000000 0.0000000000000000 -6.7069238624321059 
6000.0000000000000 9000.0000000000000 -4833.3333333330002 -46505023.109562732 -20275514.931655187 -118383681.06303774 6.8140448057146122e-05 -0.00012974451122548634 0.00011494290120586223 1.5999999987853928 -0.39999999965709648 -0.43948932201437568 
6000.0000000000000 10000.000000000000 -4833.3333333330002 -46505023.109189458 -20275514.931258645 -118383681.06165271 3.8355552468636290e-05 -7.5883946021260194e-05 0.00011760039851680411 1.5999999987865077 0.0000000000000000 -0.43948932200967084 
7000.0000000000000 10000.000000000000 -4833.3333333330002 -46505023.110104613 -20275514.934140682 -118383681.07349983 2.4975932855818776e-05 -7.5799027496851459e-05 0.00021849142321192722 1.1999999990587842 0.0000000000000000 -0.43948932205697255 
7000.0000000000000 9000.0000000000000 -4833.3333333330002 -46505023.110488512 -20275514.934525680 -118383681.07489671 4.7396877612407583e-05 -0.00012845642752830740 0.00022061001837458085 1.1999999990579908 -0.39999999965536531 -0.43948932206173807 
6000.0000000000000 9000.0000000000000 -5000.0000000000000 -47079971.015747048 -20850462.837919787 -120422132.73050807 6.8792966310239509e-05 -6.6583558974873030e-05 6.4384461835626829e-05 1.5999999987797779 -0.39999999965550226 0.0000000000000000 
6000.0000000000000 10000.000000000000 -5000.0000000000000 -47079971.015352473 -20850462.837502353 -120422132.72904445 3.8699411395033223e-05 -3.9049433874700048e-05 6.5745572617211136e-05 1.5999999987808933 0.0000000000000000 0.0000000000000000 
7000.0000000000000 10000.000000000000 -5000.0000000000000 -47079971.016410321 -20850462.840539362 -120422132.74145168 2.4912210983770410e-05 -3.9046004085552973e-05 0.00011430829388101211 1.1999999990544006 0.0000000000000000 0.0000000000000000 
7000.0000000000000 9000.0000000000000 -5000.0000000000000 -47079971.016815923 -20850462.840945117 -120422132.74292858 4.7020423539050627e-05 -6.5909820637155352e-05 0.00011537720433164247 1.1999999990536010 -0.39999999965375865 0.0000000000000000 
6000.0000000000000 9000.0000000000000 -4666.6666666669998 -45355075.833921388 -19125567.655781783 -114306595.26733106 6.6419066217950206e-05 -0.00024966833847384149 0.00019125390197259997 1.5999999988015630 -0.39999999966171013 -0.86409968912007074 
6000.0000000000000 10000.000000000000 -4666.6666666669998 -45355075.833589286 -19125567.655425023 -114306595.26610057 3.7392057698304275e-05 -0.00014541591907068379 0.00019633072585693579 1.5999999988026676 0.0000000000000000 -0.86409968911108126 
7000.0000000000000 10000.000000000000 -4666.6666666669998 -45355075.834240958 -19125567.658006661 -114306595.27685015 2.5148734519951664e-05 -0.00014506501137215815 0.00040781849012323269 1.1999999990714521 0.0000000000000000 -0.86409968920158686 
7000.0000000000000 9000.0000000000000 -4666.6666666669998 -45355075.834582902 -19125567.658352591 -114306595.27809015 4.8320480255225777e-05 -0.00024729707320944957 0.00041192943348562582 1.1999999990706696 -0.39999999966000821 -0.86409968921069491 
6000.0000000000000 9000.0000000000000 -4500.0000000000000 -44205025.627108909 -17975517.448604457 -110229144.53371096 6.4079981262660951e-05 -0.00035760260528336992 0.00022333042176764240 1.5999999988269855 -0.39999999966901456 -1.2738297695145795 
6000.0000000000000 10000.000000000000 -4500.0000000000000 -44205025.626815207 -17975517.448283542 -110229144.53262916 3.5965317484817040e-05 -0.00020723057493767346 0.00023038896601824230 1.5999999988280644 0.0000000000000000 -1.2738297695017562 
7000.0000000000000 10000.000000000000 -4500.0000000000000 -44205025.627247043 -17975517.450584210 -110229144.54232784 2.5372781677393437e-05 -0.00020649619042951097 0.00056144710352835719 1.1999999990914685 0.0000000000000000 -1.2738297696314937 
7000.0000000000000 9000.0000000000000 -4500.0000000000000 -44205025.627549753 -17975517.450895693 -110229144.54341753 4.9380628774877161e-05 -0.00035446921865323945 0.00056729604828008968 1.1999999990906922 -0.39999999966734767 -1.2738297696444845 
6000.0000000000000 9000.0000000000000 -4333.3333333330002 -43054872.479880832 -16825364.300897386 -106151328.82943285 6.1440896503982332e-05 -0.00045502145794103281 0.00022138306351460939 1.5999999988604634 -0.39999999967870103 -1.6686782312682029 
6000.0000000000000 10000.000000000000 -4333.3333333330002 -43054872.479622990 -16825364.300608624 -106151328.82849330 3.4233855432831811e-05 -0.00026239222787768674 0.00022990171725822717 1.5999999988615041 0.0000000000000000 -1.6686782312520128 
7000.0000000000000 10000.000000000000 -4333.3333333330002 -43054872.479877338 -16825364.302648094 -106151328.83719003 2.5561473887903604e-05 -0.00026128436432582220 0.00068423899127900830 1.1999999991179553 0.0000000000000000 -1.6686782314171369 
7000.0000000000000 9000.0000000000000 -4333.3333333330002 -43054872.480143197 -16825364.302929137 -106151328.83813648 5.0246951682498899e-05 -0.00045146146872133221 0.00069149820423056109 1.1999999991171817 -0.39999999967707045 -1.6686782314335340 
6000.0000000000000 9000.0000000000000 -4166.6666666669998 -41904616.382995971 -15675108.203434657 -102073148.12175262 5.8648878037381366e-05 -0.00054314516543653131 0.00019446619458179227 1.5999999989009213 -0.39999999969048222 -2.0486437423320676 
6000.0000000000000 10000.000000000000 -4166.6666666669998 -41904616.382771671 -15675108.203174779 -102073148.12094846 3.2319821330524981e-05 -0.00031183197191509993 0.00020394800983687756 1.5999999989019134 0.0000000000000000 -2.0486437423129811 
7000.0000000000000 10000.000000000000 -4166.6666666669998 -41904616.382887974 -15675108.204972582 -102073148.12869389 2.5630736188574169e-05 -0.00031041652431709391 0.00078111074049601467 1.1999999991500963 0.0000000000000000 -2.0486437425097828 
7000.0000000000000 9000.0000000000000 -4166.6666666669998 -41904616.383119129 -15675108.205226533 -102073148.12950441 5.0725310068014260e-05 -0.00053943971566537219 0.00078940420671201378 1.1999999991493233 -0.39999999968888883 -2.0486437425291082 
6000.0000000000000 9000.0000000000000 -4000.0000000000000 -40754257.327210441 -14524749.146985114 -97994602.377908438 5.5759269398766254e-05 -0.00062298637648698705 0.00015039672621613396 1.5999999989473994 -0.39999999970409139 -2.4137249705445654 
6000.0000000000000 10000.000000000000 -4000.0000000000000 -40754257.327017546 -14524749.146751277 -97994602.377232492 3.0304693498818694e-05 -0.00035631205338772579 0.00016039592238689893 1.5999999989483373 0.0000000000000000 -2.4137249705230479 
7000.0000000000000 10000.000000000000 -4000.0000000000000 -40754257.327031501 -14524749.148326363 -97994602.384078264 2.5518530358911761e-05 -0.00035466795549421221 0.00085675428884679386 1.1999999991871375 0.0000000000000000 -2.4137249707479662 
7000.0000000000000 9000.0000000000000 -4000.0000000000000 -40754257.327229999 -14524749.148556011 -97994602.384760380 5.0714075599262001e-05 -0.00061933451543552784 0.00086570733684166270 1.1999999991863681 -0.39999999970253786 -2.4137249707697479 
6000.0000000000000 9000.0000000000000 -3833.3333333330002 -39603795.303287461 -13374287.122322597 -93915691.565157264 5.2778461521152975e-05 -0.00069538311216452674 9.5880540153500511e-05 1.5999999989990501 -0.39999999971928174 -2.7639205836176903 
6000.0000000000000 10000.000000000000 -3833.3333333330002 -39603795.303123944 -13374287.122112352 -93915691.564602092 2.8235673195843353e-05 -0.00039642912369218882 0.00010602959866989236 1.5999999989999298 0.0000000000000000 -2.7639205835941913 
7000.0000000000000 10000.000000000000 -3833.3333333330002 -39603795.303067185 -13374287.123482903 -93915691.570600539 2.5186312928369814e-05 -0.00039462638763628323 0.00091551871311323723 1.1999999992283887 0.0000000000000000 -2.7639205838438241 
7000.0000000000000 9000.0000000000000 -3833.3333333330002 -39603795.303235002 -13374287.123690562 -93915691.571161896 5.0168364208653902e-05 -0.00069190345915984806 0.00092478535769959435 1.1999999992276271 -0.39999999971777211 -2.7639205838676086 
6000.0000000000000 9000.0000000000000 -3666.6666666669998 -38453230.301991634 -12223722.120220711 -89836415.650756612 4.9694169823221453e-05 -0.00076102627016694322 3.6645491884355267e-05 1.5999999990551288 -0.39999999973582367 -3.0992292491442552 
6000.0000000000000 10000.000000000000 -3666.6666666669998 -38453230.301855586 -12223722.120031979 -89836415.650314540 2.6139582553020927e-05 -0.00043264239271508203 4.6662684033802902e-05 1.5999999990559475 0.0000000000000000 -3.0992292491192042 
7000.0000000000000 10000.000000000000 -3666.6666666669998 -38453230.301755644 -12223722.121215323 -89836415.655518249 2.4615270392613699e-05 -0.00043073779053292958 0.00096134216801152929 1.1999999992732222 0.0000000000000000 -3.0992292493903171 
7000.0000000000000 9000.0000000000000 -3666.6666666669998 -38453230.301894695 -12223722.121402889 -89836415.655966625 4.9081775416696110e-05 -0.00075777233061402876 0.00097060177250437414 1.1999999992724744 -0.39999999973436434 -3.0992292494156723 
6000.0000000000000 9000.0000000000000 -3500.0000000000000 -37302562.314083636 -11073054.131447671 -85756774.601946265 4.6488722906537264e-05 -0.00082047801306983246 -2.2519801138715676e-05 1.5999999991149834 -0.39999999975350459 -3.4196496346035370 
6000.0000000000000 10000.000000000000 -3500.0000000000000 -37302562.313973218 -11073054.131278755 -85756774.601609454 2.4026401979053691e-05 -0.00046530205303695093 -1.2855988357705342e-05 1.5999999991157399 0.0000000000000000 -3.4196496345773366 
7000.0000000000000 10000.000000000000 -3500.0000000000000 -37302562.313853480 -11073054.132291256 -85756774.606070846 2.3800310139620388e-05 -0.00046333765866019407 0.00099765770584846398 1.1999999993210695 0.0000000000000000 -3.4196496348668739 
7000.0000000000000 9000.0000000000000 -3500.0000000000000 -37302562.313965678 -11073054.132460238 -85756774.606414065 4.7472588124961447e-05 -0.00081745577174245697 0.0010066362898038246 1.1999999993203430 -0.39999999975210315 -3.4196496348933954 
6000.0000000000000 9000.0000000000000 -3333.3333333330002 -36151791.330330178 -9922283.1467765570 -81676768.385984704 4.3145255616116830e-05 -0.00087417180651250509 -7.7634811723485935e-05 1.5999999991780471 -0.39999999977212664 -3.7251804073492094 
6000.0000000000000 10000.000000000000 -3333.3333333330002 -36151791.330243610 -9922283.1466261428 -81676768.385745227 2.1900611375656536e-05 -0.00049465872920968074 -6.8482933158588757e-05 1.5999999991787393 0.0000000000000000 -3.7251804073222359 
7000.0000000000000 10000.000000000000 -3333.3333333330002 -36151791.330123559 -9922283.1474832390 -81676768.389516503 2.2748765600131997e-05 -0.00049265727367003495 0.0010273865488581169 1.1999999993714201 0.0000000000000000 -3.7251804076273256 
7000.0000000000000 9000.0000000000000 -3333.3333333330002 -36151791.330210775 -9922283.1476347633 -81676768.389762476 4.5371247787161622e-05 -0.00087135726182953224 0.0010358522613068081 1.1999999993707220 -0.39999999977079259 -3.7251804076546344 
6000.0000000000000 9000.0000000000000 -3166.6666666669998 -35000917.341498651 -8771409.1569800768 -77596396.970130682 3.9650850699514509e-05 -0.00092241486309632670 -0.00012542408429160214 1.5999999992438261 -0.39999999979150624 -4.0158202346157745 
6000.0000000000000 10000.000000000000 -3166.6666666669998 -35000917.341434240 -8771409.1568472423 -77596396.969980523 1.9762905032130488e-05 -0.00052087044842107858 -0.00011689880876377575 1.5999999992444538 0.0000000000000000 -4.0158202345883742 
7000.0000000000000 10000.000000000000 -3166.6666666669998 -35000917.341329508 -8771409.1575634573 -77596396.973113447 2.1475088405949418e-05 -0.00051884612993474992 0.0010529255503370694 1.1999999994238162 0.0000000000000000 -4.0158202349063359 
7000.0000000000000 9000.0000000000000 -3166.6666666669998 -35000917.341393590 -8771409.1576982662 -77596396.973270178 4.2815681692088550e-05 -0.00091976915221413135 0.0010606890169293428 1.1999999994231538 -0.39999999979024914 -4.0158202349340888 
6000.0000000000000 9000.0000000000000 -3000.0000000000000 -33849940.338352025 -7620432.1528255781 -73515660.321625367 3.5994863833883922e-05 -0.00096538392110576696 -0.00016331489512363945 1.5999999993118967 -0.39999999981147227 -4.2915677835233978 
6000.0000000000000 10000.000000000000 -3000.0000000000000 -33849940.338308126 -7620432.1527098231 -73515660.321556374 1.7606709764518057e-05 -0.00054401740108541298 -0.00015549672547733817 1.5999999993124578 0.0000000000000000 -4.2915677834958839 
7000.0000000000000 10000.000000000000 -3000.0000000000000 -33849940.338230647 -7620432.1532987133 -73515660.324102074 1.9993409080071822e-05 -0.00054198065482059603 0.0010761229361762308 1.1999999994778496 0.0000000000000000 -4.2915677838242337 
7000.0000000000000 9000.0000000000000 -3000.0000000000000 -33849940.338273391 -7620432.1534171607 -73515660.324177653 3.9845050359905091e-05 -0.00096286286986757130 0.0010830439660164226 1.1999999994772292 -0.39999999981030254 -4.2915677838521153 
6000.0000000000000 9000.0000000000000 -2833.3333333330002 -32698860.311658870 -6469352.1250852291 -69434558.407728344 3.2170704478035029e-05 -0.0010031234046417523 -0.00018940652311463834 1.5999999993818923 -0.39999999983186518 -4.5524217210674456 
6000.0000000000000 10000.000000000000 -2833.3333333330002 -32698860.311633918 -6469352.1249864800 -69434558.407732293 1.5426308100425284e-05 -0.00056410682864009381 -0.00018234051872549883 1.5999999993823861 0.0000000000000000 -4.5524217210400995 
7000.0000000000000 10000.000000000000 -2833.3333333330002 -32698860.311592083 -6469352.1254607458 -69434558.409741461 1.8318568056308687e-05 -0.00056206101495700524 0.0010982776938862518 1.1999999995331558 0.0000000000000000 -4.5524217213765512 
7000.0000000000000 9000.0000000000000 -2833.3333333330002 -32698860.311615244 -6469352.1255627386 -69434558.409743994 3.6495972344070713e-05 -0.0010006862790942648 0.0011042582533250570 1.1999999995325850 -0.39999999983079310 -4.5524217214042828 
6000.0000000000000 9000.0000000000000 -2666.6666666669998 -31547677.252188213 -5318169.0645308914 -65353091.195699438 2.8175150261749478e-05 -0.0010355241714261609 -0.00020239843248880590 1.5999999994534990 -0.39999999985253615 -4.7983807141241206 
6000.0000000000000 10000.000000000000 -2666.6666666669998 -31547677.252180688 -5318169.0644495487 -65353091.195768028 1.3217522153983228e-05 -0.00058105459710762236 -0.00019612210580776274 1.5999999994539242 0.0000000000000000 -4.7983807140971866 
7000.0000000000000 10000.000000000000 -2666.6666666669998 -31547677.252179407 -5318169.0648209881 -65353091.197290748 1.6467188356249885e-05 -0.00057900427054407709 0.0011201856595213294 1.1999999995894113 0.0000000000000000 -4.7983807144396629 
7000.0000000000000 9000.0000000000000 -2666.6666666669998 -31547677.252184648 -5318169.0649059843 -65353091.197228402 3.2803659394348698e-05 -0.0010331437762574605 0.0011251653384466655 1.1999999995888955 -0.39999999985157186 -4.7983807144669974 
6000.0000000000000 9000.0000000000000 -2500.0000000000000 -30396391.150704306 -4166882.9619290554 -61271258.652780488 2.4005925651843120e-05 -0.0010623233982440885 -0.00020160630393947684 1.5999999995264487 -0.39999999987334484 -5.0294434294544850 
6000.0000000000000 10000.000000000000 -2500.0000000000000 -30396391.150712796 -4166882.9618660286 -61271258.652905449 1.0975502314424206e-05 -0.00059469977022802022 -0.00019614228185485061 1.5999999995268035 0.0000000000000000 -5.0294434294281753 
7000.0000000000000 10000.000000000000 -2500.0000000000000 -30396391.150753565 -4166882.9621455893 -61271258.653991237 1.4454881074829028e-05 -0.00059265800425155682 0.0011421144538354380 1.1999999996463278 0.0000000000000000 -5.0294434297748021 
7000.0000000000000 9000.0000000000000 -2500.0000000000000 -30396391.150742475 -4166882.9622125602 -61271258.653872229 2.8798255816466434e-05 -0.0010599924468879609 0.0011460729095707847 1.1999999996458730 -0.39999999987249824 -5.0294434298015309 
6000.0000000000000 9000.0000000000000 -2333.3333333330002 -29245001.997976944 -3015493.8080511936 -57189060.746231966 1.9659693720362902e-05 -0.0010830922052370579 -0.00018696244425980092 1.5999999996005114 -0.39999999989415885 -5.2456085336956155 
6000.0000000000000 10000.000000000000 -2333.3333333330002 -29245001.998000093 -3015493.8080078955 -57189060.746404871 8.6933629676052750e-06 -0.00060480254741960562 -0.00018231742666334656 1.5999999996007943 0.0000000000000000 -5.2456085336701035 
7000.0000000000000 10000.000000000000 -2333.3333333330002 -29245001.998081062 -3015493.8082056902 -57189060.747102797 1.2293509880477431e-05 -0.00060278553285672380 0.0011638161738907523 1.1999999997036475 0.0000000000000000 -5.2456085340192198 
7000.0000000000000 9000.0000000000000 -2333.3333333330002 -29245001.998055149 -3015493.8082531169 -57189060.746935464 2.4502798997293651e-05 -0.0010808201608566760 0.0011667745475453261 1.1999999997032587 -0.39999999989343948 -5.2456085340451635 
6000.0000000000000 9000.0000000000000 -2166.6666666669998 -28093509.784776233 -1864001.5936686483 -53106497.443314649 1.5133871711108989e-05 -0.0010972253595926834 -0.00015900106046666835 1.5999999996754908 -0.39999999991485197 -5.4468746933654240 
6000.0000000000000 10000.000000000000 -2166.6666666669998 -28093509.784812797 -1864001.5936470563 -53106497.443527117 6.3640779058000315e-06 -0.00061103745974384243 -0.00015517846326174690 1.5999999996756997 0.0000000000000000 -5.4468746933408489 
7000.0000000000000 10000.000000000000 -2166.6666666669998 -28093509.784928758 -1864001.5937723212 -53106497.443885587 9.9928087091955151e-06 -0.00060906349111762429 0.0011845452918358282 1.1999999997611384 0.0000000000000000 -5.4468746936910035 
7000.0000000000000 9000.0000000000000 -2166.6666666669998 -28093509.784889415 -1864001.5937981338 -53106497.443678215 1.9936263863427449e-05 -0.0010950377963344507 0.0011865521906035941 1.1999999997608202 -0.39999999991426899 -5.4468746937160262 
6000.0000000000000 9000.0000000000000 -2000.0000000000000 -26941914.501867291 -712406.30954741186 -49023568.711270891 1.0428253073014329e-05 -0.0011039458196681479 -0.00011883938901750733 1.5999999997512155 -0.39999999993530244 -5.6332405748658907 
6000.0000000000000 10000.000000000000 -2000.0000000000000 -26941914.501916118 -712406.30955007428 -49023568.711514555 3.9811381668113344e-06 -0.00061299782029976030 -0.00011583764311029834 1.5999999997513490 0.0000000000000000 -5.6332405748423522 
7000.0000000000000 10000.000000000000 -2000.0000000000000 -26941914.502058581 -712406.30961122899 -49023568.711581498 7.5606716303359672e-06 -0.00061108315092274295 0.0012030872735105916 1.1999999998185900 0.0000000000000000 -5.6332405751923069 
7000.0000000000000 9000.0000000000000 -2000.0000000000000 -26941914.502007082 -712406.30961280141 -49023568.711342424 1.5114032394332110e-05 -0.0011018791078770981 0.0012042150909369676 1.1999999998183473 -0.39999999993486468 -5.6332405752163046 
6000.0000000000000 9000.0000000000000 -1833.3333333329999 -25790216.140020728 439292.05354128778 -44940274.517361939 5.5423413892286908e-06 -0.0011022754672247159 -6.8201398847021768e-05 1.5999999998275372 -0.39999999995539165 -5.8047048444758085 
6000.0000000000000 10000.000000000000 -1833.3333333329999 -25790216.140080787 439292.05351122899 -44940274.517628431 1.5368996254348666e-06 -0.00061016940371655284 -6.6002862346386122e-05 1.5999999998275931 0.0000000000000000 -5.8047048444533722 
7000.0000000000000 10000.000000000000 -1833.3333333329999 -25790216.140237994 439292.05350658624 -44940274.517451309 5.0031667323897722e-06 -0.00060833292520061746 0.0012177181708090171 1.1999999998758080 0.0000000000000000 -5.8047048448021004 
7000.0000000000000 9000.0000000000000 -1833.3333333329999 -25790216.140175454 439292.05353247689 -44940274.517188802 1.0047095189642907e-05 -0.0011003764957287950 0.0012180628021322614 1.1999999998756452 -0.39999999995510704 -5.8047048448250118 
6000.0000000000000 9000.0000000000000 -1666.6666666670001 -24638414.690007381 1591093.5048262225 -40856614.828849085 4.7893898494334551e-07 -0.0010910358954460920 -9.4501938488700878e-06 1.5999999999043224 -0.39999999997500213 -5.9612661683548218 
6000.0000000000000 10000.000000000000 -1666.6666666670001 -24638414.690077767 1591093.5047649988 -40856614.829130158 -9.7237473049215878e-07 -0.00060194132566692457 -8.0343157914974418e-06 1.5999999999042984 0.0000000000000000 -5.9612661683335091 
7000.0000000000000 10000.000000000000 -1666.6666666670001 -24638414.690234620 1591093.5048101502 -40856614.828755721 2.3267890917680478e-06 -0.00060021839122327927 0.0012261926104742225 1.1999999999326094 0.0000000000000000 -5.9612661686802033 
7000.0000000000000 9000.0000000000000 -1666.6666666670001 -24638414.690161988 1591093.5048673376 -40856614.828477979 4.7424715141932299e-06 -0.0010893637829792820 0.0012258738900276923 1.1999999999325299 -0.39999999997487823 -5.9612661687019983 
9000.0000000000000 4000.0000000000000 -4833.3333333330002 -46505023.126769200 -20275514.941038795 -118383681.15211192 0.00029827802146596401 0.00030492696280052937 4.1878665379974495e-05 0.39999999964099248 -2.3999999983146929 -0.43948932237724547 
9000.0000000000000 5000.0000000000000 -4833.3333333330002 -46505023.122257076 -20275514.941944815 -118383681.12928194 0.00035189016995828236 6.5531412139416026e-05 7.1137735759180937e-05 0.39999999965357474 -1.9999999984089460 -0.43948932227788656 
10000.000000000000 5000.0000000000000 -4833.3333333330002 -46505023.122470587 -20275514.942494143 -118383681.13156460 0.00019930699828969010 8.0140855898439933e-05 7.0393528793132154e-05 0.0000000000000000 -1.9999999984024655 -0.43948932228541648 
10000.000000000000 4000.0000000000000 -4833.3333333330002 -46505023.126953006 -20275514.941617768 -118383681.15489429 0.00016908733787301481 0.00031952563466104787 6.7460951457538036e-05 0.0000000000000000 -2.3999999983090614 -0.43948932238652078 
9000.0000000000000 4000.0000000000000 -5000.0000000000000 -47079971.034029834 -20850462.848363165 -120422132.82360525 0.00030503269958962945 0.00014176546395505915 2.4896726596634229e-05 0.39999999963868699 -2.3999999983070999 0.0000000000000000 
9000.0000000000000 5000.0000000000000 -5000.0000000000000 -47079971.029256538 -20850462.849026304 -120422132.79979682 0.00035912600792479274 2.3841839054161400e-05 3.8637774126611205e-05 0.39999999965154309 -1.9999999984018020 0.0000000000000000 
10000.000000000000 5000.0000000000000 -5000.0000000000000 -47079971.029505968 -20850462.849617306 -120422132.80223146 0.00020293819382010423 3.0783968346211437e-05 3.7736376591363155e-05 0.0000000000000000 -1.9999999983952137 0.0000000000000000 
10000.000000000000 4000.0000000000000 -5000.0000000000000 -47079971.034260646 -20850462.848995421 -120422132.82658751 0.00017265648129714958 0.00014865301169370888 3.6947705602753272e-05 0.0000000000000000 -2.3999999983013445 0.0000000000000000 
9000.0000000000000 4000.0000000000000 -4666.6666666669998 -45355075.849081852 -19125567.663173549 -114306595.34855200 0.00028026939803942031 0.00066847534883589254 6.2914903065221941e-05 0.39999999964752225 -2.3999999983363298 -0.86409968981545404 
9000.0000000000000 5000.0000000000000 -4666.6666666669998 -45355075.845060900 -19125567.664514691 -114306595.32760972 0.00033214097887557036 0.00018081655023829559 0.00012573008969744533 0.39999999965936656 -1.9999999984294408 -0.86409968962428885 
10000.000000000000 5000.0000000000000 -4666.6666666669998 -45355075.845211461 -19125567.664984088 -114306595.32959546 0.00018917369666898506 0.00021183774682432884 0.00012644798049540028 0.0000000000000000 -1.9999999984232617 -0.86409968963877160 
10000.000000000000 4000.0000000000000 -4666.6666666669998 -45355075.849184342 -19125567.663652405 -114306595.35094593 0.00015944448568600252 0.00069962904879930380 0.00011683462518934216 0.0000000000000000 -2.3999999983310274 -0.86409968983329055 
9000.0000000000000 4000.0000000000000 -4500.0000000000000 -44205025.640429601 -17975517.454256829 -110229144.60746515 0.00025569268153169270 0.0010961423828408142 6.3312040016856534e-05 0.39999999965752980 -2.3999999983698843 -1.2738297705133348 
9000.0000000000000 5000.0000000000000 -4500.0000000000000 -44205025.636841260 -17975517.455935307 -110229144.58827351 0.00030405423420624402 0.00035276385667180302 0.00016288853032815479 0.39999999966833416 -1.9999999984615164 -1.2738297702375132 
10000.000000000000 5000.0000000000000 -4500.0000000000000 -44205025.636946023 -17975517.456332013 -110229144.58997771 0.00017428222912443703 0.00040167068854187263 0.00016597668921749308 0.0000000000000000 -1.9999999984557917 -1.2738297702582781 
10000.000000000000 4000.0000000000000 -4500.0000000000000 -44205025.640475355 -17975517.454648741 -110229144.60949525 0.00014601149084744522 0.0011452379503144755 0.00014564305234406868 0.0000000000000000 -2.3999999983650331 -1.2738297705388801 
9000.0000000000000 4000.0000000000000 -4333.3333333330002 -43054872.491554365 -16825364.305055093 -106151328.89610779 0.00022863472954146009 0.0015686703281500385 5.2316868486534159e-05 0.39999999967034217 -2.3999999984135321 -1.6686782325424185 
9000.0000000000000 5000.0000000000000 -4333.3333333330002 -43054872.488347054 -16825364.306980655 -106151328.87853381 0.00027151416868792370 0.00056766149960374857 0.00018866215646205032 0.39999999967994659 -1.9999999985036150 -1.6686782321886822 
10000.000000000000 5000.0000000000000 -4333.3333333330002 -43054872.488421038 -16825364.307312295 -106151328.87997395 0.00015648459153785947 0.00063463873449809058 0.00019299618625906497 0.0000000000000000 -1.9999999984984469 -1.6686782322149929 
10000.000000000000 4000.0000000000000 -4333.3333333330002 -43054872.491565034 -16825364.305373073 -106151328.89780191 0.00013091630493618952 0.0016355536847165422 0.00015947382982331047 0.0000000000000000 -2.3999999984091871 -1.6686782325747271 
9000.0000000000000 4000.0000000000000 -4166.6666666669998 -41904616.393202014 -15675108.206331516 -102073148.18173504 0.00020178893326866591 0.0020694460897749812 3.6879439607229658e-05 0.39999999968538169 -2.3999999984657312 -2.0486437438550773 
9000.0000000000000 5000.0000000000000 -4166.6666666669998 -41904616.390329868 -15675108.208422167 -102073148.16565129 0.00023737705379057387 0.00081299681673578520 0.00020773097700849645 0.39999999969373679 -1.9999999985543693 -2.0486437434297566 
10000.000000000000 5000.0000000000000 -4166.6666666669998 -41904616.390384957 -15675108.208696168 -102073148.16684598 0.00013733756103737573 0.00089716845248605996 0.00021126627730065257 0.0000000000000000 -1.9999999985498129 -2.0486437434608429 
10000.000000000000 4000.0000000000000 -4166.6666666669998 -41904616.393194541 -15675108.206587372 -102073148.18312240 0.00011567738378238848 0.0021529065163939619 0.00016361915352402890 0.0000000000000000 -2.3999999984618983 -2.0486437438931593 
9000.0000000000000 4000.0000000000000 -4000.0000000000000 -40754257.336115852 -14524749.148841467 -97994602.431582183 0.00017676209859274225 0.0025841652946754900 2.1859660456958650e-05 0.39999999970216754 -2.3999999985251965 -2.4137249722909648 
9000.0000000000000 5000.0000000000000 -4000.0000000000000 -40754257.333537884 -14524749.151023611 -97994602.416868195 0.00020362884851664147 0.0010774273738578953 0.00022352365983735104 0.39999999970930183 -1.9999999986125891 -2.4137249717999834 
10000.000000000000 5000.0000000000000 -4000.0000000000000 -40754257.333582871 -14524749.151246872 -97994602.417836636 0.00011803444735912787 0.0011771650798806156 0.00022386123370985041 0.0000000000000000 -1.9999999986086603 -2.4137249718350700 
10000.000000000000 4000.0000000000000 -4000.0000000000000 -40754257.336102471 -14524749.149045423 -97994602.432692170 0.00010126712815238304 0.0026823930603263346 0.00016237902091742555 0.0000000000000000 -2.3999999985218516 -2.4137249723338305 
9000.0000000000000 4000.0000000000000 -3833.3333333330002 -39603795.311046228 -13374287.123343538 -93915691.612901777 0.00015436427019843116 0.0031005673457554029 1.0396565709315431e-05 0.39999999972030270 -2.3999999985908782 -2.7639205855633446 
9000.0000000000000 5000.0000000000000 -3833.3333333330002 -39603795.308725685 -13374287.125551660 -93915691.599444970 0.00017155570643904853 0.0013507803122164480 0.00023842773220415921 0.39999999972629408 -1.9999999986772450 -2.7639205850122326 
10000.000000000000 5000.0000000000000 -3833.3333333330002 -39603795.308766663 -13374287.125730447 -93915691.600206524 9.9418916147260176e-05 0.0014639748515008762 0.00023310831322370464 0.0000000000000000 -1.9999999986739316 -2.7639205850505606 
10000.000000000000 4000.0000000000000 -3833.3333333330002 -39603795.311035082 -13374287.123504195 -93915691.613763094 8.8226965671793945e-05 0.0032114823596922303 0.00015893056233104203 0.0000000000000000 -2.3999999985879747 -2.7639205856100384 
9000.0000000000000 4000.0000000000000 -3666.6666666669998 -38453230.308744892 -12223722.120594872 -89836415.692945421 0.00013484624620994307 0.0036080255690023643 4.3102347669451464e-06 0.39999999973946199 -2.3999999986619240 -3.0992292512663115 
9000.0000000000000 5000.0000000000000 -3666.6666666669998 -38453230.306648783 -12223722.122770965 -89836415.680641681 0.00014190552293575555 0.0016239734737781549 0.00025401450271211488 0.39999999974441552 -1.9999999987474590 -3.0992292506602208 
10000.000000000000 5000.0000000000000 -3666.6666666669998 -38453230.306689657 -12223722.122910868 -89836415.681215525 8.2032617199969752e-05 0.0017482456210330629 0.00024065832057037682 0.0000000000000000 -1.9999999987447277 -3.0992292507010686 
10000.000000000000 4000.0000000000000 -3666.6666666669998 -38453230.308740869 -12223722.120719336 -89836415.693585500 7.6776534761001456e-05 0.0037294992582574040 0.00015544074493099624 0.0000000000000000 -2.3999999986594118 -3.0992292513159350 
9000.0000000000000 4000.0000000000000 -3500.0000000000000 -37302562.319959529 -11073054.131346393 -85756774.638945654 0.00011808441536012287 0.0040973025146951256 4.4162666289981428e-06 0.39999999975937894 -2.3999999987376701 -3.4196496368804263 
9000.0000000000000 5000.0000000000000 -3500.0000000000000 -37302562.318058267 -11073054.133439301 -85756774.627699703 0.00011502634870481443 0.0018890112354942648 0.00027118540881810086 0.39999999976340994 -1.9999999988224906 -3.4196496362241549 
10000.000000000000 5000.0000000000000 -3500.0000000000000 -37302562.318101197 -11073054.133545242 -85756774.628104582 6.6172820895831321e-05 0.0020219238825293982 0.00024757508747426030 0.0000000000000000 -1.9999999988202957 -3.4196496362668509 
10000.000000000000 4000.0000000000000 -3500.0000000000000 -37302562.319965020 -11073054.131440457 -85756774.639390320 6.6904622647793983e-05 0.0042273151847487941 0.00015322082431988891 0.0000000000000000 -2.3999999987354954 -3.4196496369321574 
9000.0000000000000 4000.0000000000000 -3333.3333333330002 -36151791.335443966 -9922283.1463535130 -81676768.418152973 0.00010373315002057927 0.0045602934730499577 1.0803707369777802e-05 0.39999999977983358 -2.3999999988176075 -3.7251804097606533 
9000.0000000000000 5000.0000000000000 -3333.3333333330002 -36151791.333710991 -9922283.1483182199 -81676768.407878622 9.0987879977708853e-05 0.0021388972024209605 0.00029033594547955480 0.39999999978305534 -1.9999999989017228 -3.7251804090586735 
10000.000000000000 5000.0000000000000 -3333.3333333330002 -36151791.333756849 -9922283.1483945120 -81676768.408132732 5.1956101879933955e-05 0.0022780778932657755 0.00025447491371919870 0.0000000000000000 -1.9999999989000119 -3.7251804091026006 
10000.000000000000 4000.0000000000000 -3333.3333333330002 -36151791.335459530 -9922283.1464218721 -81676768.418426290 5.8455378741323197e-05 0.0046970129777515589 0.00015292431418809885 0.0000000000000000 -2.3999999988157219 -3.7251804098137513 
9000.0000000000000 4000.0000000000000 -3166.6666666669998 -35000917.345952831 -8771409.1563711576 -77596396.997817725 9.1328019249175554e-05 0.0049897557985937556 2.3041379033220065e-05 0.39999999980064299 -2.3999999989013667 -4.0158202371427825 
9000.0000000000000 5000.0000000000000 -3166.6666666669998 -35000917.344364382 -8771409.1581680551 -77596396.988437459 6.9674826544556645e-05 0.0023675236282623808 0.00031146566487987753 0.39999999980315981 -1.9999999989846506 -4.0158202363992670 
10000.000000000000 5000.0000000000000 -3166.6666666669998 -35000917.344413042 -8771409.1582184825 -77596396.988558561 3.9373257347592574e-05 0.0025107496790343518 0.00026160834748525398 0.0000000000000000 -1.9999999989833703 -4.0158202364438740 
10000.000000000000 4000.0000000000000 -3166.6666666669998 -35000917.345977768 -8771409.1564176325 -77596396.997942135 5.1191210299884296e-05 0.0051315628192349274 0.00015470359020852264 0.0000000000000000 -2.3999999988997298 -4.0158202371965990 
9000.0000000000000 4000.0000000000000 -3000.0000000000000 -33849940.342236362 -7620432.1521487590 -73515660.345171928 8.0359737543482025e-05 0.0053791828758272143 4.0353694512592915e-05 0.39999999982165291 -2.3999999989887013 -4.2915677861482635 
9000.0000000000000 5000.0000000000000 -3000.0000000000000 -33849940.340771146 -7620432.1537429923 -73515660.336616680 5.0855191635419210e-05 0.0025696676384368245 0.00033426602138224564 0.39999999982355594 -1.9999999990708712 -4.2915677853671177 
10000.000000000000 5000.0000000000000 -3000.0000000000000 -33849940.340821728 -7620432.1537708454 -73515660.336621851 2.8330204155624841e-05 0.0027149539371664529 0.00026895667767576348 0.0000000000000000 -1.9999999990699693 -4.2915677854119245 
10000.000000000000 4000.0000000000000 -3000.0000000000000 -33849940.342269033 -7620432.1521764575 -73515660.345168233 4.4842354687009298e-05 0.0055246756700807545 0.00015835905809290072 0.0000000000000000 -2.3999999989872802 -4.2915677862022408 
9000.0000000000000 4000.0000000000000 -2833.3333333330002 -32698860.315050609 -6469352.1244407073 -69434558.427466378 7.0326639226147848e-05 0.0057225950826020897 6.1719961749222426e-05 0.39999999984273227 -2.3999999990794709 -4.5524217237737474 
9000.0000000000000 5000.0000000000000 -2833.3333333330002 -32698860.313689649 -6469352.1258016201 -69434558.419675067 3.4237134214055916e-05 0.0027408921827650691 0.00035819545544607122 0.39999999984409756 -1.9999999991600697 -4.5524217229586332 
10000.000000000000 5000.0000000000000 -2833.3333333330002 -32698860.313740704 -6469352.1258097794 -69434558.419580758 1.8684442896441231e-05 0.0028864913560253122 0.00027631099958294093 0.0000000000000000 -1.9999999991594968 -4.5524217230032269 
10000.000000000000 4000.0000000000000 -2833.3333333330002 -32698860.315088794 -6469352.1244521802 -69434558.427353889 3.9135928435822130e-05 0.0058705679337820458 0.00016343914513695137 0.0000000000000000 -2.3999999990782421 -4.5524217238274165 
9000.0000000000000 4000.0000000000000 -2666.6666666669998 -31547677.255152285 -5318169.0640012221 -65353091.211952344 6.0765162952385816e-05 0.0060144608494276542 8.5957781763332215e-05 0.39999999986376661 -2.3999999991736303 -4.7983807168967170 
9000.0000000000000 5000.0000000000000 -2666.6666666669998 -31547677.253878672 -5318169.0651018731 -65353091.204871312 1.9507868271737327e-05 0.0028775143758782368 0.00038252368234151441 0.39999999986465606 -1.9999999992520101 -4.7983807160510841 
10000.000000000000 5000.0000000000000 -2666.6666666669998 -31547677.253928326 -5318169.0650928933 -65353091.204693481 1.0266410765498172e-05 0.0030219361733417969 0.00028330626283519858 0.0000000000000000 -1.9999999992517217 -4.7983807160951244 
10000.000000000000 4000.0000000000000 -2666.6666666669998 -31547677.255193330 -5318169.0639985967 -65353091.211749122 3.3809781792040591e-05 0.0061638721152956948 0.00016932042814860247 0.0000000000000000 -2.3999999991725782 -4.7983807169496986 
9000.0000000000000 4000.0000000000000 -2500.0000000000000 -30396391.153293513 -4166882.9615791859 -61271258.665863469 5.1269798641590916e-05 0.0062495788524621169 0.00011179516101229463 0.39999999988465668 -2.3999999992712158 -5.0294434322795141 
9000.0000000000000 5000.0000000000000 -2500.0000000000000 -30396391.152092211 -4166882.9623959241 -61271258.659445710 6.3542728051462612e-06 0.0029765234461082072 0.00040637953562521709 0.39999999988511753 -1.9999999993465243 -5.0294434314066239 
10000.000000000000 5000.0000000000000 -2500.0000000000000 -30396391.152138229 -4166882.9623720567 -61271258.659199677 2.8976337550733642e-06 0.0031185299221797788 0.00028948849943016635 0.0000000000000000 -1.9999999993464814 -5.0294434314498400 
10000.000000000000 4000.0000000000000 -2500.0000000000000 -30396391.153334502 -4166882.9615642563 -61271258.665586442 2.8636104550211318e-05 0.0063995250126934545 0.00017528428298682489 0.0000000000000000 -2.3999999992703329 -5.0294434323315160 
9000.0000000000000 4000.0000000000000 -2333.3333333330002 -29245002.000232130 -3015493.8079284672 -57189060.756452605 4.1497359092264976e-05 0.0064230060434836570 0.00013788751453561312 0.39999999990531482 -2.3999999993723375 -5.2456085365604928 
9000.0000000000000 5000.0000000000000 -2333.3333333330002 -29245001.999089800 -3015493.8084406490 -57189060.750657082 -5.5257478749341199e-06 0.0030355791525080037 0.00042878451519932871 0.39999999990538188 -1.9999999994435043 -5.2456085356634388 
10000.000000000000 5000.0000000000000 -2333.3333333330002 -29245001.999129698 -3015493.8084039316 -57189060.750357658 -3.6007127586524936e-06 0.0031741730439213754 0.00029434794133435029 0.0000000000000000 -1.9999999994436735 -5.2456085357056255 
10000.000000000000 4000.0000000000000 -2333.3333333330002 -29245002.000270035 -3015493.8079028348 -57189060.756117880 2.3421391339244787e-05 0.0065726865963999948 0.00018055186979951121 0.0000000000000000 -2.3999999993716212 -5.2456085366113046 
9000.0000000000000 4000.0000000000000 -2166.6666666669998 -28093509.786726434 -1864001.5938026523 -53106497.450973414 3.1165886476367454e-05 0.0065300353770896720 0.00016286552678788850 0.39999999992566282 -2.3999999994771710 -5.4468746962588508 
9000.0000000000000 5000.0000000000000 -2166.6666666669998 -28093509.785631232 -1864001.5939924100 -53106497.445764191 -1.6419134858002478e-05 0.0030529896370230956 0.00044867105753446308 0.39999999992536045 -1.9999999995428914 -5.4468746953405747 
10000.000000000000 5000.0000000000000 -2166.6666666669998 -28093509.785662327 -1864001.5939446860 -53106497.445425555 -9.4116226067513859e-06 0.0031874006714561354 0.00029732660212230015 0.0000000000000000 -1.9999999995432460 -5.4468746953815943 
10000.000000000000 4000.0000000000000 -2166.6666666669998 -28093509.786758158 -1864001.5937677503 -53106497.450596243 1.7996912501758628e-05 0.0066787195415443177 0.00018433665600909877 0.0000000000000000 -2.3999999994766239 -5.4468746963083428 
9000.0000000000000 4000.0000000000000 -2000.0000000000000 -26941914.503529996 -712406.30994983763 -49023568.716662265 2.0044000205714487e-05 0.0065661209385385342 0.00018537240373126551 0.39999999994563135 -2.3999999995859458 -5.6332405777778485 
9000.0000000000000 5000.0000000000000 -2000.0000000000000 -26941914.502471380 -712406.30980193475 -49023568.712007627 -2.6604820606470109e-05 0.0030276721277169563 0.00046491985024818159 0.39999999994497404 -1.9999999996446713 -5.6332405768411569 
10000.000000000000 5000.0000000000000 -2000.0000000000000 -26941914.502490867 -712406.30974491779 -49023568.711643428 -1.4721390965921679e-05 0.0031572922327140381 0.00029786675919850000 0.0000000000000000 -1.9999999996451903 -5.6332405768809330 
10000.000000000000 4000.0000000000000 -2000.0000000000000 -26941914.503552500 -712406.30990701332 -49023568.716257289 1.2219075124514210e-05 0.0067131149667761150 0.00018588810099539016 0.0000000000000000 -2.3999999995855763 -5.6332405778259647 
9000.0000000000000 4000.0000000000000 -1833.3333333329999 -25790216.141401969 439292.05287713872 -44940274.520775042 7.9347512342834110e-06 0.0065268618084662455 0.00020408905817982792 0.39999999996516017 -2.3999999996989452 -5.8047048473975815 
9000.0000000000000 5000.0000000000000 -1833.3333333329999 -25790216.140370533 439292.05337533512 -44940274.516646549 -3.6370553321148122e-05 0.0029591611174990345 0.00047638875619727429 0.39999999996415264 -1.9999999997488627 -5.8047048464451487 
10000.000000000000 5000.0000000000000 -1833.3333333329999 -25790216.140375566 439292.05344002927 -44940274.516269878 -1.9727445941803730e-05 0.0030835242999670935 0.00029544387005313018 0.0000000000000000 -1.9999999997495337 -5.8047048464836619 
10000.000000000000 4000.0000000000000 -1833.3333333329999 -25790216.141412422 439292.05292651337 -44940274.520356476 5.9602549481965447e-06 0.0066714951003366838 0.00018452446126502684 0.0000000000000000 -2.3999999996987662 -5.8047048474443352 
9000.0000000000000 4000.0000000000000 -1666.6666666670001 -24638414.691101771 1591093.5039260818 -40856614.830568463 -5.3548138490210010e-06 0.0064080649932686772 0.00021776721004202479 0.39999999998419766 -2.3999999998164987 -5.9612661712789965 
9000.0000000000000 5000.0000000000000 -1666.6666666670001 -24638414.690089077 1591093.5047845391 -40856614.826940216 -4.6035459607807571e-05 0.0028476411762371145 0.00048191399376957216 0.39999999998283498 -1.9999999998555151 -5.9612661703133725 
10000.000000000000 5000.0000000000000 -1666.6666666670001 -24638414.690076802 1591093.5048554097 -40856614.826563343 -2.4660343654036445e-05 0.0029663821428033083 0.00028956837741424962 0.0000000000000000 -1.9999999998563325 -5.9612661703506573 
10000.000000000000 4000.0000000000000 -1666.6666666670001 -24638414.691097625 1591093.5039806222 -40856614.830149882 -9.2272436685238593e-07 0.0065496413293466890 0.00017967330917509718 0.0000000000000000 -2.3999999998165258 -5.9612661713244641 
3000.0000000000000 2000.0000000000000 -4833.3333333330002 -46505023.135518737 -20275514.917961597 -118383681.11604789 8.2759978971853667e-07 0.00048320016469972677 -0.00044781421688297002 2.7999999985605020 -3.1999999987902701 -0.43948932223650111 
3000.0000000000000 3000.0000000000000 -4833.3333333330002 -46505023.131094128 -20275514.920775626 -118383681.09310581 0.00025241637371322230 0.00044703779749693845 -0.00046215809845579717 2.7999999985642878 -2.7999999984609527 -0.43948932213220931 
4000.0000000000000 3000.0000000000000 -4833.3333333330002 -46505023.128992043 -20275514.925170176 -118383681.11646064 0.00023437306532892252 0.00046486376555844448 -0.00030946456689922176 2.3999999984733127 -2.7999999984519124 -0.43948932223690024 
4000.0000000000000 2000.0000000000000 -4833.3333333330002 -46505023.133450009 -20275514.922368087 -118383681.13930516 6.1180634348737296e-05 0.00044954493170609505 -0.00030356938161217915 2.3999999984687803 -3.1999999987926442 -0.43948932234111160 
3000.0000000000000 2000.0000000000000 -5000.0000000000000 -47079971.042435311 -20850462.824788675 -120422132.78594089 -3.2299726862429780e-06 0.00023215828940153583 -0.00021277383626022606 2.7999999985538979 -3.1999999987847416 0.0000000000000000 
3000.0000000000000 3000.0000000000000 -5000.0000000000000 -47079971.037726827 -20850462.827350546 -120422132.76196125 0.00025691454912250930 0.00021304302957946716 -0.00022039694532740342 2.7999999985577833 -2.7999999984541493 0.0000000000000000 
4000.0000000000000 3000.0000000000000 -5000.0000000000000 -47079971.035878226 -20850462.832030293 -120422132.78639446 0.00023788850894706923 0.00022152675189262698 -0.00014606394440413789 2.3999999984662814 -2.7999999984448811 0.0000000000000000 
4000.0000000000000 2000.0000000000000 -5000.0000000000000 -47079971.040631361 -20850462.829489790 -120422132.81031761 5.9172735804377980e-05 0.00021543321769875855 -0.00014295280801038216 2.3999999984616567 -3.1999999987873267 0.0000000000000000 
3000.0000000000000 2000.0000000000000 -4666.6666666669998 -45355075.858423948 -19125567.641128380 -114306595.31568527 1.1993979590227879e-05 0.0010171474687909537 -0.00095548040407571492 2.7999999985790929 -3.1999999988057506 -0.86409968954618921 
3000.0000000000000 3000.0000000000000 -4666.6666666669998 -45355075.854522415 -19125567.644376419 -114306595.29468679 0.00024124866087725497 0.00095155371120802872 -0.00098186490412256679 2.7999999985827024 -2.7999999984802453 -0.86409968934579795 
4000.0000000000000 3000.0000000000000 -4666.6666666669998 -45355075.851985432 -19125567.648245722 -114306595.31599256 0.00022556195783875589 0.00098862485797705812 -0.00066510265630520700 2.3999999984932177 -2.7999999984717330 -0.86409968954710437 
4000.0000000000000 2000.0000000000000 -4666.6666666669998 -45355075.855903976 -19125567.644997913 -114306595.33683923 6.6826935146455430e-05 0.00094990983201564483 -0.00065402908909845906 2.3999999984888620 -3.1999999988075420 -0.86409968974667184 
3000.0000000000000 2000.0000000000000 -4500.0000000000000 -44205025.650184087 -17975517.433306310 -110229144.57777759 2.8090063372185229e-05 0.0016042647528187999 -0.0015258696179388650 2.7999999986074489 -3.1999999988292029 -1.2738297701278303 
3000.0000000000000 3000.0000000000000 -4500.0000000000000 -44205025.646721594 -17975517.436860088 -110229144.55847350 0.00022786936931613224 0.0015189854513891115 -0.0015618927176507598 2.7999999986109816 -2.7999999985099673 -1.2738297698385861 
4000.0000000000000 3000.0000000000000 -4500.0000000000000 -44205025.643881790 -17975517.440288078 -110229144.57794029 0.00021476256547698394 0.0015749290198828355 -0.0010682197716336975 2.3999999985238478 -2.7999999985020456 -1.2738297701289414 
4000.0000000000000 2000.0000000000000 -4500.0000000000000 -44205025.647353634 -17975517.436732735 -110229144.59708565 7.5172716061287011e-05 0.0015053508106374100 -0.0010525493514150308 2.3999999985196130 -3.1999999988301551 -1.2738297704163293 
3000.0000000000000 2000.0000000000000 -4333.3333333330002 -43054872.501560450 -16825364.285239313 -106151328.86956005 4.7020298566976447e-05 0.0022258259720719063 -0.0021365806992251872 2.7999999986437718 -3.1999999988590719 -1.6686782320529372 
3000.0000000000000 3000.0000000000000 -4333.3333333330002 -43054872.498463526 -16825364.288993150 -106151328.85172790 0.00021543728970550911 0.0021303666225228743 -0.0021801301865617333 2.7999999986473862 -2.7999999985483912 -1.6686782316812212 
4000.0000000000000 3000.0000000000000 -4333.3333333330002 -43054872.495430239 -16825364.292051509 -106151328.86955309 0.00020427297888711679 0.0022029486362432865 -0.0015008878079241130 2.3999999985634690 -2.7999999985409962 -1.6686782320536153 
4000.0000000000000 2000.0000000000000 -4333.3333333330002 -43054872.498531841 -16825364.288297765 -106151328.88725211 8.5088805802718912e-05 0.0020994055305616310 -0.0014811577184757959 2.3999999985592564 -3.1999999988590351 -1.6686782324224454 
3000.0000000000000 2000.0000000000000 -4166.6666666669998 -41904616.403313749 -15675108.187671991 -102073148.15826766 6.7152924801967180e-05 0.0028672836133969001 -0.0027697065322075331 2.7999999986866340 -3.1999999988941443 -2.0486437432737978 
3000.0000000000000 3000.0000000000000 -4166.6666666669998 -41904616.400518775 -15675108.191538787 -102073148.14171034 0.00020533292606287091 0.0027693075137318929 -0.0028182987850667533 2.7999999986904851 -2.7999999985940951 -2.0486437428251993 
4000.0000000000000 3000.0000000000000 -4166.6666666669998 -41904616.397382021 -15675108.194288269 -102073148.15807569 0.00019505558718377455 0.0028560070290556388 -0.0019492387425476580 2.3999999986106775 -2.7999999985871034 -2.0486437432732028 
4000.0000000000000 2000.0000000000000 -4166.6666666669998 -41904616.400177278 -15675108.190423785 -102073148.17454672 9.5535068740201911e-05 0.0027189006663555049 -0.0019264247328461854 2.3999999986063929 -3.1999999988930590 -2.0486437437180922 
3000.0000000000000 2000.0000000000000 -4000.0000000000000 -40754257.346199602 -14524749.131345101 -97994602.411116272 8.7233819541138278e-05 0.0035171430578404251 -0.0034110224552004013 2.7999999987349264 -3.1999999989334933 -2.4137249716299056 
3000.0000000000000 3000.0000000000000 -4000.0000000000000 -40754257.343651697 -14524749.135252561 -97994602.395660117 0.00019786184899538611 0.0034217539356541926 -0.0034616178090649103 2.7999999987391395 -2.7999999986459199 -2.4137249711093038 
4000.0000000000000 3000.0000000000000 -4000.0000000000000 -40754257.340485945 -14524749.137744732 -97994602.410730943 0.00018731424064863205 0.0035205253923137787 -0.0024022716413728117 2.3999999986643399 -2.7999999986392017 -2.4137249716270648 
4000.0000000000000 2000.0000000000000 -4000.0000000000000 -40754257.343028791 -14524749.133841125 -97994602.426159829 0.00010568196801686761 0.0033530410608219961 -0.0023778645119697530 2.3999999986599132 -3.1999999989313697 -2.4137249721434739 
3000.0000000000000 2000.0000000000000 -3833.3333333330002 -39603795.320979461 -13374287.107006650 -93915691.595340639 0.00010631511125915417 0.0041661939260210805 -0.0040491158656455655 2.7999999987878073 -3.1999999989764287 -2.7639205848342816 
3000.0000000000000 3000.0000000000000 -3833.3333333330002 -39603795.318631448 -13374287.110893968 -93915691.580833748 0.00019272258767420879 0.0040756708067729262 -0.0040981742226841381 2.7999999987924609 -2.7999999987029502 -2.7639205842459300 
4000.0000000000000 3000.0000000000000 -3833.3333333330002 -39603795.315498866 -13374287.113172706 -93915691.594758451 0.00018084382539348655 0.0041852736278165971 -0.0028508767101806587 2.3999999987235410 -2.7999999986963919 -2.7639205848281487 
4000.0000000000000 2000.0000000000000 -3833.3333333330002 -39603795.317835204 -13374287.109289726 -93915691.609302491 0.00011491361347955999 0.0039928371012201980 -0.0028267677710894982 2.3999999987189322 -3.1999999989733223 -2.7639205854122433 
3000.0000000000000 2000.0000000000000 -3666.6666666669998 -38453230.318415806 -12223722.105407059 -89836415.678177133 0.00012371256396406563 0.0048068493091158442 -0.0046746563345985842 2.7999999988446556 -3.1999999990224519 -3.0992292504807000 
3000.0000000000000 3000.0000000000000 -3666.6666666669998 -38453230.316227183 -12223722.109222066 -89836415.664487466 0.00018931257188642317 0.0047206852713584093 -0.0047182987768581985 2.7999999988497843 -2.7999999987644761 -3.0992292498283049 
4000.0000000000000 3000.0000000000000 -3666.6666666669998 -38453230.313180372 -12223722.111324819 -89836415.677397653 0.00017524083436236653 0.0048406637808321128 -0.0032872028700120289 2.3999999987875538 -2.7999999987579902 -3.0992292504701990 
4000.0000000000000 2000.0000000000000 -3666.6666666669998 -38453230.315349691 -12223722.107513629 -89836415.691189215 0.00012279821272618365 0.0046305166284557877 -0.0032655601367757299 2.3999999987827505 -3.1999999990184524 -3.0992292511187252 
3000.0000000000000 2000.0000000000000 -3500.0000000000000 -37302562.329266906 -11073054.117293926 -85756774.626845345 0.00013895867101213229 0.0054325963846790625 -0.0052799118224723949 2.7999999989050397 -3.1999999990712271 -3.4196496360493289 
3000.0000000000000 3000.0000000000000 -3500.0000000000000 -37302562.327202857 -11073054.120990720 -85756774.613859236 0.00018691360795036673 0.0053477152685778521 -0.0053141326617165557 2.7999999989106374 -2.7999999988299713 -3.4196496353361292 
4000.0000000000000 3000.0000000000000 -3500.0000000000000 -37302562.324287184 -11073054.122949498 -85756774.625869915 0.00017002958912645864 0.0054782823702957516 -0.0037044529105806755 2.3999999988558085 -2.7999999988235054 -3.4196496360333839 
4000.0000000000000 2000.0000000000000 -3500.0000000000000 -37302562.326323733 -11073054.119255243 -85756774.639019728 0.00012905585608213602 0.0052591345347356138 -0.0036875648093356770 2.3999999988508267 -3.1999999990664452 -3.4196496367435634 
3000.0000000000000 2000.0000000000000 -3333.3333333330002 -36151791.344297044 -9922283.1334221959 -81676768.408584818 0.00015174311980025972 0.0060376584990967505 -0.0058581118907761976 2.7999999989686803 -3.1999999991225607 -3.7251804088946794 
3000.0000000000000 3000.0000000000000 -3333.3333333330002 -36151791.342327684 -9922283.1369591393 -81676768.396205485 0.00018480287127473915 0.0059487079173438529 -0.0058789918430719222 2.7999999989747093 -2.7999999988990716 -3.7251804081235140 
4000.0000000000000 3000.0000000000000 -3333.3333333330002 -36151791.339583099 -9922283.1388013642 -81676768.407415777 0.00016473766053087826 0.0060905494441632867 -0.0040964749357340858 2.3999999989278713 -2.7999999988926061 -3.7251804088722240 
4000.0000000000000 2000.0000000000000 -3333.3333333330002 -36151791.341516785 -9922283.1352652386 -81676768.420015395 0.00013351423482868809 0.0058723502716182879 -0.0040865853886726316 2.3999999989227434 -3.1999999991171149 -3.7251804096416556 
3000.0000000000000 2000.0000000000000 -3166.6666666669998 -35000917.354271255 -8771409.1445488110 -77596396.990636602 0.00016186914179764354 0.0066165945487741086 -0.0064031365945511152 2.7999999990354354 -3.1999999991763755 -4.0158202362520248 
3000.0000000000000 3000.0000000000000 -3166.6666666669998 -35000917.352370858 -8771409.1478868090 -77596396.978782862 0.00018230458231127764 0.0065163344108810431 -0.0064070032374692930 2.7999999990418303 -2.7999999989715545 -4.0158202354254007 
4000.0000000000000 3000.0000000000000 -3166.6666666669998 -35000917.349833526 -8771409.1496360321 -77596396.989276916 0.00015892860443521311 0.0066703834459652354 -0.0044576320800661434 2.3999999990034251 -2.7999999989650997 -4.0158202362220186 
4000.0000000000000 2000.0000000000000 -3166.6666666669998 -35000917.351690568 -8771409.1462969501 -77596397.001400858 0.00013607008037520483 0.0064640738666140556 -0.0044568346957468063 2.3999999989982039 -3.1999999991703945 -4.0158202370486000 
3000.0000000000000 2000.0000000000000 -3000.0000000000000 -33849940.349950030 -7620432.1414272683 -73515660.340224594 0.00016922079763390495 0.0071640547013878510 -0.0069091770721024836 2.7999999991052715 -3.1999999992327024 -4.2915677852422460 
3000.0000000000000 3000.0000000000000 -3000.0000000000000 -33849940.348096460 -7620432.1445283201 -73515660.328829870 0.00017881445595249290 0.0070437335879156614 -0.0068927751122260647 2.7999999991119471 -2.7999999990473223 -4.2915677843624032 
4000.0000000000000 3000.0000000000000 -3000.0000000000000 -33849940.345799960 -7620432.1462047845 -73515660.338677868 0.00015221558366960934 0.0072109747584655440 -0.0047826983655219722 2.3999999990822576 -2.7999999990409199 -4.2915677852036787 
4000.0000000000000 2000.0000000000000 -3000.0000000000000 -33849940.347603470 -7620432.1431008186 -73515660.350385129 0.00013666943255721036 0.0070282478955155962 -0.0047928281852818331 2.3999999990770067 -3.1999999992263142 -4.2915677860855252 
3000.0000000000000 2000.0000000000000 -2833.3333333330002 -32698860.322099596 -6469352.1148177562 -69434558.424592152 0.00017372131279813640 0.0076746079205380433 -0.0073705397068167221 2.7999999991782598 -3.1999999992916695 -4.5524217228613670 
3000.0000000000000 3000.0000000000000 -2833.3333333330002 -32698860.320273779 -6469352.1176436972 -69434558.413603604 0.00017380679022543244 0.0075242818868585396 -0.0073311280274992096 2.7999999991851130 -2.7999999991263915 -4.5524217219303376 
4000.0000000000000 3000.0000000000000 -2833.3333333330002 -32698860.318250112 -6469352.1192647871 -69434558.422862768 0.00014427299738056383 0.0077055763893231080 -0.0050667761087426870 2.3999999991642458 -2.7999999991201028 -4.5524217228132615 
4000.0000000000000 2000.0000000000000 -2833.3333333330002 -32698860.320020527 -6469352.1164343907 -69434558.434198171 0.00013528452674555657 0.0075587312444832409 -0.0050893425244650731 2.3999999991590379 -3.1999999992850019 -4.5524217237486431 
3000.0000000000000 2000.0000000000000 -2666.6666666669998 -31547677.261486836 -5318169.0554819060 -65353091.210983865 0.00017530554906811536 0.0081424583624544172 -0.0077814296755288363 2.7999999992545557 -3.1999999993534898 -4.7983807159861920 
3000.0000000000000 3000.0000000000000 -2666.6666666669998 -31547677.259672321 -5318169.0579932742 -65353091.200361818 0.00016683341444338967 0.0079514246196191740 -0.0077168828905903528 2.7999999992614706 -2.7999999992088793 -4.7983807150058668 
4000.0000000000000 3000.0000000000000 -2666.6666666669998 -31547677.257952705 -5318169.0595739018 -65353091.209077463 0.00013483845975543202 0.0081473673627289085 -0.0053052091140740869 2.3999999992493461 -2.7999999992027869 -4.7983807159276148 
4000.0000000000000 2000.0000000000000 -2666.6666666669998 -31547677.259708114 -5318169.0570569420 -65353091.220072232 0.00013189974143097032 0.0080490392375596014 -0.0053413541205729028 2.3999999992442618 -3.1999999993466726 -4.7983807169148838 
3000.0000000000000 2000.0000000000000 -2500.0000000000000 -30396391.158874050 -4166882.9541773456 -61271258.666626990 0.00017390628535371634 0.0085613210010109901 -0.0081357390097703888 2.7999999993343936 -3.1999999994184618 -5.0294434313783318 
3000.0000000000000 3000.0000000000000 -2500.0000000000000 -30396391.157056555 -4166882.9563322836 -61271258.656344071 0.00015751425381430273 0.0083185356001948402 -0.0080446096440474693 2.7999999993412459 -2.7999999992949984 -5.0294434303505113 
4000.0000000000000 3000.0000000000000 -2500.0000000000000 -30396391.155672096 -4166882.9578852132 -61271258.664550647 0.00012370053887337181 0.0085293603372716114 -0.0054935488547348029 2.3999999993375876 -2.7999999992892017 -5.0294434313084011 
4000.0000000000000 2000.0000000000000 -2500.0000000000000 -30396391.157428600 -4166882.9557240694 -61271258.675223500 0.00012650369026891476 0.0084922254408589595 -0.0055439837097415942 2.3999999993327106 -3.1999999994116228 -5.0294434323459347 
3000.0000000000000 2000.0000000000000 -2333.3333333330002 -29245002.005029246 -3015493.8016678053 -57189060.758767486 0.00016944722620364927 0.0089242330726376842 -0.0084270324183819724 2.7999999994180857 -3.1999999994869635 -5.2456085356753528 
3000.0000000000000 3000.0000000000000 -2333.3333333330002 -29245002.003196403 -3015493.8034211202 -57189060.748808548 0.00014553362540733360 0.0086187130375018767 -0.0083085959671032102 2.7999999994247382 -2.7999999993850446 -5.2456085346018080 
4000.0000000000000 3000.0000000000000 -2333.3333333330002 -29245002.002178598 -3015493.8049572310 -57189060.756530650 0.00011069307741886115 0.0088441866123126125 -0.0056275602701319578 2.3999999994290557 -2.7999999993796538 -5.2456085355932487 
4000.0000000000000 2000.0000000000000 -2333.3333333330002 -29245002.003950566 -3015493.8031977173 -57189060.766887978 0.00011907514189256445 0.0088806645721886297 -0.0056925668828745118 2.3999999994244767 -3.1999999994802319 -5.2456085366793870 
3000.0000000000000 2000.0000000000000 -2166.6666666669998 -28093509.790721182 -1864001.5887179291 -53106497.454652153 0.00016182277021522783 0.0092232883440332529 -0.0086483446869522786 2.7999999995060070 -3.1999999995594566 -5.4468746953956071 
3000.0000000000000 3000.0000000000000 -2166.6666666669998 -28093509.788862266 -1864001.5900201602 -53106497.445014141 0.00013063007375750118 0.0088446180297984834 -0.0085026669826291958 2.7999999995123166 -2.7999999994793972 -5.4468746942781419 
4000.0000000000000 3000.0000000000000 -2166.6666666669998 -28093509.788243394 -1864001.5915486515 -53106497.452267379 9.5697837923934952e-05 0.0090839600889404005 -0.0057031830870042082 2.3999999995238959 -2.7999999994745326 -5.4468746953005924 
4000.0000000000000 2000.0000000000000 -2166.6666666669998 -28093509.790043619 -1864001.5902408941 -53106497.462303318 0.00010958540132510787 0.0092057692171283387 -0.0057826002018494692 2.3999999995197068 -3.1999999995529618 -5.4468746964335750 
3000.0000000000000 2000.0000000000000 -2000.0000000000000 -26941914.506714292 -712406.30608795548 -49023568.721510075 0.00015089074776828050 0.0094495261508492044 -0.0087920901772077058 2.7999999995986036 -3.1999999996364816 -5.6332405769414482 
3000.0000000000000 3000.0000000000000 -2000.0000000000000 -26941914.504819896 -712406.30688434769 -49023568.712201744 0.00011258819560916146 0.0089884179939924702 -0.0086200334854948223 2.7999999996044171 -2.7999999995785112 -5.6332405757819535 
4000.0000000000000 3000.0000000000000 -2000.0000000000000 -26941914.504633412 -712406.30841297039 -49023568.718993753 7.8637684847248992e-05 0.0092402928359366782 -0.0057165706510223530 2.3999999996222994 -2.7999999995742995 -5.6332405768328888 
4000.0000000000000 2000.0000000000000 -2000.0000000000000 -26941914.506473415 -712406.30761245859 -49023568.728690609 9.7993908185579009e-05 0.0094579208583310814 -0.0058097923061541708 2.3999999996185934 -3.1999999996303568 -5.6332405780107973 
3000.0000000000000 2000.0000000000000 -1833.3333333329999 -25790216.143779125 439292.05545615032 -44940274.526588909 0.00013648335608164181 0.0095927386629798064 -0.0088499841501487736 2.7999999996963818 -3.1999999997186634 -5.8047048465919993 
3000.0000000000000 3000.0000000000000 -1833.3333333329999 -25790216.141840927 439292.05522662692 -44940274.517630942 9.1243027824390179e-05 0.0090416808559517833 -0.0086532538052559518 2.7999999997015426 -2.7999999996829201 -5.8047048453925134 
4000.0000000000000 3000.0000000000000 -1833.3333333329999 -25790216.142121751 439292.05369132396 -44940274.523962483 5.9469843024966928e-05 0.0093041690068392992 -0.0056641050136958405 2.3999999997244981 -2.7999999996794886 -5.8047048464693907 
4000.0000000000000 2000.0000000000000 -1833.3333333329999 -25790216.144011948 439292.05392279732 -44940274.533290595 8.4243237805889780e-05 0.0096262556178447999 -0.0057700810271174800 2.3999999997213703 -3.1999999997130466 -5.8047048476900818 
3000.0000000000000 2000.0000000000000 -1666.6666666670001 -24638414.692687321 1591093.5051479607 -40856614.837136589 0.00011840561094801100 0.0096411760060101815 -0.0088129417191852334 2.7999999997999163 -3.1999999998067179 -5.9612661705071588 
3000.0000000000000 3000.0000000000000 -1666.6666666670001 -24638414.690697927 1591093.5055536327 -40856614.828561813 6.6466435841236105e-05 0.0089951742759244221 -0.0085940923308240359 2.7999999998042586 -2.7999999997932257 -5.9612661692699342 
4000.0000000000000 3000.0000000000000 -1666.6666666670001 -24638414.691482641 1591093.5040061572 -40856614.834427491 3.8185613012146884e-05 0.0092657751972944520 -0.0055424240513128713 2.3999999998307615 -2.7999999997907064 -5.9612661703701679 
4000.0000000000000 2000.0000000000000 -1666.6666666670001 -24638414.693432573 1591093.5035994439 -40856614.843345180 6.8272431585409947e-05 0.0096983401489808985 -0.0056596809050691874 2.3999999998283088 -3.1999999998017525 -5.9612661716312161 
5000.0000000000000 8000.0000000000000 -4833.3333333330002 -46505023.110628583 -20275514.929090012 -118383681.05093439 0.00015550992738839719 -0.00022513673688489470 -8.5112687618951003e-05 1.9999999985894339 -0.79999999931791943 -0.43948932196114898 
5000.0000000000000 9000.0000000000000 -4833.3333333330002 -46505023.109530896 -20275514.927978247 -118383681.04672743 0.00010005484175392060 -0.00013386554174356181 -8.2870700758133796e-05 1.9999999985941488 -0.39999999966010330 -0.43948932194609791 
6000.0000000000000 8000.0000000000000 -4833.3333333330002 -46505023.110706545 -20275514.932717092 -118383681.06736124 9.1512691524632764e-05 -0.00021979465977310108 0.00011098014955546541 1.5999999987821065 -0.79999999931392174 -0.43948932203152197 
5000.0000000000000 8000.0000000000000 -5000.0000000000000 -47079971.016695417 -20850462.835208248 -120422132.71786743 0.00015686056655159873 -0.00011584004882272637 -3.5368355393730298e-05 1.9999999985830295 -0.79999999931485988 0.0000000000000000 
5000.0000000000000 9000.0000000000000 -5000.0000000000000 -47079971.015537985 -20850462.834036987 -120422132.71344279 0.00010129682637723452 -6.8561141376902992e-05 -3.4373036137562416e-05 1.9999999985878141 -0.39999999965856731 0.0000000000000000 
6000.0000000000000 8000.0000000000000 -5000.0000000000000 -47079971.016954109 -20850462.839042462 -120422132.73506498 9.1336996409837839e-05 -0.00011301565911746497 6.2275657019979325e-05 1.5999999987764215 -0.79999999931078258 0.0000000000000000 
5000.0000000000000 8000.0000000000000 -4666.6666666669998 -45355075.835182384 -19125567.653493829 -114306595.25626171 0.00015175189561702471 -0.00043128688137671057 -0.00020904157043267633 1.9999999986077250 -0.79999999932680388 -0.86409968901774981 
5000.0000000000000 9000.0000000000000 -4666.6666666669998 -45355075.834200658 -19125567.652497150 -114306595.25248379 9.6605954443893698e-05 -0.00025820840409950305 -0.00020399987932269575 1.9999999986122536 -0.39999999966456562 -0.86409968898905931 
6000.0000000000000 8000.0000000000000 -4666.6666666669998 -45355075.834943198 -19125567.656728845 -114306595.27119732 9.2024738562757256e-05 -0.00042158075860569563 0.00018414504170849292 1.5999999987984355 -0.79999999932298804 -0.86409968915238167 
5000.0000000000000 8000.0000000000000 -4500.0000000000000 -44205025.628492594 -17975517.446564663 -110229144.52359627 0.00014618927230158974 -0.00061378643921667275 -0.00037436208422818285 1.9999999986362051 -0.79999999934093069 -1.2738297693671150 
5000.0000000000000 9000.0000000000000 -4500.0000000000000 -44205025.627619714 -17975517.445674874 -110229144.52023374 9.1544297309338813e-05 -0.00037052247172821636 -0.00036613635461211531 1.9999999986404728 -0.39999999967166744 -1.2738297693262017 
6000.0000000000000 8000.0000000000000 -4500.0000000000000 -44205025.628017053 -17975517.449449118 -110229144.53713931 9.2771984780221274e-05 -0.00060109545565424974 0.00021426352247746772 1.5999999988240363 -0.79999999933731880 -1.2738297695601777 
5000.0000000000000 8000.0000000000000 -4333.3333333330002 -43054872.481327765 -16825364.299080327 -106151328.82019794 0.00013934913237213751 -0.00077508560768408362 -0.00056779310734792821 1.9999999986734429 -0.79999999935973354 -1.6686782310793422 
5000.0000000000000 9000.0000000000000 -4333.3333333330002 -43054872.480556697 -16825364.298288777 -106151328.81723578 8.5430989756177123e-05 -0.00047181748601037515 -0.00055638569633795069 1.9999999986774062 -0.39999999968112881 -1.6686782310276134 
6000.0000000000000 8000.0000000000000 -4333.3333333330002 -43054872.480682552 -16825364.301650409 -106151328.83244304 9.3533422270998334e-05 -0.00076072114737637392 0.00021151413684539634 1.5999999988576870 -0.79999999935631660 -1.6686782313253159 
5000.0000000000000 8000.0000000000000 -4166.6666666669998 -41904616.384457141 -15675108.201818129 -102073148.11332785 0.00013160624277902346 -0.00091755491088950640 -0.00077889799189338705 1.9999999987182302 -0.79999999938267252 -2.0486437421053463 
5000.0000000000000 9000.0000000000000 -4166.6666666669998 -41904616.383781224 -15675108.201116065 -102073148.11074972 7.8693134262275587e-05 -0.00056309265595795642 -0.00076455246832636287 1.9999999987218648 -0.39999999969268063 -2.0486437420441876 
6000.0000000000000 8000.0000000000000 -4166.6666666669998 -41904616.383697823 -15675108.204105617 -102073148.12436484 9.4045571716794740e-05 -0.00090258527678400210 0.00018471409597326318 1.5999999988983036 -0.79999999937943411 -2.0486437423990265 
5000.0000000000000 8000.0000000000000 -4000.0000000000000 -40754257.328645103 -14524749.145549502 -97994602.370229498 0.00012323159157933187 -0.0010434323383231078 -0.00099922318242152909 1.9999999987695423 -0.79999999940923883 -2.4137249702833086 
5000.0000000000000 9000.0000000000000 -4000.0000000000000 -40754257.328058071 -14524749.144928377 -97994602.368017986 7.1646101328286729e-05 -0.00064529437773153120 -0.00098231598822075272 1.9999999987728379 -0.39999999970606670 -2.4137249702140688 
6000.0000000000000 8000.0000000000000 -4000.0000000000000 -40754257.327818602 -14524749.147582619 -97994602.380143180 9.4075138026679031e-05 -0.0010286455453050293 0.00014141652803814850 1.5999999989449289 -0.79999999940616451 -2.4137249706198030 
5000.0000000000000 8000.0000000000000 -3833.3333333330002 -39603795.304661378 -13374287.121050358 -93915691.558165371 0.00011442931544907432 -0.0011547764647053291 -0.0012216191949333830 1.9999999988265063 -0.79999999943895694 -2.7639205833250173 
5000.0000000000000 9000.0000000000000 -3833.3333333330002 -39603795.304157384 -13374287.120502051 -93915691.556301966 6.4516876691118915e-05 -0.00071928477465631137 -0.0012025964873465876 1.9999999988294643 -0.39999999972104522 -2.7639205832489968 
6000.0000000000000 8000.0000000000000 -3833.3333333330002 -39603795.303807773 -13374287.122854389 -93915691.567035481 9.3444827484740649e-05 -0.0011407001657005647 8.8084511393009027e-05 1.5999999989967189 -0.79999999943603750 -2.7639205836997363 
5000.0000000000000 8000.0000000000000 -3666.6666666669998 -38453230.303275943 -12223722.119095914 -89836415.644398391 0.00010535564857393789 -0.0012534275246572240 -0.0014398489578649853 1.9999999988883841 -0.79999999947138378 -3.0992292488230868 
5000.0000000000000 9000.0000000000000 -3666.6666666669998 -38453230.302849472 -12223722.118612947 -89836415.642863721 5.7463944033794566e-05 -0.00078582723170456353 -0.0014191671626786672 1.9999999988910100 -0.39999999973738820 -3.0992292487415329 
6000.0000000000000 8000.0000000000000 -3666.6666666669998 -38453230.302429803 -12223722.120693669 -89836415.652299672 9.2035729162392530e-05 -0.0012403899379899420 3.0236639261531920e-05 1.5999999990529337 -0.79999999946861700 -3.0992292492317395 
5000.0000000000000 8000.0000000000000 -3500.0000000000000 -37302562.315253899 -11073054.130455544 -85756774.596173301 9.6127360000016013e-05 -0.0013410040315115640 -0.0016484233714021566 1.9999999989545503 -0.79999999950611000 -3.4196496342566109 
5000.0000000000000 9000.0000000000000 -3500.0000000000000 -37302562.314899795 -11073054.130031284 -85756774.594947264 5.0594041657730505e-05 -0.00084557251318103440 -0.0016265324436265263 1.9999999989568560 -0.39999999975488310 -3.4196496341707023 
6000.0000000000000 8000.0000000000000 -3500.0000000000000 -37302562.314445138 -11073054.131867716 -85756774.603175804 8.9778091285006890e-05 -0.0013291771187558426 -2.7473610844695368e-05 1.5999999991129261 -0.79999999950349787 -3.4196496346951828 
5000.0000000000000 8000.0000000000000 -3333.3333333330002 -36151791.331365854 -9922283.1459031571 -81676768.380753383 8.6830951231323710e-05 -0.0014188708052905233 -0.0018424262771477120 1.9999999990244819 -0.79999999954275591 -3.7251804069790913 
5000.0000000000000 9000.0000000000000 -3333.3333333330002 -36151791.331079207 -9922283.1455319580 -81676768.379815191 4.3976453560137934e-05 -0.00089904987929134402 -0.0018197456300066274 1.9999999990264801 -0.39999999977333106 -3.7251804068899341 
6000.0000000000000 8000.0000000000000 -3333.3333333330002 -36151791.330620356 -9922283.1471485849 -81676768.386922777 8.6641486623966152e-05 -0.0014083161151928990 -8.1170306416646326e-05 1.5999999991761311 -0.79999999954030521 -3.7251804074438404 
5000.0000000000000 8000.0000000000000 -3166.6666666669998 -35000917.342382833 -8771409.1562120561 -77596396.965401918 7.7526908751766630e-05 -0.0014881286902811335 -0.0020174239575110730 1.9999999990977442 -0.79999999958097145 -4.0158202342248712 
5000.0000000000000 9000.0000000000000 -3166.6666666669998 -35000917.342158936 -8771409.1558893844 -77596396.964730144 3.7648989000627626e-05 -0.00094665960864621424 -0.0019943422541552490 1.9999999990994490 -0.39999999979254680 -4.0158202341334990 
6000.0000000000000 8000.0000000000000 -3166.6666666669998 -35000917.341722697 -8771409.1573078819 -77596396.970799699 8.2625304204685411e-05 -0.0014788489097412008 -0.00012764427567553681 1.5999999992420593 -0.79999999957869161 -4.0158202347123142 
5000.0000000000000 8000.0000000000000 -3000.0000000000000 -33849940.339071088 -7620432.1521498170 -73515660.317363858 6.8253602459566066e-05 -0.0015495833328454151 -0.0021694793339244699 1.9999999991739832 -0.79999999962043389 -4.2915677831139725 
5000.0000000000000 9000.0000000000000 -3000.0000000000000 -33849940.338905521 -7620432.1518724253 -73515660.316936642 3.1624611228311374e-05 -0.00098865970262135392 -0.0021463427053420420 1.9999999991754094 -0.39999999981235762 -4.2915677830213292 
6000.0000000000000 8000.0000000000000 -3000.0000000000000 -33849940.338514909 -7620432.1531116907 -73515660.322047919 7.7748768897910160e-05 -0.0015415436779691923 -0.00016434031876389992 1.5999999993102867 -0.79999999961833690 -4.2915677836208639 
5000.0000000000000 8000.0000000000000 -2833.3333333330002 -32698860.312202491 -6469352.1244886853 -69434558.403902382 5.9030142667732821e-05 -0.0016037433346108346 -0.0022951789399822918 1.9999999992529143 -0.79999999966084434 -4.5524217206416244 
5000.0000000000000 9000.0000000000000 -2833.3333333330002 -32698860.312091008 -6469352.1242547054 -69434558.403697357 2.5900046669134848e-05 -0.0010251665518751867 -0.0022722855556564794 1.9999999992540762 -0.39999999983260270 -4.5524217205485691 
6000.0000000000000 8000.0000000000000 -2833.3333333330002 -32698860.311765403 -6469352.1253308402 -69434558.407927394 7.2042568290745827e-05 -0.0015968939137691509 -0.00018936361603583488 1.5999999993804488 -0.79999999965894364 -4.5524217211649614 
5000.0000000000000 8000.0000000000000 -2666.6666666669998 -31547677.252549339 -5318169.0640004305 -65353091.192280523 4.9856286375011512e-05 -0.0016507905368882260 -0.0023915562510735708 1.9999999993343176 -0.79999999970192737 -4.7983807136839047 
5000.0000000000000 9000.0000000000000 -2666.6666666669998 -31547677.252487883 -5318169.0638094582 -65353091.192274868 2.0458391982202878e-05 -0.0010561328787777598 -0.0023691893740962998 1.9999999993352289 -0.39999999985313112 -4.7983807135912064 
6000.0000000000000 8000.0000000000000 -2666.6666666669998 -31547677.252243005 -5318169.0647357879 -65353091.195698254 6.5542527711125452e-05 -0.0016450831941751613 -0.00020139418467222687 1.5999999994522314 -0.79999999970023694 -4.7983807142209054 
5000.0000000000000 8000.0000000000000 -2500.0000000000000 -30396391.150879107 -4166882.9614511593 -61271258.649742559 4.0715839283455687e-05 -0.0016905543389105400 -0.0024561671189145397 1.9999999994180266 -0.79999999974342662 -5.0294434290017600 
5000.0000000000000 9000.0000000000000 -2500.0000000000000 -30396391.150863875 -4166882.9613043997 -61271258.649913177 1.5271643876420131e-05 -0.0010813454774990662 -0.0024345761588314184 1.9999999994186983 -0.39999999987380136 -5.0294434289100911 
6000.0000000000000 8000.0000000000000 -2500.0000000000000 -30396391.150711700 -4166882.9620914585 -61271258.652602524 5.8285789900930813e-05 -0.0016859572133900705 -0.00019971823972847496 1.5999999995253664 -0.79999999974196090 -5.0294434295498691 
5000.0000000000000 8000.0000000000000 -2333.3333333330002 -29245001.997964874 -3015493.8076118436 -57189060.743551016 3.1579342698022707e-05 -0.0017225151553935658 -0.0024871438011420375 1.9999999995039237 -0.79999999978510250 -5.2456085332321516 
5000.0000000000000 9000.0000000000000 -2333.3333333330002 -29245001.997992292 -3015493.8075121893 -57189060.743874580 1.0300851854137296e-05 -0.0011004243912762261 -0.0024665395025274999 1.9999999995043660 -0.39999999989447993 -5.2456085331420859 
6000.0000000000000 8000.0000000000000 -2333.3333333330002 -29245001.997941002 -3015493.8081676941 -57189060.745900832 5.0310832373224862e-05 -0.0017190165968912206 -0.00018424800915114336 1.5999999995996250 -0.79999999978387626 -5.2456085337890270 
5000.0000000000000 8000.0000000000000 -2166.6666666669998 -28093509.784580112 -1864001.5932531476 -53106497.440968201 2.2406739597489774e-05 -0.0017457742149513374 -0.0024831688143784332 1.9999999995919302 -0.79999999982672876 -5.4468746928928846 
5000.0000000000000 9000.0000000000000 -2166.6666666669998 -28093509.784646865 -1864001.5932052664 -53106497.441421181 5.4987955642682081e-06 -0.0011128053399512749 -0.0024637482581934696 1.9999999995921505 -0.39999999991503937 -5.4468746928048963 
6000.0000000000000 8000.0000000000000 -2166.6666666669998 -28093509.784700729 -1864001.5937341221 -53106497.442854092 4.1656639472260343e-05 -0.0017433758064467216 -0.00015548230508855568 1.5999999996748100 -0.79999999982575631 -5.4468746934564045 
5000.0000000000000 8000.0000000000000 -2000.0000000000000 -26941914.501493454 -712406.30914025882 -49023568.709237553 1.3149842832919004e-05 -0.0017590493249313942 -0.0024435389268765016 1.9999999996820017 -0.79999999986808956 -5.6332405743858285 
5000.0000000000000 9000.0000000000000 -2000.0000000000000 -26941914.501596443 -712406.30915064376 -49023568.709796213 8.1378690407456926e-07 -0.0011177404350891456 -0.0024254780321442066 1.9999999996820057 -0.39999999993535656 -5.6332405743002818 
6000.0000000000000 8000.0000000000000 -2000.0000000000000 -26941914.501755681 -712406.30955495790 -49023568.710704781 3.2364233281388493e-05 -0.0017577658686724067 -0.00011451288358079256 1.5999999997507504 -0.79999999986738546 -5.6332405749540859 
5000.0000000000000 8000.0000000000000 -1833.3333333329999 -25790216.139479138 439292.05395654333 -44940274.515620917 3.7550289701455079e-06 -0.0017606466346689114 -0.0023682071144218845 1.9999999997741200 -0.79999999990897641 -5.8047048439896622 
5000.0000000000000 9000.0000000000000 -1833.3333333329999 -25790216.139615532 439292.05387949478 -44940274.516261362 -3.8115614764817225e-06 -0.0011142823848960682 -0.0023516479674477132 1.9999999997739104 -0.39999999995531205 -5.8047048439068263 
6000.0000000000000 8000.0000000000000 -1833.3333333329999 -25790216.139876112 439292.05360044923 -44940274.516714133 2.2478556882788120e-05 -0.0017605047774789254 -6.3057159471556081e-05 1.5999999998272967 -0.79999999990855397 -5.8047048445609768 
5000.0000000000000 8000.0000000000000 -1666.6666666670001 -24638414.689311683 1591093.5052671470 -40856614.827379614 -5.8346007347732228e-06 -0.0017484631418710750 -0.0022578409014630541 1.9999999998682869 -0.79999999994918269 -5.9612661678639176 
5000.0000000000000 9000.0000000000000 -1666.6666666670001 -24638414.689478979 1591093.5051130042 -40856614.828078106 -8.4374123489196349e-06 -0.0011012814532324340 -0.0022429299000890214 1.9999999998678641 -0.39999999997478725 -5.9612661677839469 
6000.0000000000000 8000.0000000000000 -1666.6666666670001 -24638414.689832442 1591093.5049628126 -40856614.828143418 1.2049172118213112e-05 -0.0017494884544250475 -3.4580744932028183e-06 1.5999999999043146 -0.79999999994905502 -5.9612661684368300 
8000.0000000000000 1000.0000000000000 -4833.3333333330002 -46505023.138765775 -20275514.932013039 -118383681.20912212 -0.00015947709992591833 0.00032245398377479871 9.2560964225790054e-05 0.79999999930594512 -3.5999999993211169 -0.43948932263196927 
8000.0000000000000 0.0000000000000000 -4833.3333333330002 -46505023.139879242 -20275514.931099601 -118383681.21543215 -0.00013520018100982115 0.00018494433966271664 0.00013536697360005365 0.79999999931285604 -4.0000000000000000 -0.43948932266187019 
7000.0000000000000 1.0774409110000000e-29 -4833.3333333330002 -46505023.138906188 -20275514.928780127 -118383681.20642282 2.7884727311406169e-05 0.00022468209889334894 0.00021783653135728592 1.1999999990212331 -4.0000000000000000 -0.43948932262637713 
7000.0000000000000 1000.0000000000000 -4833.3333333330002 -46505023.137817383 -20275514.929724935 -118383681.19967051 5.6644373699842435e-05 0.00036473497331534815 0.00021863001811006007 1.1999999990221129 -3.5999999993145231 -0.43948932258841816 
8000.0000000000000 1000.0000000000000 -5000.0000000000000 -47079971.046696343 -20850462.839890983 -120422132.88293549 -0.00016800007735615828 0.00015557655138972383 5.1517897716143557e-05 0.79999999930179932 -3.5999999993179270 0.0000000000000000 
8000.0000000000000 0.0000000000000000 -5000.0000000000000 -47079971.047899187 -20850462.839057487 -120422132.88958254 -0.00014269496111404307 8.9431238235999265e-05 7.3077705038327692e-05 0.79999999930918542 -4.0000000000000000 0.0000000000000000 
7000.0000000000000 0.0000000000000000 -5000.0000000000000 -47079971.046793386 -20850462.836578332 -120422132.88001749 2.8195532859904405e-05 0.00010979023055469722 0.00011338893334582321 1.1999999990167889 -4.0000000000000000 0.0000000000000000 
7000.0000000000000 1000.0000000000000 -5000.0000000000000 -47079971.045606025 -20850462.837434456 -120422132.87286681 5.7207098649772226e-05 0.00017694433217702959 0.00011379492422176916 1.1999999990176820 -3.5999999993108549 0.0000000000000000 
8000.0000000000000 1000.0000000000000 -4666.6666666669998 -45355075.859817542 -19125567.653210197 -114306595.40123114 -0.00013724623422271850 0.00067474921773281007 0.00015793731726416094 0.79999999931745969 -3.5999999993299450 -0.86409969030712575 
8000.0000000000000 0.0000000000000000 -4666.6666666669998 -45355075.860773839 -19125567.652164429 -114306595.40693016 -0.00011604331937283485 0.00038576200732804876 0.00024155367952442917 0.79999999932325661 -4.0000000000000000 -0.86409969036405820 
7000.0000000000000 4.7197855770000003e-30 -4666.6666666669998 -45355075.860031113 -19125567.650145434 -114306595.39896019 2.7112858123881172e-05 0.00046158711233104682 0.00040927522189880100 1.1999999990340542 -4.0000000000000000 -0.86409969029749734 
7000.0000000000000 1000.0000000000000 -4666.6666666669998 -45355075.859110735 -19125567.651232842 -114306595.39293145 5.5237424202880992e-05 0.00075698469238075412 0.00041076946612530395 1.1999999990349044 -3.5999999993244889 -0.86409969022682342 
8000.0000000000000 1000.0000000000000 -4500.0000000000000 -44205025.650059402 -17975517.443663787 -110229144.65639265 -0.00010786492466558815 0.0010571421046486273 0.00019657400656373930 0.79999999933476029 -3.5999999993431220 -1.2738297712265554 
8000.0000000000000 0.0000000000000000 -4500.0000000000000 -44205025.650896490 -17975517.442532469 -110229144.66159534 -9.1605432953740840e-05 0.00060219799747862179 0.00031622254636851359 0.79999999933926547 -4.0000000000000000 -1.2738297713081999 
7000.0000000000000 7.0796783649999997e-30 -4500.0000000000000 -44205025.650326312 -17975517.440779123 -110229144.65453622 2.6183482465524932e-05 0.00070802632862303921 0.00056685253453886962 1.1999999990543020 -4.0000000000000000 -1.2738297712142193 
7000.0000000000000 1000.0000000000000 -4500.0000000000000 -44205025.649525784 -17975517.441951916 -110229144.64909708 5.3506366574413618e-05 0.0011743915607524405 0.00056887892547876175 1.1999999990551204 -3.5999999993390128 -1.2738297711149922 
8000.0000000000000 1000.0000000000000 -4333.3333333330002 -43054872.500226058 -16825364.294084523 -106151328.94179091 -7.6401859803978383e-05 0.0014577716404261245 0.00021898181883819919 0.79999999935670418 -3.5999999993596914 -1.6686782334638441 
8000.0000000000000 0.0000000000000000 -4333.3333333330002 -43054872.500972956 -16825364.292900577 -106151328.94659130 -6.6503799019970925e-05 0.00082767689054540267 0.00036807838940193261 0.79999999935995769 -4.0000000000000000 -1.6686782335683321 
7000.0000000000000 0.0000000000000000 -4333.3333333330002 -43054872.500537105 -16825364.291383389 -106151328.94034192 2.5291855316465595e-05 0.00095675297127487753 0.00069306422755645108 1.1999999990811399 -4.0000000000000000 -1.6686782334500123 
7000.0000000000000 1000.0000000000000 -4333.3333333330002 -43054872.499822401 -16825364.292604171 -106151328.93538103 5.1778214546671036e-05 0.0016035794198497552 0.00069545801209432178 1.1999999990819299 -3.5999999993569181 -1.6686782333254873 
8000.0000000000000 1000.0000000000000 -4166.6666666669998 -41904616.401053824 -15675108.195191883 -102073148.22461663 -4.5716480538512974e-05 0.0018682086270266755 0.00023113794795895891 0.79999999938244071 -3.5999999993789453 -2.0486437449731398 
8000.0000000000000 0.0000000000000000 -4166.6666666669998 -41904616.401732989 -15675108.193979122 -102073148.22909221 -4.3025559272757963e-05 0.0010578118612372032 0.00040282118839971329 0.79999999938457544 -4.0000000000000000 -2.0486437450989685 
7000.0000000000000 0.0000000000000000 -4166.6666666669998 -41904616.401404254 -15675108.192672860 -102073148.22357160 2.4504079961054045e-05 0.0012038843870571018 0.00079112878662130270 1.1999999991137988 -4.0000000000000000 -2.0486437449589734 
7000.0000000000000 1000.0000000000000 -4166.6666666669998 -41904616.400750846 -15675108.193916341 -102073148.21899657 5.0161322379418214e-05 0.0020359158809272323 0.00079375585930721191 1.1999999991145638 -3.5999999993773923 -2.0486437448116686 
8000.0000000000000 1000.0000000000000 -4000.0000000000000 -40754257.343275115 -14524749.137707369 -97994602.472047731 -1.7337250879619288e-05 0.0022822580564036197 0.00023637708973898213 0.79999999941131361 -3.5999999994003717 -2.4137249735956163 
8000.0000000000000 0.0000000000000000 -4000.0000000000000 -40754257.343904175 -14524749.136483628 -97994602.476262525 -2.2173066118889243e-05 0.0012895607421237088 0.00042423790269695554 0.79999999941249289 -4.0000000000000000 -2.4137249737415898 
7000.0000000000000 -6.0354824400000000e-30 -4000.0000000000000 -40754257.343661666 -14524749.135366417 -97994602.471404403 2.3821656064180502e-05 0.0014473310428893375 0.00086479302031824588 1.1999999991515613 -4.0000000000000000 -2.4137249735822732 
7000.0000000000000 1000.0000000000000 -4000.0000000000000 -40754257.343051404 -14524749.136614718 -97994602.467138484 4.8656946736290014e-05 0.0024656819719260149 0.00086755152891173281 1.1999999991523049 -3.5999999993998837 -2.4137249734141153 
8000.0000000000000 1000.0000000000000 -3833.3333333330002 -39603795.317628860 -13374287.112363728 -93915691.651285216 7.9953488044771454e-06 0.0026952106128283345 0.00023656562747012279 0.79999999944279909 -3.5999999994236052 -2.7639205870458388 
8000.0000000000000 0.0000000000000000 -3833.3333333330002 -39603795.318221837 -13374287.111142961 -93915691.655292332 -4.2668451570774152e-06 0.0015207070632116380 0.00043496311718980556 0.79999999944318623 -4.0000000000000000 -2.7639205872110115 
7000.0000000000000 -1.8821719000000001e-29 -3833.3333333330002 -39603795.318048462 -13374287.110195545 -93915691.651040792 2.3205238251155701e-05 0.0016859027741659765 0.00091805246637419516 1.1999999991937591 -4.0000000000000000 -2.7639205870344972 
7000.0000000000000 1000.0000000000000 -3833.3333333330002 -39603795.317467578 -13374287.111435311 -93915691.647020400 4.7209527115971648e-05 0.0028889416973696446 0.00092087269034365040 1.1999999991944830 -3.5999999994240151 -2.7639205868469432 
8000.0000000000000 1000.0000000000000 -3666.6666666669998 -38453230.314855382 -12223722.109898783 -89836415.729533941 3.0011800614286968e-05 0.0031033511889654833 0.00023277728997076041 0.79999999947646505 -3.5999999994483964 -3.0992292529190033 
8000.0000000000000 0.0000000000000000 -3666.6666666669998 -38453230.315423608 -12223722.108692477 -89836415.733377308 1.0737541599389828e-05 0.0017495562448323998 0.00043692575501463085 0.79999999947621003 -4.0000000000000000 -3.0992292531026382 
7000.0000000000000 -2.6904576700000000e-29 -3666.6666666669998 -38453230.315304853 -12223722.107897751 -89836415.729684129 2.2609579688231638e-05 0.0019188097851497411 0.00095490592567578042 1.1999999992397736 -4.0000000000000000 -3.0992292529108698 
7000.0000000000000 1000.0000000000000 -3666.6666666669998 -38453230.314742655 -12223722.109118320 -89836415.725856811 4.5747176804234672e-05 0.0033027672809330436 0.00095773327999635715 1.1999999992404780 -3.5999999994495502 -3.0992292527050078 
8000.0000000000000 1000.0000000000000 -3500.0000000000000 -37302562.325691432 -11073054.121049594 -85756774.673983917 4.8713342120489273e-05 0.0035035155196682737 0.00022568002173439572 0.79999999951194711 -3.5999999994745968 -3.4196496386965971 
8000.0000000000000 0.0000000000000000 -3500.0000000000000 -37302562.326244183 -11073054.119867813 -85756774.677699834 2.3060905919811473e-05 0.0019746585831538752 0.00043160412472275256 0.79999999951118028 -4.0000000000000000 -3.4196496388981235 
7000.0000000000000 0.0000000000000000 -3500.0000000000000 -37302562.326167449 -11073054.119210381 -85756774.674521998 2.1984913718310627e-05 0.0021454021516259390 0.00097918691659862811 1.1999999992890362 -4.0000000000000000 -3.4196496386929023 
7000.0000000000000 1000.0000000000000 -3500.0000000000000 -37302562.325615436 -11073054.120402543 -85756774.670844570 4.4194992399837672e-05 0.0037047942093152743 0.00098198312510116084 1.1999999992897197 -3.5999999994763496 -3.4196496384695303 
8000.0000000000000 1000.0000000000000 -3333.3333333330002 -36151791.340880640 -9922283.1365622748 -81676768.451846495 6.4251430798380074e-05 0.0038928393699684568 0.00021576664319268436 0.79999999954892931 -3.5999999995021343 -3.7251804117343381 
8000.0000000000000 0.0000000000000000 -3333.3333333330002 -36151791.341425620 -9922283.1354143973 -81676768.455464795 3.2995835201426782e-05 0.0021946737804520015 0.00042022806261043970 0.79999999954776113 -4.0000000000000000 -3.7251804119533283 
7000.0000000000000 0.0000000000000000 -3333.3333333330002 -36151791.341380022 -9922283.1348802745 -81676768.452763036 2.1279967076511730e-05 0.0023649955542879050 0.00099440565476244854 1.1999999993410300 -4.0000000000000000 -3.7251804117363347 
7000.0000000000000 1000.0000000000000 -3333.3333333330002 -36151791.340831272 -9922283.1360354275 -81676768.449200258 4.2483027727148573e-05 0.0040928729211829945 0.00099714421642431677 1.1999999993416892 -3.5999999995043619 -3.7251804114960292 
8000.0000000000000 1000.0000000000000 -3166.6666666669998 -35000917.351168305 -8771409.1471862905 -77596397.030335501 7.6852019629532485e-05 0.0042685632314959539 0.00020345304057983515 0.79999999958713441 -3.5999999995310077 -4.0158202392686242 
8000.0000000000000 0.0000000000000000 -3166.6666666669998 -35000917.351712026 -8771409.1460815873 -77596397.033880413 4.0852395574628400e-05 0.0024082853808973128 0.00040385099994835630 0.79999999958565660 -4.0000000000000000 -4.0158202395047597 
7000.0000000000000 4.6309918630000001e-29 -3166.6666666669998 -35000917.351688333 -8771409.1456580553 -77596397.031618237 2.0459032464083076e-05 0.0025767632889791181 0.0010036635860180777 1.1999999993952859 -4.0000000000000000 -4.0158202392775708 
7000.0000000000000 1000.0000000000000 -3166.6666666669998 -35000917.351137102 -8771409.1467675753 -77596397.028141692 4.0555080067249130e-05 0.0044648457042464678 0.0010063098072029093 1.1999999993959181 -3.5999999995336003 -4.0158202390207336 
8000.0000000000000 1000.0000000000000 -3000.0000000000000 -33849940.347296260 -7620432.1436689766 -73515660.376648784 8.6763230252901431e-05 0.0046278465584334658 0.00018912402374094298 0.79999999962631585 -3.5999999995612759 -4.2915677884213652 
8000.0000000000000 0.0000000000000000 -3000.0000000000000 -33849940.347844295 -7620432.1426170971 -73515660.380139515 4.6922792577540046e-05 0.0026140543171697833 0.00038338428864460378 0.79999999962460344 -4.0000000000000000 -4.2915677886744152 
7000.0000000000000 0.0000000000000000 -3000.0000000000000 -33849940.347834922 -7620432.1422924586 -73515660.378282219 1.9488783994575315e-05 0.0027796661434737998 0.0010095632121530618 1.1999999994513850 -4.0000000000000000 -4.2915677884385097 
7000.0000000000000 1000.0000000000000 -3000.0000000000000 -33849940.347276337 -7620432.1433472242 -73515660.374869481 3.8361952080268513e-05 0.0048184107950717823 0.0010120819409935456 1.1999999994519850 -3.5999999995641399 -4.2915677881654197 
8000.0000000000000 1000.0000000000000 -2833.3333333330002 -32698860.320013106 -6469352.1167655559 -69434558.458004400 9.4221511568568287e-05 0.0049676446005944806 0.00017314032456814310 0.79999999966625357 -3.5999999995930518 -4.5524217261895288 
8000.0000000000000 0.0000000000000000 -2833.3333333330002 -32698860.320570279 -6469352.1157769542 -69434558.461455673 5.1465336544609220e-05 0.0028103977207493552 0.00035961784940853413 0.79999999966436641 -4.0000000000000000 -4.5524217264593290 
7000.0000000000000 0.0000000000000000 -2833.3333333330002 -32698860.320569437 -6469352.1155404411 -69434558.459969938 1.8339117283895867e-05 0.0029724160167175387 0.0010141747650052068 1.1999999995089523 -4.0000000000000000 -4.5524217262160924 
7000.0000000000000 1000.0000000000000 -2833.3333333330002 -32698860.319999296 -6469352.1165304137 -69434558.456603900 3.5859018321383124e-05 0.0051509492788723169 0.0010165385145879150 1.1999999995095145 -3.5999999995961072 -4.5524217259269371 
8000.0000000000000 1000.0000000000000 -2666.6666666669998 -31547677.260069020 -5318169.0572337806 -65353091.241622269 9.9442589676701973e-05 0.0052845887773766958 0.00015583795825445396 0.79999999970674773 -3.5999999996265011 -4.7983807194507788 
8000.0000000000000 0.0000000000000000 -2666.6666666669998 -31547677.260639586 -5318169.0563201243 -65353091.245044611 5.4706726818407625e-05 0.0029955297962390697 0.00033323580020291514 0.79999999970473457 -4.0000000000000000 -4.7983807197372084 
7000.0000000000000 9.6621616689999997e-29 -2666.6666666669998 -31547677.260643296 -5318169.0561618367 -65353091.243898153 1.6994445537236651e-05 0.0031534056567500269 0.0010190306799197416 1.1999999995676551 -4.0000000000000000 -4.7983807194879393 
7000.0000000000000 1000.0000000000000 -2666.6666666669998 -31547677.260057900 -5318169.0570756495 -65353091.240566522 3.3016028605747176e-05 0.0054594133505886308 0.0010211974873993203 1.1999999995681738 -3.5999999996296808 -4.7983807191828456 
8000.0000000000000 1000.0000000000000 -2500.0000000000000 -30396391.158210408 -4166882.9558285517 -61271258.694705315 0.00010260539160879374 0.0055748320595346889 0.00013750966494076110 0.79999999974761848 -3.5999999996618404 -5.0294434349675017 
8000.0000000000000 0.0000000000000000 -2500.0000000000000 -30396391.158798151 -4166882.9550031209 -61271258.698105298 5.6831068092888883e-05 0.0031673334889306595 0.00030481126990285261 0.79999999974551794 -4.0000000000000000 -5.0294434352704647 
7000.0000000000000 1.0352316070000000e-28 -2500.0000000000000 -30396391.158804309 -4166882.9549138965 -61271258.697266504 1.5441959116993709e-05 0.0033206605603422847 0.0010251067527376890 1.1999999996271988 -4.0000000000000000 -5.0294434350163701 
7000.0000000000000 1000.0000000000000 -2500.0000000000000 -30396391.158200379 -4166882.9557384751 -61271258.693961523 2.9810973962518086e-05 0.0057402413755353815 0.0010270209430550887 1.1999999996276676 -3.5999999996650844 -5.0294434346954384 
8000.0000000000000 1000.0000000000000 -2333.3333333330002 -29245002.005190119 -3015493.8033121098 -57189060.784476086 0.00010384151816613024 0.0058339411182798872 0.00011836863309983825 0.79999999978870229 -3.5999999996993357 -5.2456085393779546 
8000.0000000000000 0.0000000000000000 -2333.3333333330002 -29245002.005798399 -3015493.8025901932 -57189060.787856102 5.7976249694683687e-05 0.0033233452104399286 0.00027476844149970268 0.79999999978654579 -4.0000000000000000 -5.2456085396973613 
7000.0000000000000 1.1042470480000000e-28 -2333.3333333330002 -29245002.005806863 -3015493.8025616063 -57189060.787294105 1.3667522292998094e-05 0.0034717854294057651 0.0010327953263430602 1.1999999996873223 -4.0000000000000000 -5.2456085394395568 
7000.0000000000000 1000.0000000000000 -2333.3333333330002 -29245002.005181499 -3015493.8032817948 -57189060.784012564 2.6223383271655024e-05 0.0059892270991827919 0.0010344060566927665 1.1999999996877342 -3.5999999997025935 -5.2456085391028831 
8000.0000000000000 1000.0000000000000 -2166.6666666669998 -28093509.791762196 -1864001.5904488517 -53106497.478158392 0.00010323384492685189 0.0060567632716789265 9.8549089682253128e-05 0.79999999982984993 -3.5999999997393068 -5.4468746992010972 
8000.0000000000000 0.0000000000000000 -2166.6666666669998 -28093509.792394083 -1864001.5898482748 -53106497.481516801 5.8239458240149963e-05 0.0034606336435663641 0.00024342055055451717 0.79999999982766345 -4.0000000000000000 -5.4468746995368411 
7000.0000000000000 1.0097419590000000e-28 -2166.6666666669998 -28093509.792406708 -1864001.5898725518 -53106497.481201291 1.1667365074345227e-05 0.0036038730524644868 0.0010419429350287564 1.1999999997477926 -4.0000000000000000 -5.4468746992763508 
7000.0000000000000 1000.0000000000000 -2166.6666666669998 -28093509.791757263 -1864001.5904705862 -53106497.477944233 2.2241491800952067e-05 0.0062013894401411378 0.0010431962938465445 1.1999999997481410 -3.5999999997425318 -5.4468746989240620 
8000.0000000000000 1000.0000000000000 -2000.0000000000000 -26941914.508676432 -712406.30800001638 -49023568.742958397 0.00010081357498787015 0.0062372382350525633 7.8086283755818969e-05 0.79999999987092574 -3.5999999997821250 -5.6332405808398116 
8000.0000000000000 0.0000000000000000 -2000.0000000000000 -26941914.509334724 -712406.30754166318 -49023568.746289276 5.7675174610739359e-05 0.0035756864898223517 0.00021095580501101887 0.79999999986873149 -4.0000000000000000 -5.6332405811917470 
7000.0000000000000 0.0000000000000000 -2000.0000000000000 -26941914.509355355 -712406.30761159619 -49023568.746190324 9.4463822006073621e-06 0.0037134311265627062 0.0010518301839926236 1.1999999998084012 -4.0000000000000000 -5.6332405809295043 
7000.0000000000000 1000.0000000000000 -2000.0000000000000 -26941914.508679431 -712406.30806660850 -49023568.742963240 1.7860994956742851e-05 0.0063708250508847817 0.0010526602207377887 1.1999999998086797 -3.5999999997852714 -5.6332405805617674 
8000.0000000000000 1000.0000000000000 -1833.3333333329999 -25790216.146688685 439292.05326590152 -44940274.546101488 9.6565827993740758e-05 0.0063682701634575007 5.6917954927466051e-05 0.79999999991180504 -3.5999999998282246 -5.8047048505736587 
8000.0000000000000 0.0000000000000000 -1833.3333333329999 -25790216.147375911 439292.05355751701 -44940274.549394071 5.6298933529562391e-05 0.0036643346252699352 0.00017743545507134439 0.79999999990962456 -4.0000000000000000 -5.8047048509415760 
7000.0000000000000 3.2286888359999998e-30 -1833.3333333329999 -25790216.147410400 439292.05344858533 -44940274.549482219 7.0088574367718284e-06 0.0037962600901195087 0.0010611381040779269 1.1999999998689574 -4.0000000000000000 -5.8047048506784185 
7000.0000000000000 1000.0000000000000 -1833.3333333329999 -25790216.146705858 439292.05316113023 -44940274.546295479 1.3083538204670814e-05 0.0064905658357018135 0.0010614867345075450 1.1999999998691593 -3.5999999998312484 -5.8047048502954866 
8000.0000000000000 1000.0000000000000 -1666.6666666670001 -24638414.696555428 1591093.5025783675 -40856614.854813568 9.0422353570449417e-05 0.0064414628080896128 3.4908435596327006e-05 0.79999999995237492 -3.5999999998781016 -5.9612661745629030 
8000.0000000000000 0.0000000000000000 -1666.6666666670001 -24638414.697273958 1591093.5026742988 -40856614.858052030 5.4081685932264059e-05 0.0037215711687289639 0.00014285695269375899 0.79999999995022997 -4.0000000000000000 -5.9612661749464966 
7000.0000000000000 0.0000000000000000 -1666.6666666670001 -24638414.697330087 1591093.5025325804 -40856614.858298056 4.3603103827818209e-06 0.0038472968522929329 0.0010679992375801190 1.1999999999292832 -4.0000000000000000 -5.9612661746831614 
7000.0000000000000 1000.0000000000000 -1666.6666666670001 -24638414.696594983 1591093.5024416733 -40856614.855167024 7.9142801142425964e-06 0.0065523359216671240 0.0010678143483392551 1.1999999999294024 -3.5999999998809580 -5.9612661742853996 
2000.0000000000000 1000.0000000000000 -4833.3333333330002 -46505023.141219474 -20275514.911550608 -118383681.11182076 5.0467264431362748e-05 0.00035678398439003688 -0.00046829104137825365 3.1999999988701395 -3.5999999993253522 -0.43948932222188752 
2000.0000000000000 0.0000000000000000 -4833.3333333330002 -46505023.142323658 -20275514.910600826 -118383681.11848548 2.2981364666039172e-05 0.00022014751148166954 -0.00046974351021751364 3.1999999988693637 -4.0000000000000000 -0.43948932225945631 
1000.0000000000000 0.0000000000000000 -4833.3333333330002 -46505023.144694448 -20275514.907697774 -118383681.10200818 0.00012867520502995436 0.00017799856535183621 -0.00037443531439220877 3.5999999993649459 -4.0000000000000000 -0.43948932217333364 
1000.0000000000000 1000.0000000000000 -4833.3333333330002 -46505023.143524751 -20275514.908642311 -118383681.09582531 0.00017588784950488764 0.00030951887420834818 -0.00032613277804396804 3.5999999993719820 -3.5999999993344152 -0.43948932214392628 
2000.0000000000000 1000.0000000000000 -5000.0000000000000 -47079971.048122957 -20850462.818317533 -120422132.78161322 5.0807591160940712e-05 0.00017293010418213122 -0.00022536340845589440 3.1999999988650294 -3.5999999993217000 0.0000000000000000 
2000.0000000000000 0.0000000000000000 -5000.0000000000000 -47079971.049326912 -20850462.817457382 -120422132.78868082 2.3175154695742145e-05 0.00010750033946783225 -0.00022597667419549250 3.1999999988642638 -4.0000000000000000 0.0000000000000000 
1000.0000000000000 0.0000000000000000 -5000.0000000000000 -47079971.051492639 -20850462.814319506 -120422132.77130152 0.00013566632337508493 8.5963672808051422e-05 -0.00018216193710293490 3.5999999993613825 -4.0000000000000000 0.0000000000000000 
1000.0000000000000 1000.0000000000000 -5000.0000000000000 -47079971.050234027 -20850462.815186590 -120422132.76479235 0.00018365565540529234 0.00014906161136170340 -0.00015769019019462973 3.5999999993689418 -3.5999999993312750 0.0000000000000000 
2000.0000000000000 1000.0000000000000 -4666.6666666669998 -45355075.864137270 -19125567.634862676 -114306595.31167158 4.9640351988052263e-05 0.00074127554470487605 -0.00098395105167473681 3.1999999988844148 -3.5999999993352541 -0.86409968951691507 
2000.0000000000000 -4.7197855800000003e-30 -4666.6666666669998 -45355075.865071535 -19125567.633769684 -114306595.31760804 2.2525272138407795e-05 0.00045261556499775210 -0.00098736380816953802 3.1999999988836296 -4.0000000000000000 -0.86409968958673544 
1000.0000000000000 1.1799463940000000e-30 -4666.6666666669998 -45355075.867776990 -19125567.631281536 -114306595.30278172 0.00011126244324595526 0.00037199889875553160 -0.00077378919251529232 3.5999999993745120 -4.0000000000000000 -0.86409968942428750 
1000.0000000000000 1000.0000000000000 -4666.6666666669998 -45355075.866765738 -19125567.632353839 -114306595.29718997 0.00015614490008299196 0.00064930988148302008 -0.00068027022187609493 3.5999999993803593 -3.5999999993431122 -0.86409968936837955 
2000.0000000000000 1000.0000000000000 -4500.0000000000000 -44205025.655880421 -17975517.427223265 -110229144.57399367 4.8738102212687194e-05 0.0011510130417775343 -0.0015496743645871190 3.1999999989059771 -3.5999999993496492 -1.2738297700840790 
2000.0000000000000 -7.0796783699999993e-30 -4500.0000000000000 -44205025.656694479 -17975517.426046208 -110229144.57934277 2.2079732808152037e-05 0.00069463313391866322 -0.0015553377310158563 3.1999999989051999 -4.0000000000000000 -1.2738297701819816 
1000.0000000000000 1.7699195909999999e-30 -4500.0000000000000 -44205025.659606293 -17975517.423877001 -110229144.56588286 9.0091382389202810e-05 0.00058218011643641190 -0.0011940875935748192 3.5999999993882326 -4.0000000000000000 -1.2738297699513585 
1000.0000000000000 1000.0000000000000 -4500.0000000000000 -44205025.658718966 -17975517.425030723 -110229144.56077105 0.00013122656546758649 0.0010201672176197384 -0.0010617501183610599 3.5999999993927689 -3.5999999993561085 -1.2738297698712475 
2000.0000000000000 1000.0000000000000 -4333.3333333330002 -43054872.507207237 -16825364.279355031 -106151328.86600459 4.8109423250606231e-05 0.0015724938418168377 -0.0021483098942332354 3.1999999989333556 -3.5999999993673657 -1.6686782319950650 
2000.0000000000000 0.0000000000000000 -4333.3333333330002 -43054872.507935017 -16825364.278132029 -106151328.87088075 2.1882610189804129e-05 0.00093892008809193337 -0.0021561225095651283 3.1999999989325949 -4.0000000000000000 -1.6686782321178248 
1000.0000000000000 0.0000000000000000 -4333.3333333330002 -43054872.510962173 -16825364.276208244 -106151328.85854210 6.9614555290334386e-05 0.00080227350459561989 -0.0016214183745926368 3.5999999994049139 -4.0000000000000000 -1.6686782318257025 
1000.0000000000000 1000.0000000000000 -4333.3333333330002 -43054872.510171860 -16825364.277410530 -106151328.85382065 0.00010596504365068281 0.0014105080837167468 -0.0014584371427570084 3.5999999994082512 -3.5999999993724741 -1.6686782317232107 
2000.0000000000000 1000.0000000000000 -4166.6666666669998 -41904616.408879451 -15675108.181989379 -102073148.15492648 4.7932330878592985e-05 0.0019972288452389892 -0.0027660990466567485 3.1999999989654144 -3.5999999993876028 -2.0486437432022400 
2000.0000000000000 0.0000000000000000 -4166.6666666669998 -41904616.409544706 -15675108.180745687 -102073148.15942220 2.2049572880915376e-05 0.0011816917628086026 -0.0027757673271894111 3.1999999989646652 -4.0000000000000000 -2.0486437433473754 
1000.0000000000000 0.0000000000000000 -4166.6666666669998 -41904616.412620947 -15675108.179009413 -102073148.14799449 5.1663052780309511e-05 0.0010278803968379383 -0.0020472915889520010 3.5999999994237792 -4.0000000000000000 -2.0486437429991424 
1000.0000000000000 1000.0000000000000 -4166.6666666669998 -41904616.411906376 -15675108.180236526 -102073148.14359103 8.2663764360515885e-05 0.0018118723476756105 -0.0018617955808964736 3.5999999994261076 -3.5999999993915148 -2.0486437428757269 
2000.0000000000000 1000.0000000000000 -4000.0000000000000 -40754257.351656608 -14524749.125860978 -97994602.407972082 4.8229181212140564e-05 0.0024196706423428643 -0.0033920256966762314 3.1999999990013013 -3.5999999994098180 -2.4137249715451277 
2000.0000000000000 6.0354824430000000e-30 -4000.0000000000000 -40754257.352276728 -14524749.124614285 -97994602.412163302 2.2582870378821088e-05 0.0014209640181041931 -0.0034032162794017753 3.1999999990005512 -4.0000000000000000 -2.4137249717107436 
1000.0000000000000 -1.5088706100000000e-30 -4000.0000000000000 -40754257.355352983 -14524749.123019509 -97994602.401469231 3.6783363853753411e-05 0.0012558253638446128 -0.0024664735450439026 3.5999999994443193 -4.0000000000000000 -2.4137249713106930 
1000.0000000000000 1000.0000000000000 -4000.0000000000000 -40754257.354696915 -14524749.124253612 -97994602.397323996 6.2283499017634438e-05 0.0022179239808782915 -0.0022656921887090143 3.5999999994458447 -3.5999999994127232 -2.4137249711675270 
2000.0000000000000 1000.0000000000000 -3833.3333333330002 -39603795.326304458 -13374287.101715874 -93915691.592377901 4.8914278122823071e-05 0.0028359645910008514 -0.0040172694472106699 3.1999999990403971 -3.5999999994336411 -2.7639205847367800 
2000.0000000000000 1.8821719040000001e-29 -3833.3333333330002 -39603795.326892659 -13374287.100479394 -93915691.596327379 2.3411490773812123e-05 0.0016556052110182798 -0.0040297000236849565 3.1999999990396351 -4.0000000000000000 -2.7639205849214448 
1000.0000000000000 -4.7054297600000003e-30 -3833.3333333330002 -39603795.329931729 -13374287.098989315 -93915691.586219475 2.4913793963376757e-05 0.0014836756714479856 -0.0028756441965596298 3.5999999994662062 -4.0000000000000000 -2.7639205844729653 
1000.0000000000000 1000.0000000000000 -3833.3333333330002 -39603795.329319894 -13374287.100216394 -93915691.582282424 4.5077954818420180e-05 0.0026237036540188671 -0.0026656593273645265 3.5999999994671148 -3.5999999994357248 -2.7639205843109838 
2000.0000000000000 1000.0000000000000 -3666.6666666669998 -38453230.323588639 -12223722.100304585 -89836415.675382450 4.9853804290760340e-05 0.0032432852670166304 -0.0046345822199731768 3.1999999990822738 -3.5999999994588316 -3.0992292503709997 
2000.0000000000000 2.6904576700000000e-29 -3666.6666666669998 -38453230.324155286 -12223722.099088855 -89836415.679142058 2.4429652147983835e-05 0.0018848959189771372 -0.0046480455031824904 3.1999999990814896 -4.0000000000000000 -3.0992292505736465 
1000.0000000000000 -6.7261441700000003e-30 -3666.6666666669998 -38453230.327127628 -12223722.097673599 -89836415.669498265 1.5719265206717352e-05 0.0017095401589067715 -0.0032725943566006680 3.5999999994892486 -4.0000000000000000 -3.0992292500793877 
1000.0000000000000 1000.0000000000000 -3666.6666666669998 -38453230.326548152 -12223722.098882174 -89836415.665727511 3.0924020384014799e-05 0.0030252403238969620 -0.0030583294715804473 3.5999999994896994 -3.5999999994602669 -3.0992292498993268 
2000.0000000000000 1000.0000000000000 -3500.0000000000000 -37302562.334269278 -11073054.112376165 -85756774.624207839 5.0902000620094520e-05 0.0036393184236346572 -0.0052378849081015566 3.1999999991266614 -3.5999999994852567 -3.4196496359279829 
2000.0000000000000 1.0097419590000000e-28 -3500.0000000000000 -37302562.334822685 -11073054.111190278 -85756774.627820224 2.5526323756315803e-05 0.0021081923830550660 -0.0052522756785023279 3.1999999991258488 -4.0000000000000000 -3.4196496361478332 
1000.0000000000000 0.0000000000000000 -3500.0000000000000 -37302562.337703474 -11073054.109825267 -85756774.618540347 8.7719842880536991e-06 0.0019318157122248966 -0.0036557745936196991 3.5999999995133560 -4.0000000000000000 -3.4196496356098454 
1000.0000000000000 1000.0000000000000 -3500.0000000000000 -37302562.337146364 -11073054.111005403 -85756774.614900857 1.9515305845874589e-05 0.0034191918484468599 -0.0034410581011807321 3.5999999995134755 -3.5999999994861871 -3.4196496354122816 
2000.0000000000000 1000.0000000000000 -3333.3333333330002 -36151791.349111289 -9922283.1286879666 -81676768.406096190 5.1916392003361651e-05 0.0040219351615711886 -0.0058217237858215198 3.1999999991734209 -3.5999999995128600 -3.7251804087622657 
2000.0000000000000 0.0000000000000000 -3333.3333333330002 -36151791.349658296 -9922283.1275403704 -81676768.409596086 2.6604666127100628e-05 0.0023247843730686869 -0.0058369865488699171 3.1999999991725758 -4.0000000000000000 -3.7251804089987584 
1000.0000000000000 0.0000000000000000 -3333.3333333330002 -36151791.352425195 -9922283.1262051910 -81676768.400598899 3.6370067318637394e-06 0.0021490139001130310 -0.0040237306770183629 3.5999999995385115 -4.0000000000000000 -3.7251804084186189 
1000.0000000000000 1000.0000000000000 -3333.3333333330002 -36151791.351881996 -9922283.1273477580 -81676768.397061586 1.0466598671110112e-05 0.0038025370208322438 -0.0038114889926786962 3.5999999995384013 -3.5999999995134040 -3.7251804082039937 
2000.0000000000000 1000.0000000000000 -3166.6666666669998 -35000917.358879231 -8771409.1400000993 -77596396.988291100 5.2768423833583349e-05 0.0043890182317169518 -0.0063810375952148592 3.1999999992225265 -3.5999999995416525 -4.0158202361091471 
2000.0000000000000 -4.6309918600000000e-29 -3166.6666666669998 -35000917.359425567 -8771409.1388992127 -77596396.991706476 2.7581364544214943e-05 0.0025338659579973661 -0.0063971783148559797 3.1999999992216499 -4.0000000000000000 -4.0158202363618933 
1000.0000000000000 1.1577479659999999e-29 -3166.6666666669998 -35000917.362056963 -8771409.1375766601 -77596396.982927084 -9.1979446600204909e-08 0.0023597279258178597 -0.0043749789661035052 3.5999999995647678 -4.0000000000000000 -4.0158202357408079 
1000.0000000000000 1000.0000000000000 -3166.6666666669998 -35000917.361520514 -8771409.1386727616 -77596396.979468167 3.3750930359438941e-06 0.0041724095371027487 -0.0041674004480826213 3.5999999995645027 -3.5999999995419043 -4.0158202355094561 
2000.0000000000000 1000.0000000000000 -3000.0000000000000 -33849940.354332119 -7620432.1370698316 -73515660.338018999 5.3345975331536602e-05 0.0047382561783593955 -0.0069108846627525759 3.1999999992740502 -3.5999999995717076 -4.2915677850895380 
2000.0000000000000 0.0000000000000000 -3000.0000000000000 -33849940.354882739 -7620432.1360245682 -73515660.341372013 2.8384212920351812e-05 0.0027343816514741092 -0.0069279618745173889 3.1999999992731456 -4.0000000000000000 -4.2915677853582732 
1000.0000000000000 0.0000000000000000 -3000.0000000000000 -33849940.357356362 -7620432.1347000124 -73515660.332760081 -2.7657708595755988e-06 0.0025624891175235602 -0.0047078776333076269 3.5999999995922272 -4.0000000000000000 -4.2915677846971647 
1000.0000000000000 1000.0000000000000 -3000.0000000000000 -33849940.356820464 -7620432.1357404226 -73515660.329360351 -2.1372307553548462e-06 0.0045259253750450489 -0.0045065468441914764 3.5999999995918595 -3.5999999995717369 -4.2915677844493345 
2000.0000000000000 1000.0000000000000 -2833.3333333330002 -32698860.326233827 -6469352.1106617209 -69434558.422525734 5.3544944759425241e-05 0.0050670664952428418 -0.0074061439383218608 3.1999999993281518 -3.5999999996031486 -4.5524217226994930 
2000.0000000000000 0.0000000000000000 -2833.3333333330002 -32698860.326793075 -6469352.1096819071 -69434558.425833330 2.8953419060906702e-05 0.0029250539334134519 -0.0074242225652029030 3.1999999993272255 -4.0000000000000000 -4.5524217229840414 
1000.0000000000000 0.0000000000000000 -2833.3333333330002 -32698860.329084918 -6469352.1083428059 -69434558.417351708 -4.6806346375971615e-06 0.0027557489323731190 -0.0050203238707389177 3.5999999996210397 -4.0000000000000000 -4.5524217222836336 
1000.0000000000000 1000.0000000000000 -2833.3333333330002 -32698860.328544177 -6469352.1093175458 -69434558.413996175 -6.4144208230175799e-06 0.0048600680420471803 -0.0048263733630069111 3.5999999996206076 -3.5999999996030079 -4.5524217220195089 
2000.0000000000000 1000.0000000000000 -2666.6666666669998 -31547677.265348006 -5318169.0515422607 -65353091.209058031 5.3263945050620132e-05 0.0053724437289552141 -0.0078613581899874500 3.1999999993850703 -3.5999999996361467 -4.7983807158158536 
2000.0000000000000 -9.6621616699999999e-29 -2666.6666666669998 -31547677.265919704 -5318169.0506389905 -65353091.212332353 2.9233606451229607e-05 0.0031042947142397950 -0.0078805157424422911 3.1999999993841302 -4.0000000000000000 -4.7983807161160961 
1000.0000000000000 2.4155404169999999e-29 -2666.6666666669998 -31547677.268002946 -5318169.0492744055 -65353091.203955755 -6.0941659971323432e-06 0.0029377467637854166 -0.0053097613885057116 3.5999999996514012 -4.0000000000000000 -4.7983807153769851 
1000.0000000000000 1000.0000000000000 -2666.6666666669998 -31547677.267452665 -5318169.0501723690 -65353091.200633541 -9.7611799125865176e-06 0.0051715279026685020 -0.0051239960378587418 3.5999999996509269 -3.5999999996358736 -4.7983807150966991 
2000.0000000000000 1000.0000000000000 -2500.0000000000000 -30396391.162432905 -4166882.9504745323 -61271258.664844945 5.2405831246121419e-05 0.0056508393946505297 -0.0082704781722699877 3.1999999994451214 -3.5999999996709238 -5.0294434312002698 
2000.0000000000000 -1.0352316099999999e-28 -2500.0000000000000 -30396391.163020499 -4166882.9496605443 -61271258.668093592 2.9167190736693259e-05 0.0032701267413385257 -0.0082907654167323173 3.1999999994441781 -4.0000000000000000 -5.0294434315161176 
1000.0000000000000 2.5880790180000000e-29 -2500.0000000000000 -30396391.164864473 -4166882.9482608205 -61271258.659807801 -7.2194006673086095e-06 0.0031064080197858363 -0.0055730218945832634 3.5999999996835497 -4.0000000000000000 -5.0294434307388327 
1000.0000000000000 1000.0000000000000 -2500.0000000000000 -30396391.164300531 -4166882.9490693663 -61271258.656511970 -1.2437894283519241e-05 0.0054565333830248241 -0.0053960098101847927 3.5999999996830430 -3.5999999996705410 -5.0294434304424973 
2000.0000000000000 1000.0000000000000 -2333.3333333330002 -29245002.008251797 -3015493.7982284459 -57189060.757134207 5.0871569920030461e-05 0.0058980750649141956 -0.0086267775132206105 3.1999999995086919 -3.5999999997077481 -5.2456085354903541 
2000.0000000000000 -1.1042470500000000e-28 -2333.3333333330002 -29245002.008858424 -3015493.7975186026 -57189060.760360569 2.8701919704502282e-05 0.0034201674082295205 -0.0086482341491526619 3.1999999995077593 -4.0000000000000000 -5.2456085358217193 
1000.0000000000000 2.7606176200000001e-29 -2333.3333333330002 -29245002.010427725 -3015493.7960751331 -57189060.752162077 -8.2177886821870390e-06 0.0032593431787728173 -0.0058062382808795662 3.5999999997177650 -4.0000000000000000 -5.2456085350067845 
1000.0000000000000 1000.0000000000000 -2333.3333333330002 -29245002.009846438 -3015493.7967795976 -57189060.748889580 -1.4661084997234380e-05 0.0057107735853029161 -0.0056383990148113116 3.5999999997172294 -3.5999999997072676 -5.2456085346945001 
2000.0000000000000 1000.0000000000000 -2166.6666666669998 -28093509.793567877 -1864001.5855755606 -53106497.453173831 4.8556976019834981e-05 0.0061092421421595168 -0.0089225795810099259 3.1999999995762454 -3.5999999997469381 -5.4468746952045057 
2000.0000000000000 -6.0107537800000003e-29 -2166.6666666669998 -28093509.794196412 -1864001.5849872790 -53106497.456377044 2.7789331961444903e-05 0.0035515648244083039 -0.0089452203551164521 3.1999999995753363 -4.0000000000000000 -5.4468746955512781 
1000.0000000000000 1.5026884460000000e-29 -2166.6666666669998 -28093509.795449875 -1864001.5834922581 -53106497.448272824 -9.2112194714561256e-06 0.0033937330373821758 -0.0060047593367375980 3.5999999997543730 -4.0000000000000000 -5.4468746946992699 
1000.0000000000000 1000.0000000000000 -2166.6666666669998 -28093509.794847924 -1864001.5840754886 -53106497.445024580 -1.6602546998378326e-05 0.0059292604019053315 -0.0058463994940977874 3.5999999997538019 -3.5999999997463621 -5.4468746943711546 
2000.0000000000000 1000.0000000000000 -2000.0000000000000 -26941914.509139162 -712406.30328389606 -49023568.720193602 4.5343506590277407e-05 0.0062784897393604409 -0.0091490825507957244 3.1999999996483153 -3.5999999997888632 -5.6332405767451288 
2000.0000000000000 0.0000000000000000 -2000.0000000000000 -26941914.509792224 -712406.30283761746 -49023568.723368287 2.6364969688813682e-05 0.0036608328244365539 -0.0091728743732486396 3.1999999996474475 -4.0000000000000000 -5.6332405771071485 
1000.0000000000000 0.0000000000000000 -2000.0000000000000 -26941914.510681808 -712406.30128385301 -49023568.715375900 -1.0304891750007656e-05 0.0035061805769218421 -0.0061629446836473818 3.5999999997937464 -4.0000000000000000 -5.6332405762187587 
1000.0000000000000 1000.0000000000000 -2000.0000000000000 -26941914.510056201 -712406.30172571738 -49023568.712157086 -1.8405706570757477e-05 0.0061061245749111101 -0.0060142997326524585 3.5999999997931331 -3.5999999997881877 -5.6332405758749644 
2000.0000000000000 1000.0000000000000 -1833.3333333329999 -25790216.145728864 439292.05787173996 -44940274.525441289 4.1097996943420595e-05 0.0063988806844505275 -0.0092961632124522880 3.1999999997255171 -3.5999999998339507 -5.8047048463913935 
2000.0000000000000 -3.2286888400000000e-30 -1833.3333333329999 -25790216.146408878 439292.05815189955 -44940274.528577410 2.4353474725875027e-05 0.0037437884819050077 -0.0093210225463628924 3.1999999997247106 -4.0000000000000000 -5.8047048467684235 
1000.0000000000000 8.0717220889999996e-31 -1833.3333333329999 -25790216.146878406 439292.05977117823 -44940274.520725295 -1.1579856850843645e-05 0.0035926170399152146 -0.0062740263061877776 3.5999999998363141 -4.0000000000000000 -5.8047048458445119 
1000.0000000000000 1000.0000000000000 -1833.3333333329999 -25790216.146226402 439292.05949444103 -44940274.517545678 -2.0189308013526661e-05 0.0062344538988970792 -0.0061353090256798274 3.5999999998356427 -3.5999999998331655 -5.8047048454852535 
2000.0000000000000 1000.0000000000000 -1666.6666666670001 -24638414.694100350 1591093.5071148104 -40856614.836164206 3.5667203544741591e-05 0.0064622454418540119 -0.0093521404123197548 3.1999999998085511 -3.5999999998826908 -5.9612661703032463 
2000.0000000000000 0.0000000000000000 -1666.6666666670001 -24638414.694809590 1591093.5072003361 -40856614.839246780 2.1669838290611056e-05 0.0037954590468955536 -0.0093779129171764272 3.1999999998078281 -4.0000000000000000 -5.9612661706949410 
1000.0000000000000 0.0000000000000000 -1666.6666666670001 -24638414.694793288 1591093.5088916640 -40856614.831574753 -1.3087492182240173e-05 0.0036482126722686215 -0.0063299611682936666 3.5999999998825629 -4.0000000000000000 -5.9612661697366054 
1000.0000000000000 1000.0000000000000 -1666.6666666670001 -24638414.694112387 1591093.5088081448 -40856614.828449264 -2.2048802219791226e-05 0.0063061094425598601 -0.0062013578499779407 3.5999999998818200 -3.5999999998817822 -5.9612661693621840 
2000.0000000000000 2000.0000000000000 -4833.3333333330002 -46505023.138139583 -20275514.913948908 -118383681.09432577 0.00010987942590120026 0.00050141709053808819 -0.00046251564442790236 3.1999999988728267 -3.1999999987893371 -0.43948932213403158 
1000.0000000000000 2000.0000000000000 -4833.3333333330002 -46505023.140321381 -20275514.911043376 -118383681.07910922 0.00016751987910399520 0.00047256100042284614 -0.00024867991698187929 3.5999999993827885 -3.1999999987973462 -0.43948932206633551 
2000.0000000000000 2000.0000000000000 -5000.0000000000000 -47079971.044803768 -20850462.820500523 -120422132.76319066 0.00011030189399798286 0.00024113322486661956 -0.00022251306448083728 3.1999999988677423 -3.1999999987836660 0.0000000000000000 
1000.0000000000000 2000.0000000000000 -5000.0000000000000 -47079971.046802923 -20850462.817387681 -120422132.74724281 0.00017111529096383433 0.00022678007453162371 -0.00011853792513155442 3.5999999993802811 -3.1999999987918675 0.0000000000000000 
2000.0000000000000 2000.0000000000000 -4666.6666666669998 -45355075.861479267 -19125567.637617409 -114306595.29588129 0.00010874679704996806 0.0010538636653620026 -0.00097230079822807690 3.1999999988870345 -3.1999999988052150 -0.86409968935023074 
1000.0000000000000 2000.0000000000000 -4666.6666666669998 -45355075.863973200 -19125567.635089967 -114306595.28200169 0.00015760622631800990 0.00099621375767465102 -0.00052946836223130176 3.5999999993898721 -3.1999999988127068 -0.86409968921995195 
2000.0000000000000 2000.0000000000000 -4500.0000000000000 -44205025.653544769 -17975517.430206761 -110229144.55962907 0.00010720827278756879 0.0016585687397709138 -0.0015323738745902657 3.1999999989085115 -3.1999999988292522 -1.2738297698462164 
1000.0000000000000 2000.0000000000000 -4500.0000000000000 -44205025.656256445 -17975517.427988399 -110229144.54685517 0.00014327996927908937 0.0015736054545309277 -0.00084632458297341712 3.5999999994007075 -3.1999999988360126 -1.2738297696576195 
2000.0000000000000 2000.0000000000000 -4333.3333333330002 -43054872.505118810 -16825364.282475110 -106151328.85282964 0.00010556146022288816 0.0022952505455093538 -0.0021259342292891366 3.1999999989358092 -3.1999999988598202 -1.6686782316924320 
1000.0000000000000 2000.0000000000000 -4333.3333333330002 -43054872.507973917 -16825364.280504536 -106151328.84096482 0.00012638952827914669 0.0021861138147592492 -0.0011900571869034836 3.5999999994145915 -3.1999999988657377 -1.6686782314490780 
2000.0000000000000 2000.0000000000000 -4166.6666666669998 -41904616.406980835 -15675108.185178502 -102073148.14274292 0.00010401356305492500 0.0029484713395321093 -0.0027393514714913712 3.1999999989678112 -3.1999999988956485 -2.0486437428401767 
1000.0000000000000 2000.0000000000000 -4166.6666666669998 -41904616.409919828 -15675108.183402205 -102073148.13161913 0.00010837751151364421 0.0028192010660851368 -0.0015528051823468353 3.5999999994309593 -3.1999999989006871 -2.0486437425450195 
2000.0000000000000 2000.0000000000000 -4000.0000000000000 -40754257.349902682 -14524749.129067877 -97994602.396611542 0.00010265780350812836 0.0036063403205819785 -0.0033615709950310328 3.1999999990036661 -3.1999999989357608 -2.4137249711280648 
1000.0000000000000 2000.0000000000000 -4000.0000000000000 -40754257.352877714 -14524749.127440486 -97994602.386087760 9.0336258225675418e-05 0.0034613800323365406 -0.0019278705972584690 3.5999999994493730 -3.1999999989399410 -2.4137249707835369 
2000.0000000000000 2000.0000000000000 -3833.3333333330002 -39603795.324659020 -13374287.104900047 -93915691.581696704 0.00010148294103871461 0.0042594810942913446 -0.0039836464396549457 3.1999999990427566 -3.1999999989794286 -2.7639205842683583 
1000.0000000000000 2000.0000000000000 -3833.3333333330002 -39603795.327631116 -13374287.103383748 -93915691.571656078 7.3051016557596158e-05 0.0041033122898277178 -0.0023096602734794902 3.5999999994695129 -3.1999999989828041 -2.7639205838764545 
2000.0000000000000 2000.0000000000000 -3666.6666666669998 -38453230.322022267 -12223722.103432683 -89836415.665258706 0.00010041903294249815 0.0049003573308127645 -0.0045981744527454930 3.1999999990846462 -3.1999999990261254 -3.0992292498541896 
1000.0000000000000 2000.0000000000000 -3666.6666666669998 -38453230.324958637 -12223722.101996031 -89836415.655604497 5.7041212107077566e-05 0.0047372161885296006 -0.0026934124451960303 3.5999999994911542 -3.1999999990287709 -3.0992292494165379 
2000.0000000000000 2000.0000000000000 -3500.0000000000000 -37302562.332757771 -11073054.115419332 -85756774.614538759 9.9364997640142324e-05 0.0055227008058213387 -0.0051989063125642406 3.1999999991290586 -3.1999999990755010 -3.4196496353651931 
1000.0000000000000 2000.0000000000000 -3500.0000000000000 -37302562.335629672 -11073054.114036182 -85756774.605191290 4.2607229140209493e-05 0.0053564515108526908 -0.0030749984551220405 3.5999999995141647 -3.1999999990774977 -3.4196496348831151 
2000.0000000000000 2000.0000000000000 -3333.3333333330002 -36151791.347634569 -9922283.1316198800 -81676768.396796018 9.8197869553542041e-05 0.0061210302996864540 -0.0057803082903807390 3.1999999991758474 -3.1999999991273467 -3.7251804081554374 
1000.0000000000000 2000.0000000000000 -3333.3333333330002 -36151791.350415632 -9922283.1302684769 -81676768.387690291 2.9875400538206986e-05 0.0059550843535992118 -0.0034507211016432601 3.5999999995384759 -3.1999999991287780 -3.7251804076300021 
2000.0000000000000 2000.0000000000000 -3166.6666666669998 -35000917.357420437 -8771409.1427953634 -77596396.979289278 9.6784622852620270e-05 0.0066902739040920270 -0.0063372226359497252 3.1999999992249788 -3.1999999991815815 -4.0158202354598451 
1000.0000000000000 2000.0000000000000 -3166.6666666669998 -35000917.360085197 -8771409.1414575167 -77596396.970373243 1.8846767735021602e-05 0.0065275480995545254 -0.0038171185263897946 3.5999999995640937 -3.1999999991825274 -4.0158202348919181 
2000.0000000000000 2000.0000000000000 -3000.0000000000000 -33849940.352876909 -7620432.1397026703 -73515660.329258636 9.4994286803631102e-05 0.0072255202026367989 -0.0068646244582265797 3.1999999992765207 -3.1999999992382331 -4.2915677843990307 
1000.0000000000000 2000.0000000000000 -3000.0000000000000 -33849940.355399601 -7620432.1383631108 -73515660.320491731 9.4471320330524680e-06 0.0070684451770630062 -0.0041708230721641138 3.5999999995910739 -3.1999999992387664 -4.2915677837893176 
2000.0000000000000 2000.0000000000000 -2833.3333333330002 -32698860.324769892 -6469352.1131048612 -69434558.413962349 9.2687607801467348e-05 0.0077217488865855373 -0.0073573756692390446 3.1999999993306254 -3.1999999992974253 -4.5524217219688223 
1000.0000000000000 2000.0000000000000 -2833.3333333330002 -32698860.327123389 -6469352.1117507406 -69434558.405314788 1.5527571930703501e-06 0.0075722922280829948 -0.0045083677775699625 3.5999999996195311 -3.1999999992976109 -4.5524217213179092 
2000.0000000000000 2000.0000000000000 -2666.6666666669998 -31547677.263864726 -5318169.0537659582 -65353091.200658895 8.9714334698493464e-05 0.0081736096237266589 -0.0078100224807267898 3.1999999993875274 -3.1999999993593709 -4.7983807150459015 
1000.0000000000000 2000.0000000000000 -2666.6666666669998 -31547677.266019456 -5318169.0523863286 -65353091.192110837 -4.9888296583235439e-06 0.0080333513820008608 -0.0048260997019360184 3.5999999996496261 -3.1999999993592669 -4.7983807143543080 
2000.0000000000000 2000.0000000000000 -2500.0000000000000 -30396391.160921037 -4166882.9524455797 -61271258.656588301 8.5922445909356377e-05 0.0085752564287165760 -0.0082165504797046922 3.1999999994475377 -3.1999999994243677 -5.0294434303918232 
1000.0000000000000 2000.0000000000000 -2500.0000000000000 -30396391.162843995 -4166882.9510310288 -61271258.648129471 -1.0340536562722441e-05 0.0084453938917813595 -0.0051199680698785759 3.5999999996815712 -3.1999999994240209 -5.0294434296600299 
2000.0000000000000 2000.0000000000000 -2333.3333333330002 -29245002.006703213 -3015493.7999091609 -57189060.749008909 8.1149088935606904e-05 0.0089201514291516546 -0.0085702676476585027 3.1999999995110362 -3.1999999994927917 -5.2456085346441617 
1000.0000000000000 2000.0000000000000 -2333.3333333330002 -29245002.008357022 -3015493.7984515792 -57189060.740638837 -1.4669860813999374e-05 0.0088015277141626196 -0.0053854197182757078 3.5999999997156240 -3.1999999994922423 -5.2456085338726659 
2000.0000000000000 2000.0000000000000 -2166.6666666669998 -28093509.791975420 -1864001.5869227748 -53106497.445179284 7.5213054269676738e-05 0.0092009013048946833 -0.0088635732524652202 3.1999999995784809 -3.1999999995650956 -5.4468746943213358 
1000.0000000000000 2000.0000000000000 -2166.6666666669998 -28093509.793317184 -1864001.5854150143 -53106497.436907165 -1.8140390857262591e-05 0.0090940689272775831 -0.0056172176298726522 3.5999999997520931 -3.1999999995643771 -5.4468746935106944 
2000.0000000000000 2000.0000000000000 -2000.0000000000000 -26941914.507496517 -712406.30424785346 -49023568.712339982 6.7911727464846805e-05 0.0094090149533372254 -0.0090877696682209273 3.1999999996504012 -3.1999999996418156 -5.6332405758258286 
1000.0000000000000 2000.0000000000000 -2000.0000000000000 -26941914.508476697 -712406.30268351652 -49023568.704185106 -2.0918665867149703e-05 0.0093142684722709174 -0.0058092585990255768 3.5999999997913403 -3.1999999996409545 -5.6332405749767114 
2000.0000000000000 2000.0000000000000 -1833.3333333329999 -25790216.144030400 439292.05734871881 -44940274.517749809 5.9023692720126250e-05 0.0095347680057854406 -0.0092328525262995679 3.1999999997274049 -3.1999999997235702 -5.8047048454369508 
1000.0000000000000 2000.0000000000000 -1833.3333333329999 -25790216.144591514 439292.05897546071 -44940274.509742200 -2.3182423904723917e-05 0.0094521596873685058 -0.0059543984651987264 3.5999999998337850 -3.1999999997225852 -5.8047048445501881 
2000.0000000000000 2000.0000000000000 -1666.6666666670001 -24638414.692340974 1591093.5070997765 -40856614.828667812 4.8299464118083652e-05 0.0095669605343797932 -0.0092873009288977418 3.1999999998101853 -3.1999999998110664 -5.9612661693148503 
1000.0000000000000 2000.0000000000000 -1666.6666666670001 -24638414.692416143 1591093.5087943836 -40856614.820849061 -2.5121407293063194e-05 0.0094963335386591286 -0.0060442495124034858 3.5999999998799095 -3.1999999998099677 -5.9612661683915045 
4000.0000000000000 8000.0000000000000 -4833.3333333330002 -46505023.111541905 -20275514.925062723 -118383681.03204532 0.00024405751412368264 -0.00022994984365685129 -0.00019975469772753369 2.3999999985342773 -0.79999999932412902 -0.43948932187650064 
4000.0000000000000 9000.0000000000000 -4833.3333333330002 -46505023.110470861 -20275514.923948575 -118383681.02805421 0.00013235858074064888 -0.00013653509972752416 -0.00019705475764375828 2.3999999985405656 -0.39999999966372085 -0.43948932186171691 
4000.0000000000000 8000.0000000000000 -5000.0000000000000 -47079971.017427519 -20850462.830971245 -120422132.69820739 0.00024745445123676012 -0.00011811965748504304 -9.3337172721446484e-05 2.3999999985284046 -0.79999999932111665 0.0000000000000000 
4000.0000000000000 9000.0000000000000 -5000.0000000000000 -47079971.016301729 -20850462.829801060 -120422132.69401553 0.00013422795902297521 -6.9774700060509521e-05 -9.2307180657585241e-05 2.3999999985347729 -0.39999999966221733 0.0000000000000000 
4000.0000000000000 8000.0000000000000 -4666.6666666669998 -45355075.836413272 -19125567.649863064 -114306595.23885418 0.00023454918569591429 -0.00044154273026621676 -0.00043690024682571112 2.3999999985511509 -0.79999999933286570 -0.86409968885516797 
4000.0000000000000 9000.0000000000000 -4666.6666666669998 -45355075.835448667 -19125567.648858279 -114306595.23525864 0.00012710656944056950 -0.00026416962758127452 -0.00042982650111086527 2.3999999985572082 -0.39999999966808453 -0.86409968882714261 
4000.0000000000000 8000.0000000000000 -4500.0000000000000 -44205025.629960790 -17975517.443287987 -110229144.50755548 0.00022043389193255765 -0.00063000254479009862 -0.00071884928516368794 2.3999999985776519 -0.79999999934674271 -1.2738297691328178 
4000.0000000000000 9000.0000000000000 -4500.0000000000000 -44205025.629096866 -17975517.442386612 -110229144.50434317 0.00011926852142371821 -0.00038035538908283163 -0.00070572464156094968 2.3999999985833500 -0.39999999967502387 -1.2738297690930327 
4000.0000000000000 8000.0000000000000 -4333.3333333330002 -43054872.482968025 -16825364.296120990 -106151328.80541989 0.00020321913451431872 -0.00079733974943610041 -0.0010378236818912917 2.3999999986126004 -0.79999999936521149 -1.6686782307790755 
4000.0000000000000 9000.0000000000000 -4333.3333333330002 -43054872.482199609 -16825364.295316156 -106151328.80257767 0.00010966265749921814 -0.00048575507295568721 -0.0010177453404010251 2.3999999986178455 -0.39999999968426991 -1.6686782307289520 
4000.0000000000000 8000.0000000000000 -4166.6666666669998 -41904616.386213213 -15675108.199143309 -102073148.09971745 0.00018413622857367800 -0.00094557309449035619 -0.0013857120828761826 2.3999999986549700 -0.79999999938775423 -2.0486437417444177 
4000.0000000000000 9000.0000000000000 -4166.6666666669998 -41904616.385535426 -15675108.198427614 -102073148.09723145 9.8974970210950267e-05 -0.00058106085612567090 -0.0013584659906354340 2.3999999986597014 -0.39999999969556793 -2.0486437416853183 
4000.0000000000000 8000.0000000000000 -4000.0000000000000 -40754257.330466501 -14524749.143129420 -97994602.357699871 0.00016415118394396029 -0.0010766860533996156 -0.0017541822666735784 2.3999999987038638 -0.79999999941388367 -2.4137249698666277 
4000.0000000000000 9000.0000000000000 -4000.0000000000000 -40754257.329874612 -14524749.142495288 -97994602.355555356 8.7759214291075035e-05 -0.00066698308333389762 -0.0017200684868396358 2.3999999987080503 -0.39999999970867556 -2.4137249697998571 
4000.0000000000000 8000.0000000000000 -3833.3333333330002 -39603795.306501798 -13374287.118857782 -93915691.546637133 0.00014399950641054933 -0.0011925641735761638 -0.0021347581481526304 2.3999999987585063 -0.79999999944314293 -2.7639205828571285 
4000.0000000000000 9000.0000000000000 -3833.3333333330002 -39603795.305991173 -13374287.118297726 -93915691.544818446 7.6449644265121639e-05 -0.00074422709002417440 -0.0020944512105530149 2.3999999987621390 -0.39999999972336331 -2.7639205827839319 
4000.0000000000000 8000.0000000000000 -3666.6666666669998 -38453230.305092499 -12223722.117105836 -89836415.633798987 0.00012422463703803889 -0.0012949572376309173 -0.0025189929967341373 2.3999999988182381 -0.79999999947510436 -3.0992292483082169 
4000.0000000000000 9000.0000000000000 -3666.6666666669998 -38453230.304658547 -12223722.116612779 -89836415.632289737 6.5370888981571793e-05 -0.00081346443099436711 -0.0024733890969415094 2.3999999988213285 -0.39999999973941375 -3.0992292482297756 
4000.0000000000000 8000.0000000000000 -3500.0000000000000 -37302562.317006759 -11073054.128644969 -85756774.586436540 0.00010521256249188900 -0.0013854541891153156 -0.0028987285798721552 2.3999999988825103 -0.79999999950936962 -3.4196496336987008 
4000.0000000000000 9000.0000000000000 -3500.0000000000000 -37302562.316644974 -11073054.128212485 -85756774.585219502 5.4756986420909055e-05 -0.00087530719516370906 -0.0028488289386017405 2.3999999988850806 -0.39999999975662182 -3.4196496336161322 
4000.0000000000000 8000.0000000000000 -3333.3333333330002 -36151791.333018161 -9922283.1442510188 -81676768.371818990 8.7222861920244798e-05 -0.0014654337477233404 -0.0032662000007384500 2.3999999989508805 -0.79999999954556700 -3.7251804063818343 
4000.0000000000000 9000.0000000000000 -3333.3333333330002 -36151791.332724087 -9922283.1438735146 -81676768.370876163 4.4770058342093241e-05 -0.00093028804475539495 -0.0032130273616738079 2.3999999989529623 -0.39999999977479467 -3.7251804062961864 
4000.0000000000000 8000.0000000000000 -3166.6666666669998 -35000917.343900666 -8771409.1546991374 -77596396.957215339 7.0415818951141665e-05 -0.0015360353671700533 -0.0036140462305911964 2.3999999990230054 -0.79999999958335255 -4.0158202335917421 
4000.0000000000000 9000.0000000000000 -3166.6666666669998 -35000917.343669929 -8771409.1543720644 -77596396.956528008 3.5510728093522373e-05 -0.00097884145559966915 -0.0035585968988793020 2.3999999990246361 -0.39999999979375062 -4.0158202335039936 
4000.0000000000000 8000.0000000000000 -3000.0000000000000 -33849940.340423420 -7620432.1507586641 -73515660.309875757 5.4873364929270634e-05 -0.0015981289016920334 -0.0039353968324515685 2.3999999990986356 -0.79999999962240631 -4.2915677824482552 
4000.0000000000000 9000.0000000000000 -3000.0000000000000 -33849940.340251774 -7620432.1504786750 -73515660.309424549 2.7028922886695002e-05 -0.0010212724394008125 -0.0038785928937131176 2.3999999990998551 -0.39999999981331907 -4.2915677823593050 
4000.0000000000000 8000.0000000000000 -2833.3333333330002 -32698860.313361153 -6469352.1232035579 -69434558.397068530 4.0612676571939170e-05 -0.0016522935621386635 -0.0042239136670620533 2.3999999991776098 -0.79999999966243140 -4.5524217199464383 
4000.0000000000000 9000.0000000000000 -2833.3333333330002 -32698860.313244488 -6469352.1229686374 -69434558.396833345 1.9336383153691513e-05 -0.0010577546413844592 -0.0041665601011413363 2.3999999991784589 -0.39999999983333995 -4.5524217198571089 
4000.0000000000000 8000.0000000000000 -2666.6666666669998 -31547677.253488999 -5318169.0628072349 -65353091.186061434 2.7597343612478105e-05 -0.0016987910678048590 -0.0044736229512474229 2.3999999992598444 -0.79999999970315183 -4.7983807129622287 
4000.0000000000000 9000.0000000000000 -2666.6666666669998 -31547677.253423363 -5318169.0626168391 -65353091.186021589 1.2414307540240060e-05 -0.0010883075259511630 -0.0044164250172164243 2.3999999992603631 -0.39999999985366252 -4.7983807128732545 
4000.0000000000000 8000.0000000000000 -2500.0000000000000 -30396391.151577279 -4166882.9603373818 -61271258.644103117 1.5749338347791378e-05 -0.0017375305778784733 -0.0046789647399132208 2.3999999993453316 -0.79999999974431013 -5.0294434282564433 
4000.0000000000000 9000.0000000000000 -2500.0000000000000 -30396391.151558921 -4166882.9601925630 -61271258.644237459 6.2144446756424530e-06 -0.0011127841502418078 -0.0046225173812168858 2.3999999993455563 -0.39999999987414409 -5.0294434281684781 
4000.0000000000000 8000.0000000000000 -2333.3333333330002 -29245001.998401914 -3015493.8065664591 -57189060.738460094 4.9547192249640307e-06 -0.0017680667682589337 -0.0048348101027630708 2.3999999994341255 -0.79999999978566394 -5.2456085324659378 
4000.0000000000000 9000.0000000000000 -2333.3333333330002 -29245001.998427287 -3015493.8064699532 -57189060.738746926 6.6480457013670416e-07 -0.0011308703240475529 -0.0047795945590875114 2.3999999994340899 -0.39999999989464913 -5.2456085323795358 
4000.0000000000000 8000.0000000000000 -2166.6666666669998 -28093509.784739271 -1864001.5922665237 -53106497.436398104 -4.9332136138646849e-06 -0.0017895649226911867 -0.0049363466984789694 2.3999999995263397 -0.79999999982698433 -5.4468746921084179 
4000.0000000000000 9000.0000000000000 -2166.6666666669998 -28093509.784805086 -1864001.5922228589 -53106497.436815381 -4.3251880227660596e-06 -0.0011420535264778263 -0.0048827461897467820 2.3999999995260723 -0.39999999991504809 -5.4468746920240427 
4000.0000000000000 8000.0000000000000 -2000.0000000000000 -26941914.501361050 -712406.30820409872 -49023568.705163598 -1.4088747611931853e-05 -0.0018007970516885033 -0.0049790995825716401 2.3999999996221386 -0.79999999986805126 -5.6332405735856588 
4000.0000000000000 9000.0000000000000 -2000.0000000000000 -26941914.501464240 -712406.30821966857 -49023568.705688842 -8.8643855154042781e-06 -0.0011456293107791253 -0.0049274144999918107 2.3999999996216634 -0.39999999993521523 -5.6332405735036737 
4000.0000000000000 8000.0000000000000 -1833.3333333329999 -25790216.139044750 439292.05484931124 -44940274.512020729 -2.2711733944538415e-05 -0.0018001263821094959 -0.0049589349773714458 2.3999999997217305 -0.79999999990865167 -5.8047048431762551 
4000.0000000000000 9000.0000000000000 -1833.3333333329999 -25790216.139182542 439292.05476616678 -44940274.512631111 -1.3076456453800335e-05 -0.0011406899492335000 -0.0049093969497405786 2.3999999997210648 -0.39999999995502755 -5.8047048430969221 
4000.0000000000000 8000.0000000000000 -1666.6666666670001 -24638414.688568521 1591093.5061224385 -40856614.824232407 -3.1028455380675451e-05 -0.0017854805437053120 -0.0048720831072034815 2.3999999998253618 -0.79999999994857496 -5.9612661670396454 
4000.0000000000000 9000.0000000000000 -1666.6666666670001 -24638414.688738409 1591093.5059613239 -40856614.824904963 -1.7102751196750538e-05 -0.0011261163065022835 -0.0048248950961129484 2.3999999998245158 -0.39999999997436353 -5.9612661669631208 
3000.0000000000000 6000.0000000000000 -4833.3333333330002 -46505023.117873184 -20275514.923668411 -118383681.03168465 0.00046095906343650658 -0.00016705367078124784 -0.00030872812208755841 2.7999999986141857 -1.5999999986952549 -0.43948932187094314 
3000.0000000000000 7000.0000000000000 -4833.3333333330002 -46505023.115020730 -20275514.922536332 -118383681.02039169 0.00036913682996990346 -0.00025528245201956399 -0.00026922802936686922 2.7999999986291049 -1.1999999990010359 -0.43948932182703571 
4000.0000000000000 7000.0000000000000 -4833.3333333330002 -46505023.113400713 -20275514.926527299 -118383681.03960901 0.00032665552755166790 -0.00023827905015034407 -0.00020851717545933304 2.3999999985246920 -1.1999999989874228 -0.43948932190558793 
4000.0000000000000 6000.0000000000000 -4833.3333333330002 -46505023.116131067 -20275514.927788932 -118383681.05179438 0.00038362579023507341 -0.00013822548762446057 -0.00022742221489538997 2.3999999985124814 -1.5999999986780233 -0.43948932195470025 
3000.0000000000000 6000.0000000000000 -5000.0000000000000 -47079971.023815647 -20850462.829626158 -120422132.69807300 0.00046930208628708978 -8.9662033885447003e-05 -0.00014509058551856157 2.7999999986089104 -1.5999999986896680 0.0000000000000000 
3000.0000000000000 7000.0000000000000 -5000.0000000000000 -47079971.020831227 -20850462.828371488 -120422132.68631709 0.00037546466944563629 -0.00013203988719782934 -0.00012561405399442614 2.7999999986241568 -1.1999999989967685 0.0000000000000000 
4000.0000000000000 7000.0000000000000 -5000.0000000000000 -47079971.019382849 -20850462.832533654 -120422132.70613043 0.00033127569653403852 -0.00012404180636495265 -9.7322257922934178e-05 2.3999999985186835 -1.1999999989829060 0.0000000000000000 
4000.0000000000000 6000.0000000000000 -5000.0000000000000 -47079971.022259191 -20850462.833940096 -120422132.71886757 0.00038936650743483833 -7.5893360584182128e-05 -0.00010638522753566498 2.3999999985062637 -1.5999999986721016 0.0000000000000000 
3000.0000000000000 6000.0000000000000 -4666.6666666669998 -45355075.842626266 -19125567.648381483 -114306595.23803414 0.00043830984503635606 -0.00029867833826259732 -0.00067093352523498709 2.7999999986294730 -1.5999999987114288 -0.86409968884179367 
3000.0000000000000 7000.0000000000000 -4666.6666666669998 -45355075.840034060 -19125567.647481758 -114306595.22765245 0.00035184704764979543 -0.00048475321523002682 -0.00059127497649246223 2.7999999986435418 -1.1999999990134358 -0.86409968875736631 
4000.0000000000000 7000.0000000000000 -4666.6666666669998 -45355075.838086225 -19125567.651139576 -114306595.24571154 0.00031385560999791355 -0.00044841400907082006 -0.00045640413681975354 2.3999999985419453 -1.1999999990004930 -0.86409968891064248 
4000.0000000000000 6000.0000000000000 -4666.6666666669998 -45355075.840538807 -19125567.652129225 -114306595.25681761 0.00036790369232800785 -0.00023817969735136693 -0.00049591072461685395 2.3999999985302947 -1.5999999986950899 -0.86409968900471401 
3000.0000000000000 6000.0000000000000 -4500.0000000000000 -44205025.636037320 -17975517.441740222 -110229144.50626326 0.00040626538404978855 -0.00038683601733359511 -0.0010975235759404308 2.7999999986536626 -1.5999999987370581 -1.2738297691092964 
3000.0000000000000 7000.0000000000000 -4500.0000000000000 -44205025.633696750 -17975517.441046402 -110229144.49676327 0.00032711428788593849 -0.00068145947349127248 -0.00097896031792800518 2.7999999986665709 -1.1999999990331798 -1.2738297689876286 
4000.0000000000000 7000.0000000000000 -4500.0000000000000 -44205025.631461203 -17975517.444392376 -110229144.51373170 0.00029513761036383034 -0.00062427099568055386 -0.00075076228420682895 2.3999999985690113 -1.1999999990211891 -1.2738297692120655 
4000.0000000000000 6000.0000000000000 -4500.0000000000000 -44205025.633661985 -17975517.445145193 -110229144.52380694 0.00034532947973677061 -0.00029326309694426131 -0.00081165571537185647 2.3999999985581471 -1.5999999987219713 -1.2738297693470650 
3000.0000000000000 6000.0000000000000 -4333.3333333330002 -43054872.488876589 -16825364.294526260 -106151328.80364555 0.00036909716348641243 -0.00043743583200686370 -0.0015763461841111382 2.7999999986856325 -1.5999999987710913 -1.6686782307430748 
3000.0000000000000 7000.0000000000000 -4333.3333333330002 -43054872.486776844 -16825364.294010736 -106151328.79499692 0.00029805245902212276 -0.00084815269009610561 -0.0014224791031597897 2.7999999986972210 -1.1999999990595149 -1.6686782305873460 
4000.0000000000000 7000.0000000000000 -4333.3333333330002 -43054872.484307460 -16825364.297070254 -106151328.81094122 0.00027262183436733739 -0.00077049299157262426 -0.0010825605601476886 2.3999999986046525 -1.1999999990486498 -1.6686782308795716 
4000.0000000000000 6000.0000000000000 -4333.3333333330002 -43054872.486278236 -16825364.297620915 -106151328.82003418 0.00031869332758986831 -0.00031214211788876224 -0.0011638921187259452 2.3999999985947102 -1.5999999987574660 -1.6686782310516064 
3000.0000000000000 6000.0000000000000 -4166.6666666669998 -41904616.391916409 -15675108.197519727 -102073148.09745449 0.00032971902875648018 -0.00045665018774086817 -0.0020938549167153803 2.7999999987243389 -1.5999999988125568 -2.0486437416936414 
3000.0000000000000 7000.0000000000000 -4166.6666666669998 -41904616.390045017 -15675108.197154500 -102073148.08962575 0.00026685000606399339 -0.00098795453380697853 -0.0019095338856870015 2.7999999987345463 -1.1999999990917269 -2.0486437415069307 
4000.0000000000000 7000.0000000000000 -4166.6666666669998 -41904616.387401991 -15675108.199954800 -102073148.10461117 0.00024791942546027496 -0.00089143040830010382 -0.0014427559298111573 2.3999999986477909 -1.1999999990820773 -2.0486437418637311 
4000.0000000000000 6000.0000000000000 -4166.6666666669998 -41904616.389161542 -15675108.200337032 -102073148.11277017 0.00028997266207423831 -0.00030269515942803508 -0.0015424819197019228 2.3999999986388381 -1.5999999988004912 -2.0486437420690589 
3000.0000000000000 6000.0000000000000 -4000.0000000000000 -40754257.335925497 -14524749.141493818 -97994602.354944259 0.00029007222663145232 -0.00045067784868738721 -0.0026366173274031484 2.7999999987688544 -1.5999999988605611 -2.4137249697988352 
3000.0000000000000 7000.0000000000000 -4000.0000000000000 -40754257.334268905 -14524749.141251247 -97994602.347902834 0.00023502775583966647 -0.0011041806456669879 -0.0024272360663834661 2.7999999987776891 -1.1999999991291423 -2.4137249695841270 
4000.0000000000000 7000.0000000000000 -4000.0000000000000 -40754257.331514090 -14524749.143820308 -97994602.361994043 0.00022222965732388088 -0.00099115999808089498 -0.0018223577095150812 2.3999999986974889 -1.1999999991207366 -2.4137249700024199 
4000.0000000000000 6000.0000000000000 -4000.0000000000000 -40754257.333079018 -14524749.144066351 -97994602.369267151 0.00026054160668868934 -0.00027210845255803176 -0.0019377802752382060 2.3999999986895459 -1.5999999988500750 -2.4137249702374604 
3000.0000000000000 6000.0000000000000 -3833.3333333330002 -39603795.311679125 -13374287.117225489 -93915691.543387473 0.00025140674515456026 -0.00042557978340062458 -0.0031920642439341603 2.7999999988183948 -1.5999999989142917 -2.7639205827701656 
3000.0000000000000 7000.0000000000000 -3833.3333333330002 -39603795.310223147 -13374287.117078962 -93915691.537099764 0.00020362364481833029 -0.0012001956210578465 -0.0029631227114220227 2.7999999988259026 -1.1999999991711296 -2.7639205825303437 
4000.0000000000000 7000.0000000000000 -3833.3333333330002 -39603795.307417102 -13374287.119444557 -93915691.550360635 0.00019642358705094831 -0.0010734441319945019 -0.0022124750352858374 2.3999999987529397 -1.1999999991639536 -2.7639205830071663 
4000.0000000000000 6000.0000000000000 -3833.3333333330002 -39603795.308802404 -13374287.119584721 -93915691.556795463 0.00023132719733663315 -0.00022690690730113556 -0.0023406056502024049 2.3999999987459941 -1.5999999989053504 -2.7639205832684977 
3000.0000000000000 6000.0000000000000 -3666.6666666669998 -38453230.309953645 -12223722.115490533 -89836415.630057752 0.00021449073038695243 -0.00038713360361380185 -0.0037488623967171725 2.7999999988723228 -1.5999999989730109 -3.0992292482000234 
3000.0000000000000 7000.0000000000000 -3666.6666666669998 -38453230.308683842 -12223722.115414996 -89836415.624488950 0.00017332903934305551 -0.0012792919950747128 -0.0035056442870370495 2.7999999988785751 -1.1999999992171000 -3.0992292479378714 
4000.0000000000000 7000.0000000000000 -3666.6666666669998 -38453230.305883966 -12223722.117603924 -89836415.636981502 0.00017111667954243642 -0.0011417094610003623 -0.0026044664874098774 2.3999999988134633 -1.1999999992111088 -3.0992292484703694 
4000.0000000000000 6000.0000000000000 -3666.6666666669998 -38453230.307103470 -12223722.117666202 -89836415.642625421 0.00020293027197917950 -0.00017298016591218198 -0.0027422611060370127 2.3999999988074801 -1.5999999989655456 -3.0992292487547393 
3000.0000000000000 6000.0000000000000 -3500.0000000000000 -37302562.321520835 -11073054.127058372 -85756774.582211077 0.00017975773475410221 -0.00034072511277889137 -0.0042969467154125385 2.7999999989301463 -1.5999999990360576 -3.4196496335673241 
3000.0000000000000 7000.0000000000000 -3500.0000000000000 -37302562.320422828 -11073054.127030861 -85756774.577325359 0.00014459071805050032 -0.0013446004917482476 -0.0040443581648955552 2.7999999989352284 -1.1999999992665094 -3.4196496332855193 
4000.0000000000000 7000.0000000000000 -3500.0000000000000 -37302562.317682505 -11073054.129068384 -85756774.589108482 0.00014673061487677111 -0.0011990575906358522 -0.0029901105280427881 2.3999999988784935 -1.1999999992616373 -3.4196496338709474 
4000.0000000000000 6000.0000000000000 -3500.0000000000000 -37302562.318749130 -11073054.129078068 -85756774.594008639 0.00017571415220755639 -0.00011559187858352043 -0.0031346074128942541 2.3999999988734242 -1.5999999990299771 -3.4196496341752729 
3000.0000000000000 6000.0000000000000 -3333.3333333330002 -36151791.337157808 -9922283.1427024230 -81676768.367122337 0.00014740836620664874 -0.00029122582649102199 -0.0048274327582226717 2.7999999989915101 -1.5999999991028433 -3.7251804062254439 
3000.0000000000000 7000.0000000000000 -3333.3333333330002 -36151791.336217552 -9922283.1427024826 -81676768.362883076 0.00011767654816734089 -0.0013989741888176313 -0.0045699293962297464 2.7999999989955171 -1.1999999993188555 -3.7251804059265501 
4000.0000000000000 7000.0000000000000 -3333.3333333330002 -36151791.333586015 -9922283.1446120553 -81676768.374011621 0.00012353837198560741 -0.0012481979432408762 -0.0033616881980079393 2.3999999989475778 -1.1999999993150252 -3.7251804065622700 
4000.0000000000000 6000.0000000000000 -3333.3333333330002 -36151791.334511869 -9922283.1445914060 -81676768.378214821 0.00014987060766960086 -5.9343461543500715e-05 -0.0035101253551579588 2.3999999989433669 -1.5999999990980438 -3.7251804068836383 
3000.0000000000000 6000.0000000000000 -3166.6666666669998 -35000917.347641632 -8771409.1531950086 -77596396.952066958 0.00011748632331319869 -0.00024293772788879617 -0.0053324476246756694 2.7999999990561886 -1.5999999991728464 -4.0158202334086495 
3000.0000000000000 7000.0000000000000 -3166.6666666669998 -35000917.346845575 -8771409.1532050036 -77596396.948436648 9.2728810400036869e-05 -0.0014449130415406472 -0.0050739638498178679 2.7999999990592133 -1.1999999993736787 -4.0158202330951092 
4000.0000000000000 7000.0000000000000 -3166.6666666669998 -35000917.344368145 -8771409.1550081056 -77596396.958960548 0.00010169760661197624 -0.0012914132170651401 -0.0037119779929414396 2.3999999990203658 -1.1999999993708041 -4.0158202337785838 
4000.0000000000000 6000.0000000000000 -3166.6666666669998 -35000917.345164672 -8771409.1549761407 -77596396.962513477 0.00012546906729541567 -8.1718822736029579e-06 -0.0038618796908859413 2.3999999990169556 -1.5999999991692209 -4.0158202341142584 
3000.0000000000000 6000.0000000000000 -3000.0000000000000 -33849940.343743861 -7620432.1493021231 -73515660.304302037 8.9931631628205986e-05 -0.00019956162889084208 -0.0058048407251168471 2.7999999991240681 -1.5999999992456106 -4.2915677822369327 
3000.0000000000000 7000.0000000000000 -3000.0000000000000 -33849940.343079060 -7620432.1493075332 -73515660.301242471 6.9794959422313531e-05 -0.0014845337019377680 -0.0055487916492654270 2.7999999991262032 -1.1999999994305577 -4.2915677819110636 
4000.0000000000000 7000.0000000000000 -3000.0000000000000 -33849940.340797752 -7620432.1510236561 -73515660.311206251 8.1277447405857738e-05 -0.0013305423761802769 -0.0040342552905034664 2.3999999990966070 -1.1999999994285508 -4.2915677826398442 
4000.0000000000000 6000.0000000000000 -3000.0000000000000 -33849940.341475703 -7620432.1509959185 -73515660.314155325 0.00010249845717064941 3.4661768493457739e-05 -0.0041834370312714801 2.3999999990939376 -1.5999999992430516 -4.2915677829872676 
3000.0000000000000 6000.0000000000000 -2833.3333333330002 -32698860.316240851 -6469352.1217939239 -69434558.391103029 6.4618180443031919e-05 -0.00016411939590831254 -0.0062380211087255093 2.7999999991951436 -1.5999999993207366 -4.5524217197055430 
3000.0000000000000 7000.0000000000000 -2833.3333333330002 -32698860.315695092 -6469352.1217835695 -69434558.388575435 4.8847449306152615e-05 -0.0015194700063066383 -0.0059873201850172662 2.7999999991964768 -1.1999999994891082 -4.5524217193695273 
4000.0000000000000 7000.0000000000000 -2833.3333333330002 -32698860.313649271 -6469352.1234302446 -69434558.398017615 6.2278883729505850e-05 -0.0013669372712843192 -0.0043223644523221741 2.3999999991761389 -1.1999999994878812 -4.5524217201412460 
4000.0000000000000 6000.0000000000000 -2833.3333333330002 -32698860.314218760 -6469352.1234186692 -69434558.400409088 8.0892354637872736e-05 6.6596090896756685e-05 -0.0044689281392222991 2.3999999991741530 -1.5999999993191416 -4.5524217204980468 
3000.0000000000000 6000.0000000000000 -2666.6666666669998 -31547677.255908620 -5318169.0614396427 -65353091.179745354 4.1376580525458127e-05 -0.00013896976575516267 -0.0066257269039238604 2.7999999992695033 -1.5999999993978782 -4.7983807126906344 
3000.0000000000000 7000.0000000000000 -2666.6666666669998 -31547677.255470481 -5318169.0614058720 -65353091.177710481 2.9804912816920109e-05 -0.0015508643104915974 -0.0063827719854319710 2.7999999992701197 -1.1999999995489781 -4.7983807123465114 
4000.0000000000000 7000.0000000000000 -2666.6666666669998 -31547677.253697485 -5318169.0629986962 -65353091.186663032 4.4650720425586030e-05 -0.0014014518504459591 -0.0045705493479753136 2.3999999992588807 -1.1999999995484465 -4.7983807131588643 
4000.0000000000000 6000.0000000000000 -2666.6666666669998 -31547677.254167970 -5318169.0630114842 -65353091.188543044 6.0542749110524707e-05 8.5724316571522029e-05 -0.0047129420918995118 2.3999999992575241 -1.5999999993971501 -4.7983807135228558 
3000.0000000000000 6000.0000000000000 -2500.0000000000000 -30396391.153517582 -4166882.9590023761 -61271258.637485467 2.0010320231721616e-05 -0.00012575360787965610 -0.0069617412360237045 2.7999999993473281 -1.5999999994767360 -5.0294434279532725 
3000.0000000000000 7000.0000000000000 -2500.0000000000000 -30396391.153176486 -4166882.9589412366 -61271258.635903664 1.2542775361055799e-05 -0.0015793243189749426 -0.0067284645645873942 2.7999999993473028 -1.1999999996098465 -5.0294434276029323 
4000.0000000000000 7000.0000000000000 -2500.0000000000000 -30396391.151712339 -4166882.9604939753 -61271258.644391820 2.8299754362604997e-05 -0.0014343928645641768 -0.0047734340745763460 2.3999999993448262 -1.1999999996099309 -5.0294434284536615 
4000.0000000000000 6000.0000000000000 -2500.0000000000000 -30396391.152092602 -4166882.9605354862 -61271258.645806275 4.1320558321758174e-05 9.0855211706621861e-05 -0.0049104017807601701 2.3999999993440486 -1.5999999994767857 -5.0294434288228507 
3000.0000000000000 6000.0000000000000 -2333.3333333330002 -29245001.999843098 -3015493.8052496328 -57189060.731597878 3.0453264466345841e-07 -0.00012540249189434019 -0.0072397975122799980 2.7999999994288780 -1.5999999995570500 -5.2456085321305954 
3000.0000000000000 7000.0000000000000 -2333.3333333330002 -29245001.999589331 -3015493.8051609695 -57189060.730428994 -3.1040511714387809e-06 -0.0016048859403993228 -0.0070177023214364935 2.7999999994282803 -1.1999999996714168 -5.2456085317757699 
4000.0000000000000 7000.0000000000000 -2333.3333333330002 -29245001.998469386 -3015493.8066856787 -57189060.738471031 1.3095981604668497e-05 -0.0014655245607639151 -0.0049260642392162778 2.3999999994340357 -1.1999999996720441 -5.2456085326626365 
4000.0000000000000 6000.0000000000000 -2333.3333333330002 -29245001.998767555 -3015493.8067563660 -57189060.739465848 2.3079065056479864e-05 8.1482181170668111e-05 -0.0050566188090122918 2.3999999994337924 -1.5999999995577965 -5.2456085330352265 
3000.0000000000000 6000.0000000000000 -2166.6666666669998 -28093509.785660420 -1864001.5909481696 -53106497.429356381 -1.7971244626299616e-05 -0.00013814217290833723 -0.0074533867218953510 2.7999999995144931 -1.5999999996385947 -5.4468746917406330 
3000.0000000000000 7000.0000000000000 -2166.6666666669998 -28093509.785485119 -1864001.5908357776 -53106497.428559840 -1.7336358717867467e-05 -0.0016269916743417983 -0.0072435644066542971 2.7999999995133824 -1.1999999997334128 -5.4468746913828880 
4000.0000000000000 7000.0000000000000 -2166.6666666669998 -28093509.784744561 -1864001.5923428517 -53106497.436166801 -1.1229469869293775e-06 -0.0014940443683847577 -0.0050238025586814691 2.3999999995266283 -1.1999999997345192 -5.4468746923036511 
4000.0000000000000 6000.0000000000000 -2166.6666666669998 -28093509.784968108 -1864001.5924391819 -53106497.436787866 5.6535352922348525e-06 5.7778380715337160e-05 -0.0051472293948265895 2.3999999995268815 -1.5999999996399661 -5.4468746926780449 
3000.0000000000000 6000.0000000000000 -2000.0000000000000 -26941914.501739588 -712406.30685884249 -49023568.698015481 -3.5068278350656181e-05 -0.00016344426899199302 -0.0075955241062146302 2.7999999996045832 -1.5999999997211716 -5.6332405731855246 
3000.0000000000000 7000.0000000000000 -2000.0000000000000 -26941914.501634795 -712406.30673059577 -49023568.697550237 -3.0391500490126239e-05 -0.0016444684495993522 -0.0073987294284751769 2.7999999996030134 -1.1999999997955750 -5.6332405728262538 
4000.0000000000000 7000.0000000000000 -2000.0000000000000 -26941914.501309112 -712406.30822889414 -49023568.704726025 -1.4547631182553375e-05 -0.0015185670552990793 -0.0050623231662813625 2.3999999996227754 -1.1999999997971056 -5.6332405737786351 
4000.0000000000000 6000.0000000000000 -2000.0000000000000 -26941914.501464833 -712406.30834324507 -49023568.705019221 -1.1131776421746117e-05 2.0622961110948836e-05 -0.0051781167081352596 2.3999999996234931 -1.5999999997231067 -5.6332405741534481 
3000.0000000000000 6000.0000000000000 -1833.3333333329999 -25790216.138856139 439292.05625285418 -44940274.504847296 -5.1265714484777621e-05 -0.00020001597180943498 -0.0076586465011089129 2.7999999996996325 -1.5999999998046004 -5.8047048427442736 
3000.0000000000000 7000.0000000000000 -1833.3333333329999 -25790216.138814826 439292.05638482654 -44940274.504671939 -4.2550495289975981e-05 -0.0016555123706529459 -0.0074753450721050056 2.7999999996976439 -1.1999999998576543 -5.8047048423846874 
4000.0000000000000 7000.0000000000000 -1833.3333333329999 -25790216.138940077 439292.05488794658 -44940274.511413135 -2.7396440588886101e-05 -0.0015371075234231662 -0.0050376045648120767 2.3999999997226946 -1.1999999998595656 -5.8047048433663520 
4000.0000000000000 6000.0000000000000 -1833.3333333329999 -25790216.139034055 439292.05476744671 -44940274.511424229 -2.7467771871673727e-05 -2.8388600828734353e-05 -0.0051454449116364077 2.3999999997238528 -1.5999999998070509 -5.8047048437404047 
3000.0000000000000 6000.0000000000000 -1666.6666666670001 -24638414.687786158 1591093.5076219123 -40856614.817123108 -6.6877892509704397e-05 -0.00024579038211150245 -0.0076345336253974150 2.7999999998001956 -1.5999999998887158 -5.9612661665767632 
3000.0000000000000 7000.0000000000000 -1666.6666666670001 -24638414.687802225 1591093.5077410708 -40856614.817195602 -5.4132568659413160e-05 -0.0016576304112520205 -0.0074649246367295202 2.7999999997978162 -1.1999999999194062 -5.9612661662178832 
4000.0000000000000 7000.0000000000000 -1666.6666666670001 -24638414.688415136 1591093.5062397553 -40856614.823491424 -3.9913874390454379e-05 -0.0015470477744322737 -0.0049459719296035213 2.3999999998266373 -1.1999999999216684 -5.9612661672264018 
4000.0000000000000 6000.0000000000000 -1666.6666666670001 -24638414.688452832 1591093.5061293016 -40856614.823266394 -4.3568462263143400e-05 -8.6948098665086160e-05 -0.0050457143498505953 2.3999999998282213 -1.5999999998916439 -5.9612661675987351 
5000.0000000000000 0.0000000000000000 -4833.3333333330002 -46505023.136959583 -20275514.923259512 -118383681.18049684 0.00012053202467605583 0.00012456487003856124 -5.8934054764193772e-05 1.9999999985559731 -4.0000000000000000 -0.43948932252325124 
5000.0000000000000 1000.0000000000000 -4833.3333333330002 -46505023.135795623 -20275514.924144868 -118383681.17493993 0.00017920400432206725 0.00025366982105289623 -3.9520917060411972e-05 1.9999999985610035 -3.5999999993367235 -0.43948932250161610 
6000.0000000000000 1000.0000000000000 -4833.3333333330002 -46505023.136445016 -20275514.927270085 -118383681.18927880 0.00025585194629017878 0.00031988774124599908 0.00023843383587497690 1.5999999987711289 -3.5999999993246616 -0.43948932255487516 
6000.0000000000000 0.0000000000000000 -4833.3333333330002 -46505023.137568176 -20275514.926345795 -118383681.19554305 0.00018122504576289505 0.00018468430054790957 0.00019440779964440604 1.5999999987626878 -4.0000000000000000 -0.43948932258458673 
5000.0000000000000 0.0000000000000000 -5000.0000000000000 -47079971.044618100 -20850462.830861241 -120422132.85332528 0.00012456069388841554 5.8742470838744825e-05 -2.3704789817584926e-05 1.9999999985496839 -4.0000000000000000 0.0000000000000000 
5000.0000000000000 1000.0000000000000 -5000.0000000000000 -47079971.043382496 -20850462.831682637 -120422132.84753563 0.00018380196993259099 0.00012095303476530624 -1.4222950262374082e-05 1.9999999985549124 -3.5999999993340954 0.0000000000000000 
6000.0000000000000 1000.0000000000000 -5000.0000000000000 -47079971.044141293 -20850462.834906615 -120422132.86222628 0.00026464340539312636 0.00015434996089593701 0.00012495837412142819 1.5999999987666786 -3.5999999993215273 0.0000000000000000 
6000.0000000000000 0.0000000000000000 -5000.0000000000000 -47079971.045351751 -20850462.834060017 -120422132.86881712 0.00018894458467109227 8.9415991642948701e-05 0.00010290336321956250 1.5999999987577536 -4.0000000000000000 0.0000000000000000 
5000.0000000000000 0.0000000000000000 -4666.6666666669998 -45355075.858557247 -19125567.645027094 -114306595.37465216 0.00011012135100814352 0.00026929911157337009 -0.00014997030761322854 1.9999999985740435 -4.0000000000000000 -0.86409969009614229 
5000.0000000000000 1000.0000000000000 -4666.6666666669998 -45355075.857527107 -19125567.646024775 -114306595.36951581 0.00016703022463155211 0.00054015409596304886 -0.00011053003746230070 1.9999999985785775 -3.5999999993441771 -0.86409969005361553 
6000.0000000000000 1000.0000000000000 -4666.6666666669998 -45355075.857944384 -19125567.648938764 -114306595.38309106 0.00023292653439890945 0.00066941082903292808 0.00044113595137191413 1.5999999987845794 -3.5999999993333622 -0.86409969015954924 
6000.0000000000000 0.0000000000000000 -4666.6666666669998 -45355075.858913012 -19125567.647885431 -114306595.38876162 0.00016153801440130418 0.00038469599553525021 0.00035457355297795136 1.5999999987772768 -4.0000000000000000 -0.86409969021620714 
5000.0000000000000 0.0000000000000000 -4500.0000000000000 -44205025.649327226 -17975517.436076567 -110229144.63198228 9.6581168315846980e-05 0.00043786416337679342 -0.00027762235238604379 1.9999999986024111 -4.0000000000000000 -1.2738297709206858 
5000.0000000000000 1000.0000000000000 -4500.0000000000000 -44205025.648412026 -17975517.437157359 -110229144.62718634 0.00015051999033863852 0.00086405558093715870 -0.00021895001518104231 1.9999999986063188 -3.5999999993556466 -1.2738297708578525 
6000.0000000000000 1000.0000000000000 -4500.0000000000000 -44205025.648588859 -17975517.439840890 -110229144.63989933 0.00020263710832182040 0.0010491560419635510 0.00059471846743889699 1.5999999988069307 -3.5999999993463985 -1.2738297710147124 
6000.0000000000000 0.0000000000000000 -4500.0000000000000 -44205025.649438500 -17975517.438703477 -110229144.64508465 0.00013652910280368655 0.00059997732703506940 0.00047012537454024892 1.5999999988009543 -4.0000000000000000 -1.2738297710960527 
5000.0000000000000 0.0000000000000000 -4333.3333333330002 -43054872.499970295 -16825364.287100196 -106151328.91961601 8.2345307743920284e-05 0.00062545259969908062 -0.00043332748962576453 1.9999999986397909 -4.0000000000000000 -1.6686782330711092 
5000.0000000000000 1000.0000000000000 -4333.3333333330002 -43054872.499151781 -16825364.288238958 -106151328.91509710 0.00013228611342699248 0.0012164926217491819 -0.00035784731796185677 1.9999999986430477 -3.5999999993704468 -1.6686782329884688 
6000.0000000000000 1000.0000000000000 -4333.3333333330002 -43054872.499108061 -16825364.290686257 -106151328.92688742 0.00017019277488377230 0.0014476710606601767 0.00070088290403394200 1.5999999988376350 -3.5999999993628409 -1.6686782331936469 
6000.0000000000000 0.0000000000000000 -4333.3333333330002 -43054872.499866359 -16825364.289496899 -106151328.93167710 0.00011096777298081291 0.00082436597761244572 0.00054499353365674696 1.5999999988329476 -4.0000000000000000 -1.6686782332978227 
5000.0000000000000 0.0000000000000000 -4166.6666666669998 -41904616.401203699 -15675108.188803777 -102073148.20469964 6.8691719837193837e-05 0.00082735533045563150 -0.00060933636764160741 1.9999999986850550 -4.0000000000000000 -2.0486437445019625 
5000.0000000000000 1000.0000000000000 -4166.6666666669998 -41904616.400464945 -15675108.189979361 -102073148.20040642 0.00011390146465073517 0.0015895929618805437 -0.00052014319773548427 1.9999999986876948 -3.5999999993880119 -2.0486437443999552 
6000.0000000000000 1000.0000000000000 -4166.6666666669998 -41904616.400235631 -15675108.192193348 -102073148.21124384 0.00013849330277943917 0.0018565891470854220 0.00076561883073525861 1.5999999988759348 -3.5999999993819887 -2.0486437446502541 
6000.0000000000000 0.0000000000000000 -4166.6666666669998 -41904616.400924288 -15675108.190975627 -102073148.21571228 8.7165924990390730e-05 0.0010536476667532828 0.00058566786485434071 1.5999999988724005 -4.0000000000000000 -2.0486437447757679 
5000.0000000000000 0.0000000000000000 -4000.0000000000000 -40754257.343750983 -14524749.131898999 -97994602.454375401 5.6217854424988329e-05 0.0010393433770278470 -0.00079836460028768759 1.9999999987372086 -4.0000000000000000 -2.4137249730546357 
5000.0000000000000 1000.0000000000000 -4000.0000000000000 -40754257.343076691 -14524749.133093683 -97994602.450265542 9.6264801510047526e-05 0.0019765645530859504 -0.00069868591579844760 1.9999999987392945 -3.5999999994078955 -2.4137249729336570 
6000.0000000000000 1000.0000000000000 -4000.0000000000000 -40754257.342703730 -14524749.135082947 -97994602.460143283 0.00010903845409954396 0.0022696788117613042 0.00079677753826025357 1.5999999989209956 -3.5999999994033232 -2.4137249732255004 
6000.0000000000000 0.0000000000000000 -4000.0000000000000 -40754257.343340009 -14524749.133854719 -97994602.464352474 6.6085954889933172e-05 0.0012848292577377046 0.00059962480164247234 1.5999999989184468 -4.0000000000000000 -2.4137249733711488 
5000.0000000000000 0.0000000000000000 -3833.3333333330002 -39603795.318349145 -13374287.107111780 -93915691.635815695 4.5138774561190245e-05 0.0012577606536138708 -0.00099343560763683796 1.9999999987953747 -4.0000000000000000 -2.7639205864437555 
5000.0000000000000 1000.0000000000000 -3833.3333333330002 -39603795.317725681 -13374287.108310603 -93915691.631853849 7.9841124264293066e-05 0.0023715970791346559 -0.00088631717588482208 1.9999999987969788 -3.5999999994297527 -2.7639205863041556 
6000.0000000000000 1000.0000000000000 -3833.3333333330002 -39603795.317253061 -13374287.110087343 -93915691.640783131 8.2487720365347192e-05 0.0026821842181045850 0.00080269384122424840 1.5999999989719829 -3.5999999994264735 -2.7639205866337524 
6000.0000000000000 0.0000000000000000 -3833.3333333330002 -39603795.317850888 -13374287.108862666 -93915691.644784868 4.7964420930086505e-05 0.0015156865600754017 0.00059441597947622500 1.5999999989702514 -4.0000000000000000 -2.7639205867985774 
5000.0000000000000 0.0000000000000000 -3666.6666666669998 -38453230.315741301 -12223722.105175529 -89836415.716202497 3.5458826496824022e-05 0.0014794665703320750 -0.0011879023333499455 1.9999999988587864 -4.0000000000000000 -3.0992292522644522 
5000.0000000000000 1000.0000000000000 -3666.6666666669998 -38453230.315156683 -12223722.106365621 -89836415.712358877 6.4821209727608322e-05 0.0027696106543265071 -0.0010760687677249642 1.9999999988599799 -3.5999999994533378 -3.0992292521065354 
6000.0000000000000 1000.0000000000000 -3666.6666666669998 -38453230.314627327 -12223722.107944259 -89836415.720364690 5.9009077930339614e-05 0.0030902274687675158 0.00079138231330246598 1.5999999990281002 -3.5999999994511858 -3.0992292524700069 
6000.0000000000000 0.0000000000000000 -3666.6666666669998 -38453230.315198094 -12223722.106734743 -89836415.724202186 3.2670505120751023e-05 0.0017444400825162678 0.00057715280926502537 1.5999999990270346 -4.0000000000000000 -3.0992292526532572 
5000.0000000000000 0.0000000000000000 -3500.0000000000000 -37302562.326670244 -11073054.116824873 -85756774.662707776 2.7067368288877805e-05 0.0017017536766241691 -0.0013755365163942773 1.9999999989267785 -4.0000000000000000 -3.4196496379980332 
5000.0000000000000 1000.0000000000000 -3500.0000000000000 -37302562.326113962 -11073054.117994815 -85756774.658957154 5.1225532491480622e-05 0.0031661427827793967 -0.0012613642928019271 1.9999999989276254 -3.5999999994784835 -3.4196496378220584 
6000.0000000000000 1000.0000000000000 -3500.0000000000000 -37302562.325567819 -11073054.119390981 -85756774.666074589 3.8490440729763285e-05 0.0034905672047193174 0.00077014430907130843 1.5999999990886147 -3.5999999994773022 -3.4196496382155392 
6000.0000000000000 0.0000000000000000 -3500.0000000000000 -37302562.326120943 -11073054.118206754 -85756774.669783786 1.9897053875151888e-05 0.0019695901046269376 0.00055424617789934889 1.5999999990880842 -4.0000000000000000 -3.4196496384166335 
5000.0000000000000 0.0000000000000000 -3333.3333333330002 -36151791.341887712 -9922283.1328049954 -81676768.442528605 1.9801658525190621e-05 0.0019222414072205748 -0.0015506272523526546 1.9999999989987827 -4.0000000000000000 -3.7251804109999562 
5000.0000000000000 1000.0000000000000 -3333.3333333330002 -36151791.341350555 -9922283.1339442562 -81676768.438849747 3.8976297439729748e-05 0.0035571737793845199 -0.0014361193259974714 1.9999999989993378 -3.5999999995050982 -3.7251804108061362 
6000.0000000000000 1000.0000000000000 -3333.3333333330002 -36151791.340823472 -9922283.1351740267 -81676768.445121080 2.0676303357946815e-05 0.0038802794821118547 0.00074533962267158825 1.5999999991528622 -3.5999999995047460 -3.7251804112258458 
6000.0000000000000 0.0000000000000000 -3333.3333333330002 -36151791.341366850 -9922283.1340244804 -81676768.448731691 9.2689149123715631e-06 0.0021897642386318555 0.00053123987436161683 1.5999999991527611 -4.0000000000000000 -3.7251804114443448 
5000.0000000000000 0.0000000000000000 -3166.6666666669998 -35000917.352148414 -8771409.1438656766 -77596397.022867590 1.3481917934154247e-05 0.0021387840749222506 -0.0017079677186120170 1.9999999990743200 -4.0000000000000000 -4.0158202385062749 
5000.0000000000000 1000.0000000000000 -3166.6666666669998 -35000917.351622336 -8771409.1449640859 -77596397.019242793 2.7944311219220400e-05 0.0039389253634230393 -0.0015947947925535296 1.9999999990746302 -3.5999999995331597 -4.0158202382947792 
6000.0000000000000 1000.0000000000000 -3166.6666666669998 -35000917.351145439 -8771409.1460435577 -77596397.024715617 5.2518125597669720e-06 0.0042565375992564911 0.00072231610770208366 1.5999999992202556 -3.5999999995335097 -4.0158202387370778 
6000.0000000000000 0.0000000000000000 -3166.6666666669998 -35000917.351685800 -8771409.1449379325 -77596397.028251886 4.1307436253968760e-07 0.0024036084537645834 0.00051280070304654979 1.5999999992204987 -4.0000000000000000 -4.0158202389726565 
5000.0000000000000 0.0000000000000000 -3000.0000000000000 -33849940.348204464 -7620432.1407556189 -73515660.370913848 7.9330189824773434e-06 0.0023493354980727789 -0.0018429553603095607 1.9999999991529969 -4.0000000000000000 -4.2915677876384937 
5000.0000000000000 1000.0000000000000 -3000.0000000000000 -33849940.347682349 -7620432.1418028707 -73515660.367328629 1.7977850788998898e-05 0.0043077135664347710 -0.0017324965847011176 1.9999999991530975 -3.5999999995627023 -4.2915677874094511 
6000.0000000000000 1000.0000000000000 -3000.0000000000000 -33849940.347281732 -7620432.1427477356 -73515660.372053891 -8.1131731703081222e-06 0.0046164969973437730 0.00070535445344853452 1.5999999992902803 -3.5999999995636509 -4.2915677878708856 
6000.0000000000000 0.0000000000000000 -3000.0000000000000 -33849940.347824879 -7620432.1416956205 -73515660.375535250 -7.0185844298792365e-06 0.0026096859599740022 0.00050263073947930397 1.5999999992908025 -4.0000000000000000 -4.2915677881233076 
5000.0000000000000 0.0000000000000000 -2833.3333333330002 -32698860.320815153 -6469352.1142322896 -69434558.453878701 3.0011765899821913e-06 0.0025518348316257034 -0.0019516761076249544 1.9999999992344939 -4.0000000000000000 -4.5524217253931205 
5000.0000000000000 1000.0000000000000 -2833.3333333330002 -32698860.320290729 -6469352.1152175274 -69434558.450321719 8.9262900852072003e-06 0.0046598077776042867 -0.0018450424842060605 1.9999999992344137 -3.5999999995938237 -4.5524217251466270 
6000.0000000000000 1000.0000000000000 -2833.3333333330002 -32698860.319987334 -6469352.1160428170 -69434558.454352558 -1.9725460274402788e-05 0.0049571063859819697 0.00069768492419869041 1.5999999993624909 -3.5999999995952789 -4.5524217256239545 
6000.0000000000000 0.0000000000000000 -2833.3333333330002 -32698860.320538312 -6469352.1150545478 -69434558.457793936 -1.3327632965679780e-05 0.0028064130555928951 0.00050347281520094888 1.5999999993632428 -4.0000000000000000 -4.5524217258930548 
5000.0000000000000 0.0000000000000000 -2666.6666666669998 -31547677.260741517 -5318169.0550563643 -65353091.238976419 -1.4586323925299687e-06 0.0027441742132631023 -0.0020308170897294117 1.9999999993185607 -4.0000000000000000 -4.7983807186473140 
5000.0000000000000 1000.0000000000000 -2666.6666666669998 -31547677.260209177 -5318169.0559677240 -65353091.235439442 6.4411995613582202e-07 0.0049912952184893514 -0.0019289244694028393 1.9999999993183211 -3.5999999996266721 -4.7983807183834379 
6000.0000000000000 1000.0000000000000 -2666.6666666669998 -31547677.260018855 -5318169.0566876996 -65353091.238830432 -2.9856175667461521e-05 0.0052749633032508885 0.00070152085175819172 1.5999999994365064 -3.5999999996285550 -4.7983807188736547 
6000.0000000000000 0.0000000000000000 -2666.6666666669998 -31547677.260582127 -5318169.0557748172 -65353091.242242679 -1.8771388745608987e-05 0.0029919692029876772 0.00051718518163990036 1.5999999994374516 -4.0000000000000000 -4.7983807191593115 
5000.0000000000000 0.0000000000000000 -2500.0000000000000 -30396391.158741046 -4166882.9539864445 -61271258.693405829 -5.5663117273466858e-06 0.0029240538791042514 -0.0020777448950757048 1.9999999994050079 -4.0000000000000000 -5.0294434341629080 
5000.0000000000000 1000.0000000000000 -2500.0000000000000 -30396391.158195749 -4166882.9548106124 -61271258.689883813 -6.9931178983175217e-06 0.0052979076761829691 -0.0019813262668281215 1.9999999994046236 -3.5999999996614491 -5.0294434338817036 
6000.0000000000000 1000.0000000000000 -2500.0000000000000 -30396391.158129141 -4166882.9554384979 -61271258.692689896 -3.8734788906367112e-05 0.0055662355221530058 0.00071810660389837818 1.5999999995120009 -3.5999999996636975 -5.0294434343820589 
6000.0000000000000 0.0000000000000000 -2500.0000000000000 -30396391.158708688 -4166882.9546141452 -61271258.696079843 -2.3563026356654517e-05 0.0031642669797174506 0.00054472197281098928 1.5999999995131149 -4.0000000000000000 -5.0294434346841834 
5000.0000000000000 0.0000000000000000 -2333.3333333330002 -29245002.005577650 -3015493.8017890761 -57189060.784385666 -9.4083420898040298e-06 0.0030888766872750077 -0.0020905387028836101 1.9999999994936986 -4.0000000000000000 -5.2456085385775788 
5000.0000000000000 1000.0000000000000 -2333.3333333330002 -29245002.005014822 -3015493.8025108497 -57189060.780877039 -1.4080659141574869e-05 0.0055748863529580294 -0.0020001774571859906 1.9999999994931803 -3.5999999996984111 -5.2456085382790993 
6000.0000000000000 1000.0000000000000 -2333.3333333330002 -29245002.005077496 -3015493.8030588273 -57189060.783153400 -4.6532838048724595e-05 0.0058265292745041204 0.00074774664036353648 1.5999999995887002 -3.5999999997009700 -5.2456085387871036 
6000.0000000000000 0.0000000000000000 -2333.3333333330002 -29245002.005676888 -3015493.8023381475 -57189060.786523730 -2.7861482505607744e-05 0.0033208569331281876 0.00058615508931423004 1.5999999995899661 -4.0000000000000000 -5.2456085391056098 
5000.0000000000000 0.0000000000000000 -2166.6666666669998 -28093509.792016506 -1864001.5892336003 -53106497.479136124 -1.3053805265354293e-05 0.0032356529169588560 -0.0020679976703780693 1.9999999995845406 -4.0000000000000000 -5.4468746984096654 
5000.0000000000000 1000.0000000000000 -2166.6666666669998 -28093509.791431941 -1864001.5898353299 -53106497.475643009 -2.0687071785005756e-05 0.0058167901313339486 -0.0019841607653856060 1.9999999995838957 -3.5999999997378707 -5.4468746980939704 
6000.0000000000000 1000.0000000000000 -2166.6666666669998 -28093509.791624386 -1864001.5903144768 -53106497.477444783 -5.3360409606104979e-05 0.0060506831580972474 0.00078983570751260277 1.5999999996663696 -3.5999999997406915 -5.4468746986074157 
6000.0000000000000 0.0000000000000000 -2166.6666666669998 -28093509.792246886 -1864001.5897151590 -53106497.480794176 -3.1773344485962490e-05 0.0034587917218223078 0.00064069795691470207 1.5999999996677767 -4.0000000000000000 -5.4468746989422057 
5000.0000000000000 0.0000000000000000 -2000.0000000000000 -26941914.508818898 -712406.30708710407 -49023568.744860493 -1.6545622218587033e-05 0.0033608868492966924 -0.0020096948096389494 1.9999999996774773 -4.0000000000000000 -5.6332405800613925 
5000.0000000000000 1000.0000000000000 -2000.0000000000000 -26941914.508208666 -712406.30754811713 -49023568.741389118 -2.6848340843082471e-05 0.0060173228348985672 -0.0019327295913460544 1.9999999996767104 -3.5999999997801959 -5.6332405797285778 
6000.0000000000000 1000.0000000000000 -2000.0000000000000 -26941914.508526087 -712406.30796819087 -49023568.742770813 -5.9271810887634683e-05 0.0062326469971053676 0.00084287757024450311 1.5999999997448102 -3.5999999997832353 -5.6332405802455350 
6000.0000000000000 0.0000000000000000 -2000.0000000000000 -26941914.509174701 -712406.30751100776 -49023568.746093594 -3.5358265634463105e-05 0.0035745880686049811 0.00070669627860905958 1.5999999997463514 -4.0000000000000000 -5.6332405805964729 
5000.0000000000000 0.0000000000000000 -1833.3333333329999 -25790216.146752384 439292.05387535831 -44940274.548780717 -1.9895831925982074e-05 0.0034604393536483637 -0.0019160305173061536 1.9999999997724791 -4.0000000000000000 -5.8047048498116336 
5000.0000000000000 1000.0000000000000 -1833.3333333329999 -25790216.146112796 439292.05357937526 -44940274.545342125 -3.2566236753522623e-05 0.0061691739027993509 -0.0018461856107115243 1.9999999997715956 -3.5999999998258225 -5.8047048494618503 
6000.0000000000000 1000.0000000000000 -1833.3333333329999 -25790216.146544944 439292.05320997024 -44940274.546357602 -6.4261820837769974e-05 0.0063653355969830582 0.00090446641893067296 1.5999999998238477 -3.5999999998290315 -5.8047048499806735 
6000.0000000000000 0.0000000000000000 -1833.3333333329999 -25790216.147222415 439292.05350059038 -44940274.549643248 -3.8629673506191456e-05 0.0036640975671309926 0.00078160973315955667 1.5999999998255166 -4.0000000000000000 -5.8047048503475631 
5000.0000000000000 0.0000000000000000 -1666.6666666670001 -24638414.696585767 1591093.5028756266 -40856614.858119197 -2.3092062152195102e-05 0.0035293255716903481 -0.0017883071412505508 1.9999999998695352 -4.0000000000000000 -5.9612661738199231 
5000.0000000000000 1000.0000000000000 -1666.6666666670001 -24638414.695913296 1591093.5027734321 -40856614.854729824 -3.7815320756336554e-05 0.0062637262744628785 -0.0017257241952573831 1.9999999998685392 -3.5999999998752483 -5.9612661734534065 
6000.0000000000000 1000.0000000000000 -1666.6666666670001 -24638414.696444117 1591093.5024477926 -40856614.855432115 -6.8271098549951969e-05 0.0064403497234822044 0.00097130832989735156 1.5999999999033232 -3.5999999998785843 -5.9612661739727404 
6000.0000000000000 0.0000000000000000 -1666.6666666670001 -24638414.697153006 1591093.5025429698 -40856614.858664900 -4.1557699775417322e-05 0.0037222973397946957 0.00086199710341721965 1.5999999999051127 -4.0000000000000000 -5.9612661743552922 
5000.0000000000000 7000.0000000000000 -4833.3333333330002 -46505023.112510853 -20275514.930561606 -118383681.05872941 0.00014507695835530563 -0.00023707152484076343 -8.1096829779918521e-05 1.9999999985844694 -1.1999999989798991 -0.43948932199076390 
5000.0000000000000 6000.0000000000000 -4833.3333333330002 -46505023.115250930 -20275514.931844201 -118383681.07108343 0.00010849769646309866 -0.00013884723410787078 -6.4573646991540712e-05 1.9999999985815293 -1.5999999986700137 -0.43948932204087438 
5000.0000000000000 7000.0000000000000 -5000.0000000000000 -47079971.018678896 -20850462.836781655 -120422132.72603935 0.00014450144286072761 -0.00012358972335803470 -3.3365296045799125e-05 1.9999999985780399 -1.1999999989753147 0.0000000000000000 
5000.0000000000000 6000.0000000000000 -5000.0000000000000 -47079971.021567233 -20850462.838212516 -120422132.73895685 0.00010582860886013774 -7.6312749507914687e-05 -2.5340415645902744e-05 1.9999999985751982 -1.5999999986640097 0.0000000000000000 
5000.0000000000000 7000.0000000000000 -4666.6666666669998 -45355075.836870193 -19125567.654770449 -114306595.26331604 0.00014640606587155902 -0.00044519324786787860 -0.00020104938238024213 1.9999999986028283 -1.1999999989931582 -0.86409968907432322 
5000.0000000000000 6000.0000000000000 -4666.6666666669998 -45355075.839328878 -19125567.655774388 -114306595.27456835 0.00011541071767620311 -0.00023882899844141173 -0.00016713867695968086 1.9999999985996411 -1.5999999986872948 -0.86409968917016677 
5000.0000000000000 7000.0000000000000 -4500.0000000000000 -44205025.630000941 -17975517.447664168 -110229144.52993695 0.00014768390359437802 -0.00061820157415411019 -0.00036262234122992859 1.9999999986314108 -1.1999999990141397 -1.2738297694480352 
5000.0000000000000 6000.0000000000000 -4500.0000000000000 -44205025.632205747 -17975517.448425204 -110229144.54013792 0.00012433124168876526 -0.00029329071924410273 -0.00031141863545834902 1.9999999986279096 -1.5999999987144735 -1.2738297695854037 
5000.0000000000000 7000.0000000000000 -4333.3333333330002 -43054872.482670017 -16825364.300021309 -106151328.82585348 0.00014825106505294137 -0.00076106641050288225 -0.00055275847561378488 1.9999999986687806 -1.1999999990419592 -1.6686782311820552 
5000.0000000000000 6000.0000000000000 -4333.3333333330002 -43054872.484643735 -16825364.300574891 -106151328.83505334 0.00013336663239473602 -0.00031106841337050824 -0.00048577797755972800 1.9999999986649597 -1.5999999987503211 -1.6686782313569180 
5000.0000000000000 7000.0000000000000 -4166.6666666669998 -41904616.385645270 -15675108.202619236 -102073148.11832802 0.00014772167466807723 -0.00087841208121803205 -0.00076118428346896427 1.9999999987137280 -1.1999999990758006 -2.0486437422273691 
5000.0000000000000 6000.0000000000000 -4166.6666666669998 -41904616.387407333 -15675108.202999925 -102073148.12657674 0.00014130689628606957 -0.00030017014726937692 -0.00068077627199038173 1.9999999987096229 -1.5999999987937374 -2.0486437424358770 
5000.0000000000000 7000.0000000000000 -4000.0000000000000 -40754257.329689920 -14524749.146228911 -97994602.374605134 0.00014590592415922391 -0.00097452627055000761 -0.00097951829741056229 1.9999999987652262 -1.1999999991149117 -2.4137249704222410 
5000.0000000000000 6000.0000000000000 -4000.0000000000000 -40754257.331257366 -14524749.146469809 -97994602.381952301 0.00014743785961615643 -0.00026790112187983838 -0.00088841268679607822 1.9999999987608965 -1.5999999988437403 -2.4137249706607267 
5000.0000000000000 7000.0000000000000 -3833.3333333330002 -39603795.305572763 -13374287.121625338 -93915691.561948135 0.00014274670996709520 -0.0010533451579619320 -0.0012006289860252090 1.9999999988224015 -1.1999999991586039 -2.7639205834785554 
5000.0000000000000 6000.0000000000000 -3833.3333333330002 -39603795.306960896 -13374287.121757606 -93915691.568443015 0.00015138724793323173 -0.00022089124459527033 -0.0011016594868139508 1.9999999988179167 -1.5999999988994540 -2.7639205837435279 
5000.0000000000000 7000.0000000000000 -3666.6666666669998 -38453230.304063112 -12223722.119582497 -89836415.647620767 0.00013827055394299032 -0.0011184145830575509 -0.0014182525198392791 1.9999999988845116 -1.1999999992062473 -3.0992292489890327 
5000.0000000000000 6000.0000000000000 -3666.6666666669998 -38453230.305285931 -12223722.119634924 -89836415.653312370 0.00015301636306362917 -0.00016512193577321126 -0.0013141655079191980 1.9999999988799482 -1.5999999989600999 -3.0992292492771836 
5000.0000000000000 7000.0000000000000 -3500.0000000000000 -37302562.315925464 -11073054.130868189 -85756774.598868534 0.00013255233865947170 -0.0011729118497367313 -0.0016268257530846384 1.9999999989509301 -1.1999999992572674 -3.4196496344328784 
5000.0000000000000 6000.0000000000000 -3500.0000000000000 -37302562.316995978 -11073054.130866777 -85756774.603805542 0.00015233832013224509 -0.00010592642727975962 -0.0015201383569593801 1.9999999989463613 -1.5999999990249911 -3.4196496347410776 
5000.0000000000000 7000.0000000000000 -3333.3333333330002 -36151791.331929982 -9922283.1462544743 -81676768.382955328 0.00012569214765500574 -0.0012196015971674880 -0.0018213514586738679 1.9999999990211310 -1.1999999993111439 -3.7251804071637160 
5000.0000000000000 6000.0000000000000 -3333.3333333330002 -36151791.332860313 -9922283.1462221257 -81676768.387186110 0.00014945409310357458 -4.7973474462571834e-05 -0.0017142896531572446 1.9999999990166284 -1.5999999990935230 -3.7251804074890136 
5000.0000000000000 7000.0000000000000 -3166.6666666669998 -35000917.342847243 -8771409.1565125752 -77596396.967145041 0.00011779416251065827 -0.0012607981831916548 -0.0019973136665628962 1.9999999990946764 -1.1999999993674040 -4.0158202344160179 
5000.0000000000000 6000.0000000000000 -3166.6666666669998 -35000917.343648806 -8771409.1564688515 -77596396.970717758 0.00014451031587799475 4.7493415068268778e-06 -0.0018918054999867546 1.9999999990903066 -1.5999999991651683 -4.0158202347556502 
5000.0000000000000 7000.0000000000000 -3000.0000000000000 -33849940.339443162 -7620432.1524077877 -73515660.318683207 0.00010895710075069596 -0.0012983427658350556 -0.0021506723003661458 1.9999999991712119 -1.1999999994256212 -4.2915677833099366 
5000.0000000000000 6000.0000000000000 -3000.0000000000000 -33849940.340126671 -7620432.1523687039 -73515660.321645677 0.00013767519045301921 4.8950478366978595e-05 -0.0020483066607387829 1.9999999991670343 -1.5999999992394682 -4.2915677836613222 
5000.0000000000000 7000.0000000000000 -2833.3333333330002 -32698860.312489208 -6469352.1247098725 -69434558.404833481 9.9267845738249476e-05 -0.0013335917781051088 -0.0022779063829797422 1.9999999992504505 -1.1999999994854094 -4.5524217208408437 
5000.0000000000000 6000.0000000000000 -2833.3333333330002 -32698860.313064717 -6469352.1246877629 -69434558.407233283 0.00012911517268856938 8.2035640829875706e-05 -0.0021799182512811477 1.9999999992465225 -1.5999999993160274 -4.5524217212015934 
5000.0000000000000 7000.0000000000000 -2666.6666666669998 -31547677.252757315 -5318169.0641879812 -65353091.192859367 8.8796414813604196e-05 -0.0013673830744445096 -0.0023759585628663569 1.9999999993321713 -1.1999999995464208 -4.7983807138849599 
5000.0000000000000 6000.0000000000000 -2666.6666666669998 -31547677.253234219 -5318169.0641913600 -65353091.194743760 0.00011897819827746188 0.00010208156421695407 -0.0022832956092779691 1.9999999993285438 -1.5999999993945055 -4.7983807142528780 
5000.0000000000000 7000.0000000000000 -2500.0000000000000 -30396391.151014585 -4166882.9616054757 -61271258.650005579 7.7597007671044934e-05 -0.0014000108530016753 -0.0024422894144214414 1.9999999994162079 -1.1999999996083390 -5.0294434292033827 
5000.0000000000000 6000.0000000000000 -2500.0000000000000 -30396391.151401602 -4166882.9616389759 -61271258.651421547 0.00010739741107895487 0.00010786642433047836 -0.0023556012854422329 1.9999999994129269 -1.5999999994746115 -5.0294434295764683 
5000.0000000000000 7000.0000000000000 -2333.3333333330002 -29245001.998033673 -3015493.8077304205 -57189060.743534915 6.5708056694830080e-05 -0.0014312248224835854 -0.0024749318771973240 1.9999999995024427 -1.1999999996708766 -5.2456085334332263 
5000.0000000000000 6000.0000000000000 -2333.3333333330002 -29245001.998338901 -3015493.8077947451 -57189060.744529352 9.4484463226993153e-05 9.8866879781119699e-05 -0.0023945773884809576 1.9999999994995519 -1.5999999995560950 -5.2456085338096807 
5000.0000000000000 7000.0000000000000 -2166.6666666669998 -28093509.784587633 -1864001.5933304632 -53106497.440709881 5.3153737038421428e-05 -0.0014601979038174973 -0.0024724869513095397 1.9999999995907980 -1.1999999997337678 -5.4468746930924548 
5000.0000000000000 6000.0000000000000 -2166.6666666669998 -28093509.784818493 -1864001.5934222688 -53106497.441329479 8.0328827783800253e-05 7.5260460343150922e-05 -0.0023985859649609462 1.9999999995883364 -1.5999999996387420 -5.4468746934706864 
5000.0000000000000 7000.0000000000000 -2000.0000000000000 -26941914.501444664 -712406.30916769407 -49023568.708774231 3.9949243223171997e-05 -0.0014855353531123610 -0.0024341985001661245 1.9999999996812277 -1.1999999997967665 -5.6332405745830973 
5000.0000000000000 6000.0000000000000 -2000.0000000000000 -26941914.501607876 -712406.30927949026 -49023568.709065460 6.5009112184038576e-05 3.7915041528643282e-05 -0.0023666487959715129 1.9999999996792344 -1.5999999997223657 -5.6332405749617216 
5000.0000000000000 7000.0000000000000 -1833.3333333329999 -25790216.139378518 439292.05399088090 -44940274.514989816 2.6107929903787052e-05 -0.0015052299383415471 -0.0023599695107230463 1.9999999997737168 -1.1999999998596380 -5.8047048441840081 
5000.0000000000000 6000.0000000000000 -1833.3333333329999 -25790216.139480110 439292.05387084524 -44940274.514998965 4.8600042785177753e-05 -1.1593506578501839e-05 -0.0022984845138305236 1.9999999997722253 -1.5999999998068011 -5.8047048445618534 
5000.0000000000000 7000.0000000000000 -1666.6666666670001 -24638414.689163253 1591093.5053785020 -40856614.826618060 1.1644856215205897e-05 -0.0015166552186224101 -0.0022504111866806778 1.9999999998682658 -1.1999999999221558 -5.9612661680548822 
5000.0000000000000 6000.0000000000000 -1666.6666666670001 -24638414.689208642 1591093.5052663200 -40856614.826391503 3.1180209664647680e-05 -7.0949326471560968e-05 -0.0021945841477032384 1.9999999998673093 -1.5999999998918963 -5.9612661684309893 
2000.0000000000000 10000.000000000000 -4833.3333333330002 -46505023.113865644 -20275514.916058928 -118383680.99042955 3.3341115685167580e-05 -7.7457844323546856e-05 -0.00043832689331014277 3.1999999989125461 0.0000000000000000 -0.43948932171390315 
2000.0000000000000 9000.0000000000000 -4833.3333333330002 -46505023.114227019 -20275514.916442171 -118383680.99146576 6.5360780997210450e-05 -0.00014341567159442182 -0.00043818368746318949 3.1999999989115255 -0.39999999967236843 -0.43948932171699623 
1000.0000000000000 9000.0000000000000 -4833.3333333330002 -46505023.116929777 -20275514.913176727 -118383680.97407065 3.6747170552490763e-07 -0.00013966364889694973 -0.00048627857316369379 3.5999999993702687 -0.39999999967264166 -0.43948932162450566 
1000.0000000000000 10000.000000000000 -4833.3333333330002 -46505023.116584010 -20275514.912782818 -118383680.97298369 4.9103957959863941e-07 -7.5276658112543928e-05 -0.00049167022513516565 3.5999999993700240 0.0000000000000000 -0.43948932162083082 
2000.0000000000000 10000.000000000000 -5000.0000000000000 -47079971.019334689 -20850462.821565695 -120422132.65520155 3.3508359563445734e-05 -3.9366994858097299e-05 -0.00020923852902517696 3.1999999989076788 0.0000000000000000 0.0000000000000000 
2000.0000000000000 9000.0000000000000 -5000.0000000000000 -47079971.019710451 -20850462.821962364 -120422132.65628263 6.5689284847853530e-05 -7.2969461864850875e-05 -0.00020916610076529365 3.1999999989066525 -0.39999999967103333 0.0000000000000000 
1000.0000000000000 9000.0000000000000 -5000.0000000000000 -47079971.022169612 -20850462.818385564 -120422132.63771237 -9.6249672946178118e-07 -7.1164337453749824e-05 -0.00023811192082980056 3.5999999993657554 -0.39999999967125066 0.0000000000000000 
1000.0000000000000 10000.000000000000 -5000.0000000000000 -47079971.021808527 -20850462.817976147 -120422132.63657179 -2.1230672536138767e-07 -3.8297949021053247e-05 -0.00024083380913410475 3.5999999993654681 0.0000000000000000 0.0000000000000000 
2000.0000000000000 10000.000000000000 -4666.6666666669998 -45355075.839539215 -19125567.641636897 -114306595.19992006 3.2841477332575707e-05 -0.00015101462980826296 -0.00092977953685698242 3.1999999989261894 0.0000000000000000 -0.86409968853643648 
2000.0000000000000 9000.0000000000000 -4666.6666666669998 -45355075.839870647 -19125567.641992785 -114306595.20086621 6.4379773647121641e-05 -0.00027910387376110541 -0.00092947867873844465 3.1999999989251844 -0.39999999967628919 -0.86409968854240649 
1000.0000000000000 9000.0000000000000 -4666.6666666669998 -45355075.842942759 -19125567.639274552 -114306595.18559787 3.8118079491835872e-06 -0.00027135984032636789 -0.00099348516513928366 3.5999999993820881 -0.39999999967669930 -0.86409968836938700 
1000.0000000000000 10000.000000000000 -4666.6666666669998 -45355075.842627466 -19125567.638911556 -114306595.18461719 2.3055681392821240e-06 -0.00014660976340958765 -0.0010040075143734049 3.5999999993819487 0.0000000000000000 -0.86409968836240991 
2000.0000000000000 10000.000000000000 -4500.0000000000000 -44205025.633802839 -17975517.435780890 -110229144.47110772 3.2020799607188434e-05 -0.00021916653971390746 -0.0014762471091858491 3.1999999989468528 0.0000000000000000 -1.2738297686643534 
2000.0000000000000 9000.0000000000000 -4500.0000000000000 -44205025.634102643 -17975517.436108913 -110229144.47196339 6.2769051976031696e-05 -0.00040416086126340508 -0.0014757975221489682 3.1999999989458718 -0.39999999968261507 -1.2738297686729698 
1000.0000000000000 9000.0000000000000 -4500.0000000000000 -44205025.637351155 -17975517.433804367 -110229144.45840994 8.2859244984666824e-06 -0.00039254062107536717 -0.0015085917999591368 3.5999999993984164 -0.39999999968319389 -1.2738297684292972 
1000.0000000000000 10000.000000000000 -4500.0000000000000 -44205025.637065917 -17975517.433471795 -110229144.45753342 4.6478659183118879e-06 -0.00021269689511988610 -0.0015235997050266369 3.5999999993984044 0.0000000000000000 -1.2738297684193836 
2000.0000000000000 10000.000000000000 -4333.3333333330002 -43054872.487406388 -16825364.289265580 -106151328.77127084 3.0898165050444518e-05 -0.00028172919857369930 -0.0020569943583056923 3.1999999989731087 0.0000000000000000 -1.6686782301672238 
2000.0000000000000 9000.0000000000000 -4333.3333333330002 -43054872.487674057 -16825364.289566003 -106151328.77203618 6.0570831377028044e-05 -0.00051836564355252693 -0.0020564699372965000 3.1999999989721593 -0.39999999969114869 -1.6686782301782428 
1000.0000000000000 9000.0000000000000 -4333.3333333330002 -43054872.490976088 -16825364.287571579 -106151328.75984921 1.2924348950146214e-05 -0.00050346808014791594 -0.0020108448373800649 3.5999999994175020 -0.39999999969189842 -1.6686782298719440 
1000.0000000000000 10000.000000000000 -4333.3333333330002 -43054872.490720317 -16825364.287268460 -106151328.75907436 7.0576625031876028e-06 -0.00027359108653169826 -0.0020293957892725976 3.5999999994176193 0.0000000000000000 -1.6686782298594525 
2000.0000000000000 10000.000000000000 -4166.6666666669998 -41904616.391116634 -15675108.192869999 -102073148.06769025 2.9498640977557575e-05 -0.00033872444178615572 -0.0026558320927678402 3.1999999990038446 0.0000000000000000 -2.0486437409954772 
2000.0000000000000 9000.0000000000000 -4166.6666666669998 -41904616.391352452 -15675108.193143625 -102073148.06836601 5.7839879125899004e-05 -0.00062186798403787236 -0.0026553315414248172 3.1999999990029342 -0.39999999970168526 -2.0486437410086462 
1000.0000000000000 9000.0000000000000 -4166.6666666669998 -41904616.394630603 -15675108.191378277 -102073148.05725247 1.7214544792140458e-05 -0.00060453184749258127 -0.0024906014417044272 3.5999999994382779 -0.39999999970259015 -2.0486437406461224 
1000.0000000000000 10000.000000000000 -4166.6666666669998 -41904616.394403540 -15675108.191103317 -102073148.05657646 9.2668546088707607e-06 -0.00032941919471466140 -0.0025116710009368158 3.5999999994385115 0.0000000000000000 -2.0486437406314026 
2000.0000000000000 10000.000000000000 -4000.0000000000000 -40754257.335703477 -14524749.137369091 -97994602.327625543 2.7859837039964307e-05 -0.00039029993774271262 -0.0032603688106998684 3.1999999990382215 0.0000000000000000 -2.4137249689868145 
2000.0000000000000 9000.0000000000000 -4000.0000000000000 -40754257.335908256 -14524749.137617070 -97994602.328213051 5.4645601588345114e-05 -0.00071505146714392019 -0.0032600124320016507 3.1999999990373564 -0.39999999971401806 -2.4137249690018705 
1000.0000000000000 9000.0000000000000 -4000.0000000000000 -40754257.339115098 -14524749.136018118 -97994602.317932472 2.0878303358634435e-05 -0.00069620255058351177 -0.0029445046391113126 3.5999999994601311 -0.39999999971505235 -2.4137249685881383 
1000.0000000000000 10000.000000000000 -4000.0000000000000 -40754257.338915855 -14524749.135769811 -97994602.317352206 1.1135994229249864e-05 -0.00038035370195983005 -0.0029670790704036799 3.5999999994604641 0.0000000000000000 -2.4137249685715321 
2000.0000000000000 10000.000000000000 -3833.3333333330002 -39603795.311946616 -13374287.113543751 -93915691.518354222 2.6025246990927618e-05 -0.00043668039317564753 -0.0038612203937656853 3.1999999990756351 0.0000000000000000 -2.7639205818525121 
2000.0000000000000 9000.0000000000000 -3833.3333333330002 -39603795.312121525 -13374287.113767426 -93915691.518855363 5.1067541753861909e-05 -0.00079844551623427587 -0.0038611447926036957 3.1999999990748225 -0.39999999972794281 -2.7639205818691899 
1000.0000000000000 9000.0000000000000 -3833.3333333330002 -39603795.315228410 -13374287.112286698 -93915691.509214222 2.3784318921294461e-05 -0.00077900712722861574 -0.0033725062042658715 3.5999999994827472 -0.39999999972907613 -2.7639205814081249 
1000.0000000000000 10000.000000000000 -3833.3333333330002 -39603795.315055996 -13374287.112063460 -93915691.508726224 1.2602687320564769e-05 -0.00042660142316419442 -0.0033956536221040382 3.5999999994831597 0.0000000000000000 -2.7639205813899608 
2000.0000000000000 10000.000000000000 -3666.6666666669998 -38453230.310628161 -12223722.112175567 -89836415.607155725 2.4037149577433610e-05 -0.00047813545616369387 -0.0044512500061816614 3.1999999991156765 0.0000000000000000 -3.0992292471846685 
2000.0000000000000 9000.0000000000000 -3666.6666666669998 -38453230.310774565 -12223722.112376314 -89836415.607572913 4.7185424862886459e-05 -0.00087266132112352789 -0.0044515964079426228 3.1999999991149206 -0.39999999974325956 -3.0992292472027003 
1000.0000000000000 9000.0000000000000 -3666.6666666669998 -38453230.313763469 -12223722.110976581 -89836415.598416731 2.5889227038239943e-05 -0.00085348551580296302 -0.0037760366300152648 3.5999999995059992 -0.39999999974446054 -3.0992292466972513 
1000.0000000000000 10000.000000000000 -3666.6666666669998 -38453230.313616827 -12223722.110776857 -89836415.598017260 1.3647509403895957e-05 -0.00046838192731920469 -0.0037989435043821965 3.5999999995064718 0.0000000000000000 -3.0992292466778473 
2000.0000000000000 10000.000000000000 -3500.0000000000000 -37302562.322525464 -11073054.124040980 -85756774.561292291 2.1935053332157293e-05 -0.00051494168990702321 -0.0050248699243384057 3.1999999991580963 0.0000000000000000 -3.4196496324618590 
2000.0000000000000 9000.0000000000000 -3500.0000000000000 -37302562.322644889 -11073054.124220114 -85756774.561628416 4.3079401408052697e-05 -0.00093832563064950001 -0.0050257559832872700 3.1999999991574017 -0.39999999975977585 -3.4196496324809789 
1000.0000000000000 9000.0000000000000 -3500.0000000000000 -37302562.325503007 -11073054.122872418 -85756774.552835241 2.7208465232079241e-05 -0.00092015352465696658 -0.0041568576233891518 3.5999999995298846 -0.39999999976101336 -3.4196496319333565 
1000.0000000000000 10000.000000000000 -3500.0000000000000 -37302562.325380996 -11073054.122694746 -85756774.552520201 1.4279514011728841e-05 -0.00050590641028734054 -0.0041788461543547208 3.5999999995303980 0.0000000000000000 -3.4196496319130167 
2000.0000000000000 10000.000000000000 -3333.3333333330002 -36151791.338420525 -9922283.1399213988 -81676768.348045573 1.9759298199211650e-05 -0.00054736621527131301 -0.0055774391991747678 3.1999999992027774 0.0000000000000000 -3.7251804050370865 
2000.0000000000000 9000.0000000000000 -3333.3333333330002 -36151791.338514566 -9922283.1400800757 -81676768.348303974 3.8827075575983025e-05 -0.00099603071177188120 -0.0055789598593734505 3.1999999992021477 -0.39999999977730655 -3.7251804050570345 
1000.0000000000000 9000.0000000000000 -3333.3333333330002 -36151791.341230795 -9922283.1387617216 -81676768.339778975 2.7792170736824480e-05 -0.00097948329481545109 -0.0045164863661968186 3.5999999995544805 -0.39999999977855166 -3.7251804044688721 
1000.0000000000000 10000.000000000000 -3333.3333333330002 -36151791.341132216 -9922283.1386048384 -81676768.339543968 1.4526285257993265e-05 -0.00053937061305124102 -0.0045370194793293217 3.5999999995550169 0.0000000000000000 -3.7251804044478871 
2000.0000000000000 10000.000000000000 -3166.6666666669998 -35000917.349094294 -8771409.1505977809 -77596396.934697792 1.7545511634078937e-05 -0.00057564677774191435 -0.0061046893817253848 3.1999999992497123 0.0000000000000000 -4.0158202321442307 
2000.0000000000000 9000.0000000000000 -3166.6666666669998 -35000917.349164605 -8771409.1507369224 -77596396.934882343 3.4491093090309230e-05 -0.0010463006973698032 -0.0061069129404124275 3.1999999992491484 -0.39999999979567530 -4.0158202321647503 
1000.0000000000000 9000.0000000000000 -3166.6666666669998 -35000917.351727076 -8771409.1494299658 -77596396.926553354 2.7701102544931874e-05 -0.0010318645586346554 -0.0048557923516444083 3.5999999995799210 -0.39999999979690098 -4.0158202315372451 
1000.0000000000000 10000.000000000000 -3166.6666666669998 -35000917.351650707 -8771409.1492928788 -77596396.926393613 1.4422853509372602e-05 -0.00056893145887872414 -0.0048744431076239644 3.5999999995804646 0.0000000000000000 -4.0158202315158871 
2000.0000000000000 10000.000000000000 -3000.0000000000000 -33849940.345321156 -7620432.1468452979 -73515660.288513049 1.5316336146588934e-05 -0.00059996595457631864 -0.0066025098349830171 3.1999999992989885 0.0000000000000000 -4.2915677809028834 
2000.0000000000000 9000.0000000000000 -3000.0000000000000 -33849940.345369391 -7620432.1469655000 -73515660.288628012 3.0124630436458675e-05 -0.0010895618081737210 -0.0066054871905070799 3.1999999992984915 -0.39999999981471357 -4.2915677809237351 
1000.0000000000000 9000.0000000000000 -3000.0000000000000 -33849940.347763911 -7620432.1456556479 -73515660.280442074 2.7001224215030482e-05 -0.0010775863036217935 -0.0051748873186520288 3.5999999996063794 -0.39999999981589601 -4.2915677802577576 
1000.0000000000000 10000.000000000000 -3000.0000000000000 -33849940.347708531 -7620432.1455377061 -73515660.280352592 1.4003867273434659e-05 -0.00059469555589196301 -0.0051913446272715260 3.5999999996069163 0.0000000000000000 -4.2915677802362806 
2000.0000000000000 10000.000000000000 -2833.3333333330002 -32698860.317879237 -6469352.1194436960 -69434558.376773953 1.3094509711350315e-05 -0.00062044864147688767 -0.0070666121561077898 3.1999999993507697 0.0000000000000000 -4.5524217183079019 
2000.0000000000000 9000.0000000000000 -2833.3333333330002 -32698860.317906983 -6469352.1195451561 -69434558.376823962 2.5772552589063798e-05 -0.0011261143624922408 -0.0070703715035573874 3.1999999993503425 -0.39999999983426160 -4.5524217183288522 
1000.0000000000000 9000.0000000000000 -2833.3333333330002 -32698860.320115976 -6469352.1182209188 -69434558.368744597 2.5761766804772327e-05 -0.0011168214459987326 -0.0054729946490933348 3.5999999996340644 -0.39999999983537893 -4.5524217176250561 
1000.0000000000000 10000.000000000000 -2833.3333333330002 -32698860.320080370 -6469352.1181218773 -69434558.368719995 1.3303485583790020e-05 -0.00061671414958426650 -0.0054870826538157150 3.5999999996345813 0.0000000000000000 -4.5524217176036936 
2000.0000000000000 10000.000000000000 -2666.6666666669998 -31547677.257545307 -5318169.0591721172 -65353091.166763112 1.0896585921022845e-05 -0.00063714547990523858 -0.0074923001722675513 3.1999999994052968 0.0000000000000000 -4.7983807112350449 
2000.0000000000000 9000.0000000000000 -2666.6666666669998 -31547677.257554118 -5318169.0592545830 -65353091.166753128 2.1460624624085752e-05 -0.0011561039562632345 -0.0074968220298848968 3.1999999994049375 -0.39999999985416673 -4.7983807112558807 
1000.0000000000000 9000.0000000000000 -2666.6666666669998 -31547677.259555694 -5318169.0579065932 -65353091.158758044 2.4043651596737738e-05 -0.0011495934353866150 -0.0057484511521190352 3.5999999996632117 -0.39999999985519979 -4.7983807105147847 
1000.0000000000000 10000.000000000000 -2666.6666666669998 -31547677.259538677 -5318169.0578266690 -65353091.158792779 1.2351816295977772e-05 -0.00063497208362019316 -0.0057601006739583438 3.5999999996636971 0.0000000000000000 -4.7983807104937481 
2000.0000000000000 10000.000000000000 -2500.0000000000000 -30396391.155089594 -4166882.9568038764 -61271258.625744388 8.7292594601916813e-06 -0.00065002431732384073 -0.0078743044359542869 3.1999999994628765 0.0000000000000000 -5.0294434264450043 
2000.0000000000000 9000.0000000000000 -2500.0000000000000 -30396391.155080944 -4166882.9568666043 -61271258.625679769 1.7201979891515104e-05 -0.0011795123713354430 -0.0078795492639636873 3.1999999994625843 -0.39999999987428292 -5.0294434264655274 
1000.0000000000000 9000.0000000000000 -2500.0000000000000 -30396391.156848248 -4166882.9554871423 -61271258.617759362 2.1899658463590878e-05 -0.0011757689994826618 -0.0059986737799277998 3.5999999996940852 -0.39999999987521484 -5.0294434256875951 
1000.0000000000000 10000.000000000000 -2500.0000000000000 -30396391.156848677 -4166882.9554270417 -61271258.617847532 1.1177889381397152e-05 -0.00064938214137774772 -0.0060078969411752328 3.5999999996945298 0.0000000000000000 -5.0294434256670728 
2000.0000000000000 10000.000000000000 -2333.3333333330002 -29245002.001286317 -3015493.8031168850 -57189060.720999569 6.5961388974989213e-06 -0.00065896879084584195 -0.0082065357800538332 3.1999999995238793 0.0000000000000000 -5.2456085305745566 
2000.0000000000000 9000.0000000000000 -2333.3333333330002 -29245002.001261607 -3015493.8031586027 -57189060.720886074 1.3000765902063875e-05 -0.0011961359414138562 -0.0082124532494238546 3.1999999995236550 -0.39999999989446977 -5.2456085305945903 
1000.0000000000000 9000.0000000000000 -2333.3333333330002 -29245002.002762180 -3015493.8017412531 -57189060.713042445 1.9383288471007343e-05 -0.0011950378603982435 -0.0062200803676996513 3.5999999997269825 -0.39999999989528567 -5.2456085297802915 
1000.0000000000000 10000.000000000000 -2333.3333333330002 -29245002.002778973 -3015493.8017022335 -57189060.713177860 9.8139337494018863e-06 -0.00065976584190631526 -0.0062269648501510361 3.5999999997273759 0.0000000000000000 -5.2456085297604496 
2000.0000000000000 10000.000000000000 -2166.6666666669998 -28093509.786908697 -1864001.5888885851 -53106497.419810101 4.4852199709297873e-06 -0.00066374317536775694 -0.0084820007256374355 3.1999999995887429 0.0000000000000000 -5.4468746901413887 
2000.0000000000000 9000.0000000000000 -2166.6666666669998 -28093509.786869206 -1864001.5889074313 -53106497.419653811 8.8422272723619656e-06 -0.0012055579679457838 -0.0084885124858204569 3.1999999995885853 -0.39999999991459134 -5.4468746901607767 
1000.0000000000000 9000.0000000000000 -2166.6666666669998 -28093509.788064159 -1864001.5874466577 -53106497.411899596 1.6540579942538316e-05 -0.0012068969430487281 -0.0064081124757139731 3.5999999997622294 -0.39999999991527779 -5.4468746893106674 
1000.0000000000000 10000.000000000000 -2166.6666666669998 -28093509.788096290 -1864001.5874305640 -53106497.412075803 8.2816459406490973e-06 -0.00066583459691502991 -0.0064128409954846621 3.5999999997625656 0.0000000000000000 -5.4468746892916418 
2000.0000000000000 10000.000000000000 -2000.0000000000000 -26941914.502723925 -712406.30489081424 -49023568.689438507 2.3791142049400317e-06 -0.00066400821336553141 -0.0086926311033672758 3.1999999996579711 0.0000000000000000 -5.6332405715473231 
2000.0000000000000 9000.0000000000000 -2000.0000000000000 -26941914.502670791 -712406.30488429544 -49023568.689245775 4.6971118584338112e-06 -0.0012071522714106277 -0.0086996293381777414 3.1999999996578810 -0.39999999993451429 -5.6332405715659402 
1000.0000000000000 9000.0000000000000 -2000.0000000000000 -26941914.503513921 -712406.30337518873 -49023568.681603864 1.3405898462861426e-05 -0.0012106423005689101 -0.0065571296838034298 3.5999999998001933 -0.39999999993505936 -5.6332405706807052 
1000.0000000000000 10000.000000000000 -2000.0000000000000 -26941914.503560476 -712406.30338448740 -49023568.681814142 6.5965016636587079e-06 -0.00066720971324753914 -0.0065599474291600807 3.5999999998004646 0.0000000000000000 -5.6332405706626005 
2000.0000000000000 10000.000000000000 -1833.3333333329999 -25790216.139503740 439292.05809969723 -44940274.497165293 2.6270518572301854e-07 -0.00065933142509066187 -0.0088290395664620165 3.1999999997321398 0.0000000000000000 -5.8047048410710769 
2000.0000000000000 9000.0000000000000 -1833.3333333329999 -25790216.139437970 439292.05813473539 -44940274.496942729 5.3246261502122982e-07 -0.0012000677989260809 -0.0088364139463871002 3.1999999997321176 -0.39999999995410684 -5.8047048410888156 
1000.0000000000000 9000.0000000000000 -1833.3333333329999 -25790216.139874753 439292.05969668675 -44940274.489446141 1.0017091477498974e-05 -0.0012053550237116468 -0.0066602829668712376 3.5999999998412844 -0.39999999995450025 -5.8047048401693422 
1000.0000000000000 10000.000000000000 -1833.3333333329999 -25790216.139934901 439292.05965886754 -44940274.489683606 4.7820390614588228e-06 -0.00066342664887541808 -0.0066614612869013712 3.5999999998414851 0.0000000000000000 -5.8047048401522350 
2000.0000000000000 10000.000000000000 -1666.6666666670001 -24638414.688019425 1591093.5093065049 -40856614.810269997 -1.8883245694897617e-06 -0.00064914415289114152 -0.0088803566271120522 3.1999999998119013 0.0000000000000000 -5.9612661648722769 
2000.0000000000000 9000.0000000000000 -1666.6666666670001 -24638414.687941890 1591093.5093738711 -40856614.810024649 -3.6991213241802195e-06 -0.0011832071672372778 -0.0088879610528541375 3.1999999998119497 -0.39999999997323643 -5.9612661648890679 
1000.0000000000000 9000.0000000000000 -1666.6666666670001 -24638414.687908035 1591093.5109931019 -40856614.802716546 6.4137968305082816e-06 -0.0011898864872002095 -0.0067093662766672876 3.5999999998859669 -0.39999999997346919 -5.9612661639364859 
1000.0000000000000 10000.000000000000 -1666.6666666670001 -24638414.687981043 1591093.5109229712 -40856614.802973956 2.8630286405868711e-06 -0.00065389339025457324 -0.0067092347782736744 3.5999999998860934 0.0000000000000000 -5.9612661639204259 
8000.0000000000000 8000.0000000000000 -4833.3333333330002 -46505023.112878479 -20275514.937567271 -118383681.08665529 0.00013508818867411884 -0.00022719321485164696 0.00021869124401207123 0.79999999936360000 -0.79999999930856092 -0.43948932210608760 
8000.0000000000000 9000.0000000000000 -4833.3333333330002 -46505023.111705132 -20275514.936515167 -118383681.08242157 4.8104105862421984e-05 -0.00013220181282006164 0.00021610111272414649 0.79999999936566635 -0.39999999965438482 -0.43948932209062791 
9000.0000000000000 9000.0000000000000 -4833.3333333330002 -46505023.112650029 -20275514.937687516 -118383681.08647488 3.8829028264642170e-05 -0.00013531369557481598 0.00012712708308583001 0.39999999968255295 -0.39999999965290334 -0.43948932210546310 
9000.0000000000000 8000.0000000000000 -4833.3333333330002 -46505023.113777809 -20275514.938800681 -118383681.09074475 0.00010750905106283693 -0.00022850575141800811 0.00012405173209837251 0.39999999968048167 -0.79999999930383503 -0.43948932212106273 
8000.0000000000000 8000.0000000000000 -5000.0000000000000 -47079971.019365430 -20850462.844145395 -120422132.75526708 0.00013592446360865371 -0.00011669551044209513 0.00011264666518264756 0.79999999936069066 -0.79999999930551269 0.0000000000000000 
8000.0000000000000 9000.0000000000000 -5000.0000000000000 -47079971.018131517 -20850462.843036830 -120422132.75082058 4.7792027160917984e-05 -6.7703482331896441e-05 0.00011136532824175138 0.79999999936271571 -0.39999999965282157 0.0000000000000000 
9000.0000000000000 9000.0000000000000 -5000.0000000000000 -47079971.019133814 -20850462.844267920 -120422132.75508139 3.9030448533763446e-05 -6.9258284206958308e-05 6.5159377217460085e-05 0.39999999968107536 -0.39999999965134297 0.0000000000000000 
9000.0000000000000 8000.0000000000000 -5000.0000000000000 -47079971.020320661 -20850462.845439177 -120422132.75956193 0.00010888260350869566 -0.00011754574753447368 6.3596299413929948e-05 0.39999999967897870 -0.79999999930072263 0.0000000000000000 
8000.0000000000000 8000.0000000000000 -4666.6666666669998 -45355075.836664245 -19125567.661086272 -114306595.28870705 0.00013257610765369238 -0.00043622958245387365 0.00041783270116799393 0.79999999937205857 -0.79999999931742294 -0.86409968929516079 
8000.0000000000000 9000.0000000000000 -4666.6666666669998 -45355075.835610323 -19125567.660142168 -114306595.28489269 4.8806960089839905e-05 -0.00025504919858599056 0.00041276821393667576 0.79999999937421495 -0.39999999965892125 -0.86409968926572400 
9000.0000000000000 9000.0000000000000 -4666.6666666669998 -45355075.836443812 -19125567.661198683 -114306595.28853719 3.8230752231053229e-05 -0.00026116604007169451 0.00024483967181078729 0.39999999968684075 -0.39999999965743605 -0.86409968929391900 
9000.0000000000000 8000.0000000000000 -4666.6666666669998 -45355075.837455668 -19125567.662198935 -114306595.29239142 0.00010367311829616587 -0.00043774960564212388 0.00023884695363059791 0.39999999968483391 -0.79999999931286792 -0.86409968932360293 
8000.0000000000000 8000.0000000000000 -4500.0000000000000 -44205025.629344881 -17975517.453340188 -110229144.55293052 0.00012844692791494610 -0.00062220892174203531 0.00059173047887418786 0.79999999938552413 -0.79999999933153798 -1.2738297697649565 
8000.0000000000000 9000.0000000000000 -4500.0000000000000 -44205025.628406465 -17975517.452494562 -110229144.54952233 4.9447338694504818e-05 -0.00036611211350116998 0.00058473377323590720 0.79999999938776789 -0.39999999966613153 -1.2738297697230079 
9000.0000000000000 9000.0000000000000 -4500.0000000000000 -44205025.629135936 -17975517.453438796 -110229144.55277102 3.7250068593351015e-05 -0.00037485815219804420 0.00035039165585257800 0.39999999969365285 -0.39999999966464961 -1.2738297697631245 
9000.0000000000000 8000.0000000000000 -4500.0000000000000 -44205025.630036473 -17975517.454333197 -110229144.55622151 9.7984226321276162e-05 -0.00062262332914003293 0.00034170392009975757 0.39999999969173339 -0.79999999932722488 -1.2738297698054197 
8000.0000000000000 8000.0000000000000 -4333.3333333330002 -43054872.481676906 -16825364.305102915 -106151328.84658609 0.00012288010414923989 -0.00078692406994232769 0.00074197644016860359 0.79999999940345667 -0.79999999935036015 -1.6686782315860325 
8000.0000000000000 9000.0000000000000 -4333.3333333330002 -43054872.480849162 -16825364.304346815 -106151328.84356970 4.9692321277957463e-05 -0.00046638645655333382 0.00073392921753899997 0.79999999940576094 -0.39999999967573002 -1.6686782315330095 
9000.0000000000000 9000.0000000000000 -4333.3333333330002 -43054872.481482968 -16825364.305182829 -106151328.84643656 3.5907556086418002e-05 -0.00047714411518522105 0.00044441395152055582 0.39999999970271183 -0.39999999967426320 -1.6686782315836519 
9000.0000000000000 8000.0000000000000 -4333.3333333330002 -43054872.482277378 -16825364.305979192 -106151328.84949639 9.1018673443932701e-05 -0.00078517131924464969 0.00043325070990768709 0.39999999970089506 -0.79999999934633703 -1.6686782316371285 
8000.0000000000000 8000.0000000000000 -4166.6666666669998 -41904616.384417281 -15675108.207147950 -102073148.13693395 0.00011613378353303558 -0.00093226633880395837 0.00087062628281039142 0.79999999942533173 -0.79999999937336586 -2.0486437427097925 
8000.0000000000000 9000.0000000000000 -4166.6666666669998 -41904616.383694813 -15675108.206472920 -102073148.13429393 4.9386244707460842e-05 -0.00055680417574269887 0.00086249852609331502 0.79999999942765920 -0.39999999968744482 -2.0486437426470938 
9000.0000000000000 9000.0000000000000 -4166.6666666669998 -41904616.384241894 -15675108.207205288 -102073148.13679400 3.4236040708406795e-05 -0.00056884487405999278 0.00052765728949661424 0.39999999971375161 -0.39999999968600758 -2.0486437427069144 
9000.0000000000000 8000.0000000000000 -4166.6666666669998 -41904616.384935699 -15675108.207911827 -102073148.13947743 8.3231083769895212e-05 -0.00092755060784219419 0.00051420699296867529 0.39999999971204897 -0.79999999936966559 -2.0486437427701847 
8000.0000000000000 8000.0000000000000 -4000.0000000000000 -40754257.328318432 -14524749.150243210 -97994602.391215816 0.00010848528257039632 -0.0010601492069977935 0.00097997119967885575 0.79999999945064737 -0.79999999940005850 -2.4137249709749260 
8000.0000000000000 9000.0000000000000 -4000.0000000000000 -40754257.327695511 -14524749.149641316 -97994602.388935834 4.8485500672017382e-05 -0.00063822355150319591 0.00097266217667712378 0.79999999945295963 -0.39999999970101868 -2.4137249709039037 
9000.0000000000000 9000.0000000000000 -4000.0000000000000 -40754257.328165032 -14524749.150275048 -97994602.391085178 3.2280512406024013e-05 -0.00065080785057162289 0.00060092280673376295 0.39999999972652039 -0.39999999969962602 -2.4137249709716055 
9000.0000000000000 8000.0000000000000 -4000.0000000000000 -40754257.328763939 -14524749.150900006 -97994602.393407598 7.4983251453929439e-05 -0.0010519340705007364 0.00058535170633533149 0.39999999972494044 -0.79999999939670041 -2.4137249710433317 
8000.0000000000000 8000.0000000000000 -3833.3333333330002 -39603795.304138713 -13374287.125161301 -93915691.576691777 0.00010019154905301631 -0.0011724485990864061 0.0010723603290383645 0.79999999947892941 -0.79999999942996969 -2.7639205840937446 
8000.0000000000000 9000.0000000000000 -3833.3333333330002 -39603795.303609386 -13374287.124625189 -93915691.574754551 4.7009807855637898e-05 -0.00071143022772208260 0.0010666297172193760 0.79999999948119072 -0.39999999971620920 -2.7639205840156986 
9000.0000000000000 9000.0000000000000 -3833.3333333330002 -39603795.304010354 -13374287.125165673 -93915691.576570362 3.0093259842253347e-05 -0.00072386998270092858 0.00066503116533588003 0.39999999974077843 -0.39999999971487560 -2.7639205840900414 
9000.0000000000000 8000.0000000000000 -3833.3333333330002 -39603795.304520167 -13374287.125717040 -93915691.578548238 6.6558297258655132e-05 -0.0011604237722225336 0.00064749625029225817 0.39999999973932759 -0.79999999942696354 -2.7639205841689365 
8000.0000000000000 8000.0000000000000 -3666.6666666669998 -38453230.302637212 -12223722.122674301 -89836415.660621747 9.1477537921598451e-05 -0.0012709667790089777 0.0011500875541392635 0.79999999950973355 -0.79999999946266065 -3.0992292496594023 
8000.0000000000000 9000.0000000000000 -3666.6666666669998 -38453230.302195422 -12223722.122197302 -89836415.659009203 4.5013627178956675e-05 -0.00077713560098876416 0.0011465451165530928 0.79999999951191281 -0.39999999973278871 -3.0992292495755711 
9000.0000000000000 9000.0000000000000 -3666.6666666669998 -38453230.302536339 -12223722.122650187 -89836415.660509631 2.7730178512997303e-05 -0.00078882251724982652 0.00072082218111293572 0.39999999975630113 -0.39999999973152706 -3.0992292496553762 
9000.0000000000000 8000.0000000000000 -3666.6666666669998 -38453230.302962922 -12223722.123135448 -89836415.662160501 5.8176083512752100e-05 -0.0012549983194863352 0.00070147614994154500 0.39999999975498352 -0.79999999946000766 -3.0992292497402119 
8000.0000000000000 8000.0000000000000 -3500.0000000000000 -37302562.314568505 -11073054.133548556 -85756774.610247269 8.2534645643480431e-05 -0.0013573550513819657 0.0012153020162698671 0.79999999954264911 -0.79999999949772171 -3.4196496351515355 
8000.0000000000000 9000.0000000000000 -3500.0000000000000 -37302562.314208195 -11073054.133124819 -85756774.608940542 4.2568855770541666e-05 -0.00083596281677959263 0.0012143964686203224 0.79999999954472001 -0.39999999975054351 -3.4196496350630907 
9000.0000000000000 9000.0000000000000 -3500.0000000000000 -37302562.314496860 -11073054.133495942 -85756774.610144868 2.5245197339713252e-05 -0.00084638984096054406 0.00076910017433438524 0.39999999977287848 -0.39999999974936473 -3.4196496351472416 
9000.0000000000000 8000.0000000000000 -3500.0000000000000 -37302562.314845994 -11073054.133921862 -85756774.611487180 5.0004274139525653e-05 -0.0013374621840712992 0.00074810015164694101 0.39999999977169581 -0.79999999949541656 -3.4196496352368522 
8000.0000000000000 8000.0000000000000 -3333.3333333330002 -36151791.330693141 -9922283.1485551111 -81676768.392828360 7.3516310154189433e-05 -0.0014330884754827633 0.0012699086196281736 0.79999999957729695 -0.79999999953477241 -3.7251804079241952 
8000.0000000000000 9000.0000000000000 -3333.3333333330002 -36151791.330408260 -9922283.1481797285 -81676768.391807973 3.9749740928244826e-05 -0.00088844162477414519 0.0012719453728358839 0.79999999957923851 -0.39999999976927425 -3.7251804078322377 
9000.0000000000000 9000.0000000000000 -3333.3333333330002 -36151791.330651522 -9922283.1484750267 -81676768.392736271 2.2687131803156481e-05 -0.00089720406258430967 0.00081058741763153437 0.39999999979031514 -0.39999999976818712 -3.7251804079196940 
9000.0000000000000 8000.0000000000000 -3333.3333333330002 -36151791.330928914 -9922283.1488474365 -81676768.393789366 4.2165195970923910e-05 -0.0014094076282317241 0.00078809735290358155 0.39999999978926720 -0.79999999953280454 -3.7251804080129785 
8000.0000000000000 8000.0000000000000 -3166.6666666669998 -35000917.341772266 -8771409.1584645025 -77596396.975625098 6.4540232583205491e-05 -0.0014994373785596749 0.0013155422002884207 0.79999999961332957 -0.79999999957346002 -4.0158202352122805 
8000.0000000000000 9000.0000000000000 -3166.6666666669998 -35000917.341556869 -8771409.1581336167 -77596396.974870786 3.6627742378374466e-05 -0.00093498952195780901 0.0013207013391122865 0.79999999961512547 -0.39999999978879486 -4.0158202351178369 
9000.0000000000000 9000.0000000000000 -3166.6666666669998 -35000917.341760412 -8771409.1583589986 -77596396.975543931 2.0099552028413000e-05 -0.00094178403145867440 0.00084593262715569161 0.39999999980842998 -0.39999999978780598 -4.0158202352076264 
9000.0000000000000 8000.0000000000000 -3166.6666666669998 -35000917.341971651 -8771409.1586826667 -77596396.976327971 3.4743427329598142e-05 -0.0014721832117343553 0.00082211933380614197 0.39999999980751499 -0.79999999957181511 -4.0158202353035586 
8000.0000000000000 8000.0000000000000 -3000.0000000000000 -33849940.338562399 -7620432.1540415166 -73515660.325878993 5.5694400213647947e-05 -0.0015573857907248338 0.0013535386958378605 0.79999999965043134 -0.79999999961345836 -4.2915677841363680 
8000.0000000000000 9000.0000000000000 -3000.0000000000000 -33849940.338410705 -7620432.1537524834 -73515660.325369954 3.3266438795810616e-05 -0.00097589355529920140 0.0013618888993755397 0.79999999965206847 -0.39999999980893164 -4.2915677840403843 
9000.0000000000000 9000.0000000000000 -3000.0000000000000 -33849940.338578925 -7620432.1539137987 -73515660.325809538 1.7517899748577047e-05 -0.00098051663335374344 0.00087567915718528820 0.39999999982705614 -0.39999999980804557 -4.2915677841316153 
9000.0000000000000 8000.0000000000000 -3000.0000000000000 -33849940.338729426 -7620432.1541922353 -73515660.326345369 2.7792390305815931e-05 -0.0015268365685341930 0.00085071083026876213 0.39999999982627082 -0.79999999961211943 -4.2915677842292475 
8000.0000000000000 8000.0000000000000 -2833.3333333330002 -32698860.311825823 -6469352.1260557594 -69434558.410850301 4.7038803112572084e-05 -0.0016076427479840218 0.0013848882669631542 0.79999999968831481 -0.79999999965446544 -4.5524217216922471 
8000.0000000000000 9000.0000000000000 -2833.3333333330002 -32698860.311732255 -6469352.1258072704 -69434558.410565227 2.9716679928960582e-05 -0.0010113110229823632 0.0013964035167230910 0.79999999968978319 -0.39999999982952245 -4.5524217215955849 
9000.0000000000000 9000.0000000000000 -2833.3333333330002 -32698860.311868183 -6469352.1259102020 -69434558.410793304 1.4967532144645420e-05 -0.0010136409606761113 0.00090021677479102833 0.39999999984604045 -0.39999999982874263 -4.5524217216874474 
9000.0000000000000 8000.0000000000000 -2833.3333333330002 -32698860.311963134 -6469352.1261455351 -69434558.411102384 2.1338759494522789e-05 -0.0015741141290587723 0.00087426307778401817 0.39999999984538043 -0.79999999965341395 -4.5524217217859109 
8000.0000000000000 8000.0000000000000 -2666.6666666669998 -31547677.252325274 -5318169.0652763564 -65353091.197799116 3.8605534802917962e-05 -0.0016505968024016669 0.0014102370158163928 0.79999999972671887 -0.79999999969620184 -4.7983807147565551 
8000.0000000000000 9000.0000000000000 -2666.6666666669998 -31547677.252284467 -5318169.0650685038 -65353091.197716169 2.6019354210485144e-05 -0.0010412451951099021 0.0014248160358182457 0.79999999972801139 -0.39999999985041590 -4.7983807146599924 
9000.0000000000000 9000.0000000000000 -2666.6666666669998 -31547677.252389658 -5318169.0651185457 -65353091.197755277 1.2465535676316420e-05 -0.0010412405919718363 0.00091979549355021236 0.39999999986524137 -0.39999999984974399 -4.7983807147517616 
9000.0000000000000 8000.0000000000000 -2666.6666666669998 -31547677.252434045 -5318169.0653114319 -65353091.197859637 1.5385336353048362e-05 -0.0016144352232172355 0.00089302372240269382 0.39999999986470186 -0.79999999969541868 -4.7983807148502757 
8000.0000000000000 8000.0000000000000 -2500.0000000000000 -30396391.150818653 -4166882.9624668602 -61271258.653967194 3.0400288456953999e-05 -0.0016862880700135822 0.0014298801819799447 0.79999999976540692 -0.79999999973840752 -5.0294434300908089 
8000.0000000000000 9000.0000000000000 -2500.0000000000000 -30396391.150825579 -4166882.9623013097 -61271258.654064171 2.2203010816442588e-05 -0.0010655431718204994 0.0014473488097525508 0.79999999976651792 -0.39999999987146945 -5.0294434299950259 
9000.0000000000000 9000.0000000000000 -2500.0000000000000 -30396391.150900058 -4166882.9623036613 -61271258.653937049 1.0019285431690224e-05 -0.0010632341912493028 0.00093451121564399123 0.39999999988452861 -0.39999999987090668 -5.0294434300860660 
9000.0000000000000 8000.0000000000000 -2500.0000000000000 -30396391.150898598 -4166882.9624531581 -61271258.653859228 9.9112418663874821e-06 -0.0016478602750074507 0.00090708417078271572 0.39999999988410467 -0.79999999973787450 -5.0294434301839379 
8000.0000000000000 8000.0000000000000 -2333.3333333330002 -29245001.998069488 -3015493.8083957485 -57189060.746614918 2.2407036406165962e-05 -0.0017143949074152802 0.0014437537068514509 0.79999999980416292 -0.79999999978084080 -5.2456085343325336 
8000.0000000000000 9000.0000000000000 -2333.3333333330002 -29245001.998119432 -3015493.8082757955 -57189060.746869296 1.8283329402835006e-05 -0.0010838780331109798 0.0014638836149438281 0.79999999980508729 -0.39999999989254897 -5.2456085342381238 
9000.0000000000000 9000.0000000000000 -2333.3333333330002 -29245001.998161636 -3015493.8082353068 -57189060.746598713 7.6264173556968251e-06 -0.0010793560470501143 0.00094428720474736862 0.39999999990378216 -0.39999999989209611 -5.2456085343278884 
9000.0000000000000 8000.0000000000000 -2333.3333333330002 -29245001.998118740 -3015493.8083387660 -57189060.746361583 4.8753081504356865e-06 -0.0016740776526766518 0.00091636469074075412 0.39999999990346935 -0.79999999978053993 -5.2456085344245205 
8000.0000000000000 8000.0000000000000 -2166.6666666669998 -28093509.784841560 -1864001.5938311729 -53106497.443002544 1.4586037530962994e-05 -0.0017341911504839228 0.0014514204311725191 0.79999999984278969 -0.79999999982327263 -5.4468746940001118 
8000.0000000000000 9000.0000000000000 -2166.6666666669998 -28093509.784930147 -1864001.5937618164 -53106497.443391427 1.4265206444957903e-05 -0.0010957321897788737 0.0014739309878491914 0.79999999984352244 -0.39999999991352653 -5.4468746939075663 
9000.0000000000000 9000.0000000000000 -2166.6666666669998 -28093509.784936894 -1864001.5936829697 -53106497.443000257 5.2758019908407439e-06 -0.0010891476437769787 0.00094885958926859597 0.39999999992289043 -0.39999999991318486 -5.4468746939956043 
9000.0000000000000 8000.0000000000000 -2166.6666666669998 -28093509.784856677 -1864001.5937359652 -53106497.442626990 2.1665297638582295e-07 -0.0016923803614296016 0.00092060460788729117 0.39999999992268492 -0.79999999982318881 -5.4468746940904973 
8000.0000000000000 8000.0000000000000 -2000.0000000000000 -26941914.501893662 -712406.30953587603 -49023568.710371926 6.8728565770399412e-06 -0.0017445388243406601 0.0014520853138502020 0.79999999988110371 -0.79999999986548509 -5.6332405754959893 
8000.0000000000000 9000.0000000000000 -2000.0000000000000 -26941914.502016928 -712406.30952391843 -49023568.710872181 1.0142235388286042e-05 -0.0011003971334782676 0.0014766516576757722 0.79999999988163983 -0.39999999993427954 -5.6332405754057007 
9000.0000000000000 9000.0000000000000 -2000.0000000000000 -26941914.501983393 -712406.30941076868 -49023568.710383162 2.9465551149470581e-06 -0.0010919532668424335 0.00094777957713204229 0.39999999994174790 -0.39999999993404994 -5.6332405754916550 
9000.0000000000000 8000.0000000000000 -2000.0000000000000 -26941914.501869626 -712406.30940700846 -49023568.709897205 -4.1462471054888306e-06 -0.0017016449439767351 0.00091935902163822812 0.39999999994164770 -0.79999999986560622 -5.6332405755844093 
8000.0000000000000 8000.0000000000000 -1833.3333333329999 -25790216.139989980 439292.05372238468 -44940274.515983261 -8.1794916843423132e-07 -0.0017438819641758499 0.0014445703472845527 0.79999999991893267 -0.79999999990726689 -5.8047048450994385 
8000.0000000000000 9000.0000000000000 -1833.3333333329999 -25790216.140144423 439292.05366822443 -44940274.516571715 5.8973384517373762e-06 -0.0010969650705337280 0.0014708295628270340 0.79999999991926629 -0.39999999995468777 -5.8047048450116954 
9000.0000000000000 9000.0000000000000 -1833.3333333329999 -25790216.140064053 439292.05381210725 -44940274.516007379 6.0904272492463068e-07 -0.0010869138720943159 0.00094040058365455273 0.39999999996025520 -0.39999999995457264 -5.8047048450953049 
9000.0000000000000 8000.0000000000000 -1833.3333333329999 -25790216.139920130 439292.05388088751 -44940274.515432209 -8.3143712668530580e-06 -0.0017003405548953214 0.00091199061607257935 0.39999999996025926 -0.79999999990758586 -5.8047048451856256 
8000.0000000000000 8000.0000000000000 -1666.6666666670001 -24638414.689894836 1591093.5051759111 -40856614.827096879 -8.5985022204058041e-06 -0.0017302173995552748 0.0014273055871508538 0.79999999995611182 -0.79999999994841131 -5.9612661689705781 
8000.0000000000000 9000.0000000000000 -1666.6666666670001 -24638414.690077424 1591093.5050449781 -40856614.827750161 1.5014709102650278e-06 -0.0010843196045778804 0.0014548421214349014 0.79999999995623561 -0.39999999997463320 -5.9612661688855644 
9000.0000000000000 9000.0000000000000 -1666.6666666670001 -24638414.689941898 1591093.5052165599 -40856614.827132680 -1.7762202796376316e-06 -0.0010729584280281814 0.00092586668551437369 0.39999999997831481 -0.39999999997463576 -5.9612661689666657 
9000.0000000000000 8000.0000000000000 -1666.6666666670001 -24638414.689770855 1591093.5053606122 -40856614.826492012 -1.2411448804043080e-05 -0.0016865014876018252 0.00089766300169807521 0.39999999997842517 -0.79999999994892501 -5.9612661690543609 
8000.0000000000000 7000.0000000000000 -4833.3333333330002 -46505023.114891440 -20275514.938943751 -118383681.09425032 0.00027330626996746073 -0.00025290260881085785 0.00020624621764170719 0.79999999935709898 -1.1999999989698651 -0.43948932213423392 
7000.0000000000000 7000.0000000000000 -4833.3333333330002 -46505023.113711342 -20275514.936883368 -118383681.08666566 0.00014911783490930065 -0.00026155775115244156 0.00023408464453535105 1.1999999990528460 -1.1999999989780388 -0.43948932210725250 
7000.0000000000000 8000.0000000000000 -4833.3333333330002 -46505023.111668348 -20275514.935551055 -118383681.07919979 9.6006218667049368e-05 -0.00022090900104414422 0.00022744948744699600 1.1999999990562185 -0.79999999931172705 -0.43948932207913183 
8000.0000000000000 7000.0000000000000 -5000.0000000000000 -47079971.021475405 -20850462.845613092 -120422132.76320079 0.00027771367572925452 -0.00013117455972749297 0.00010644997695587888 0.79999999935410215 -1.1999999989654238 0.0000000000000000 
7000.0000000000000 7000.0000000000000 -5000.0000000000000 -47079971.020198748 -20850462.843450315 -120422132.75526243 0.00014896299103793888 -0.00013535599341475791 0.00012224482076018291 1.1999999990485657 -1.1999999989737313 0.0000000000000000 
7000.0000000000000 8000.0000000000000 -5000.0000000000000 -47079971.018059060 -20850462.842029270 -120422132.74746184 9.5368602465940917e-05 -0.00011343512094157411 0.00011886106125803892 1.1999999990518848 -0.79999999930861632 0.0000000000000000 
8000.0000000000000 7000.0000000000000 -4666.6666666669998 -45355075.838485032 -19125567.662287526 -114306595.29563349 0.00026128744523459552 -0.00047816397583245681 0.00039293264718988455 0.79999999936579314 -1.1999999989827705 -0.86409968934914094 
7000.0000000000000 7000.0000000000000 -4666.6666666669998 -45355075.837490700 -19125567.660430666 -114306595.28874809 0.00014934829382843743 -0.00049606473273746960 0.00043780751110555292 1.1999999990652788 -1.1999999989906005 -0.86409968929718406 
7000.0000000000000 8000.0000000000000 -4666.6666666669998 -45355075.835639805 -19125567.659267787 -114306595.28194253 9.7513175330654115e-05 -0.00042451115240143791 0.00042506186267501336 1.1999999990687702 -0.79999999932071753 -0.86409968924340963 
8000.0000000000000 7000.0000000000000 -4500.0000000000000 -44205025.630978368 -17975517.454381283 -110229144.55920671 0.00024413955134749217 -0.00066845932637454809 0.00055470663577096048 0.79999999937959476 -1.1999999990033177 -1.2738297698424859 
7000.0000000000000 7000.0000000000000 -4500.0000000000000 -44205025.630153179 -17975517.452723496 -110229144.55300298 0.00014918583533916663 -0.00069585080626637834 0.00060360035598758016 1.1999999990850403 -1.1999999990106842 -1.2738297697676095 
7000.0000000000000 8000.0000000000000 -4500.0000000000000 -44205025.628490590 -17975517.451714013 -110229144.54683876 9.9101068769526259e-05 -0.00060647186537197907 0.00058572532597261700 1.1999999990886545 -0.79999999933494514 -1.2738297696905787 
8000.0000000000000 7000.0000000000000 -4333.3333333330002 -43054872.483129911 -16825364.305999838 -106151328.85223199 0.00022401982153626802 -0.00082691042640008607 0.00069357682655456980 0.79999999939793132 -1.1999999990307133 -1.6686782316848610 
7000.0000000000000 7000.0000000000000 -4333.3333333330002 -43054872.482454322 -16825364.304533549 -106151328.84668957 0.00014825431432687018 -0.00086343661855384571 0.00073576553463267308 1.1999999991113113 -1.1999999990375516 -1.6686782315891580 
7000.0000000000000 8000.0000000000000 -4333.3333333330002 -43054872.480974041 -16825364.303661469 -106151328.84114632 0.00010017779865340945 -0.00076876462084375186 0.00071401069797438353 1.1999999991150225 -0.79999999935383126 -1.6686782314911928 
8000.0000000000000 7000.0000000000000 -4166.6666666669998 -41904616.385698013 -15675108.207917079 -102073148.14197119 0.00020241177152200194 -0.00095704766931159198 0.00081187019001556027 0.79999999942025302 -1.1999999990642018 -2.0486437428277111 
7000.0000000000000 7000.0000000000000 -4166.6666666669998 -41904616.385151401 -15675108.206632752 -102073148.13706680 0.00014633776169012386 -0.0010019875924740748 0.00083904837381977527 1.1999999991433050 -1.1999999990704795 -2.0486437427132898 
7000.0000000000000 8000.0000000000000 -4166.6666666669998 -41904616.383845769 -15675108.205882179 -102073148.13212273 0.00010043330579480406 -0.00091319619042922406 0.00081473654603762249 1.1999999991470736 -0.79999999937684363 -2.0486437425966382 
8000.0000000000000 7000.0000000000000 -4000.0000000000000 -40754257.329436041 -14524749.150900783 -97994602.395667613 0.00018033207169259168 -0.0010625909877550444 0.00091206003805978896 0.79999999944603828 -1.1999999991030703 -2.4137249711097852 
7000.0000000000000 7000.0000000000000 -4000.0000000000000 -40754257.328997947 -14524749.149787707 -97994602.391375303 0.00014333272138018148 -0.0011150450721075873 0.00091826728642682622 1.1999999991802797 -1.1999999991087755 -2.4137249709787416 
7000.0000000000000 8000.0000000000000 -4000.0000000000000 -40754257.327858157 -14524749.149143096 -97994602.387007207 9.9728805233881084e-05 -0.0010414952017443093 0.00089266436867482118 1.1999999991840615 -0.79999999940348754 -2.4137249708455708 
8000.0000000000000 7000.0000000000000 -3833.3333333330002 -39603795.305102959 -13374287.125722973 -93915691.580582798 0.00015846786190498808 -0.0011472781541400114 0.00099659495374393382 0.79999999947479816 -1.1999999991466508 -2.7639205842434551 
7000.0000000000000 7000.0000000000000 -3833.3333333330002 -39603795.304753974 -13374287.124769814 -93915691.576874167 0.00013921187137732425 -0.0012062540866991200 0.00097802530811197125 1.1999999992215498 -1.1999999991517860 -2.7639205840978551 
7000.0000000000000 8000.0000000000000 -3833.3333333330002 -39603795.303770430 -13374287.124216266 -93915691.573057592 9.8022183117363386e-05 -0.0011553069919889238 0.00095229119051075048 1.1999999992252992 -0.79999999943330102 -2.7639205839502528 
8000.0000000000000 7000.0000000000000 -3666.6666666669998 -38453230.303458199 -12223722.123154767 -89836415.663978219 0.00013727544123788950 -0.0012147616231353050 0.0010677992128324929 0.79999999950607836 -1.1999999991943240 -3.0992292498219496 
7000.0000000000000 7000.0000000000000 -3666.6666666669998 -38453230.303180583 -12223722.122349938 -89836415.660822764 0.00013399861617388988 -0.0012792457276356924 0.0010225527123433550 1.1999999992664858 -1.1999999991988994 -3.0992292496638045 
7000.0000000000000 8000.0000000000000 -3666.6666666669998 -38453230.302343190 -12223722.121873505 -89836415.657531753 9.5329916666087622e-05 -0.0012562052928359218 0.00099771519300258910 1.1999999992701598 -0.79999999946585221 -3.0992292495037712 
8000.0000000000000 7000.0000000000000 -3500.0000000000000 -37302562.315256514 -11073054.133961186 -85756774.613096654 0.00011704615778213290 -0.0012684790779573568 0.0011277992186391713 0.79999999953945888 -1.1999999992455190 -3.4196496353249870 
7000.0000000000000 7000.0000000000000 -3500.0000000000000 -37302562.315034583 -11073054.133293100 -85756774.610462010 0.00012774605501562100 -0.0013374741189043839 0.0010556362501692876 1.1999999993145163 -1.1999999992495491 -3.4196496351562362 
7000.0000000000000 8000.0000000000000 -3500.0000000000000 -37302562.314333037 -11073054.132881131 -85756774.607669502 9.1703588103673697e-05 -0.0013456344134895528 0.0010325697864636213 1.1999999993180734 -0.79999999950073986 -3.4196496349856820 
8000.0000000000000 7000.0000000000000 -3333.3333333330002 -36151791.331258409 -9922283.1489116251 -81676768.395199329 9.7955182464090894e-05 -0.0013115616453246222 0.0011784557636912267 0.79999999957455525 -1.1999999992997112 -3.7251804081067097 
7000.0000000000000 7000.0000000000000 -3333.3333333330002 -36151791.331078805 -9922283.1483688932 -81676768.393051654 0.00012052485093185293 -0.0013841067888117032 0.0010805448439057995 1.1999999993651242 -1.1999999993032155 -3.7251804079292019 
7000.0000000000000 8000.0000000000000 -3333.3333333330002 -36151791.330502771 -9922283.1480103210 -81676768.390729412 8.7209562808683621e-05 -0.0014248737625021800 0.0010599574720644217 1.1999999993685273 -0.79999999953758993 -3.7251804077499426 
8000.0000000000000 7000.0000000000000 -3166.6666666669998 -35000917.342224851 -8771409.1587747019 -77596396.977547452 8.0091309678195294e-05 -0.0013467895789714961 0.0012213274858121096 0.79999999961101687 -1.1999999993564232 -4.0158202354021144 
7000.0000000000000 7000.0000000000000 -3166.6666666669998 -35000917.342076704 -8771409.1583462227 -77596396.975851476 0.00011241251785159908 -0.0014219782081435625 0.0011000020863374295 1.1999999994178472 -1.1999999993594219 -4.0158202352175989 
7000.0000000000000 8000.0000000000000 -3166.6666666669998 -35000917.341615960 -8771409.1580318250 -77596396.973970205 8.1920324584144733e-05 -0.0014950259337698723 0.0010824519038720778 1.1999999994210606 -0.79999999957605494 -4.0158202350313452 
8000.0000000000000 7000.0000000000000 -3000.0000000000000 -33849940.338912107 -7620432.1543130735 -73515660.327383608 6.3481049125682537e-05 -0.0013764890674295017 0.0012576438116674007 0.79999999964852497 -1.1999999994152208 -4.2915677843318827 
7000.0000000000000 7000.0000000000000 -3000.0000000000000 -33849940.338787071 -7620432.1539881714 -73515660.326103151 0.00010348638224576132 -0.0014534749200004235 0.0011161974882038987 1.1999999994722697 -1.1999999994177351 -4.2915677841419937 
7000.0000000000000 8000.0000000000000 -3000.0000000000000 -33849940.338431716 -7620432.1537108319 -73515660.324632660 7.5910058241871866e-05 -0.0015569330585574188 0.0011020931190826937 1.1999999994752624 -0.79999999961581370 -4.2915677839503497 
8000.0000000000000 7000.0000000000000 -2833.3333333330002 -32698860.312082093 -6469352.1262939777 -69434558.411968961 4.8107092174278036e-05 -0.0014025139325613137 0.0012882931191322312 0.79999999968679125 -1.1999999994757105 -4.5524217218919212 
7000.0000000000000 7000.0000000000000 -2833.3333333330002 -32698860.311974466 -6469352.1260624677 -69434558.411067039 9.3817997569703736e-05 -0.0014805192309416144 0.0011307724743849126 1.1999999995280215 -1.1999999994777613 -4.5524217216981633 
7000.0000000000000 8000.0000000000000 -2833.3333333330002 -32698860.311714906 -6469352.1258173529 -69434558.409976155 6.9247310964555575e-05 -0.0016111755349489084 0.0011203506782023979 1.1999999995307657 -0.79999999965656787 -4.5524217215026219 
8000.0000000000000 7000.0000000000000 -2666.6666666669998 -31547677.252497051 -5318169.0654839855 -65353091.198564403 3.3912578265950806e-05 -0.0014261920304267208 0.0013138140031318734 0.79999999972555469 -1.1999999995375361 -4.7983807149589888 
7000.0000000000000 7000.0000000000000 -2666.6666666669998 -31547677.252403729 -5318169.0653362246 -65353091.198003523 8.3464297281833820e-05 -0.0015045073706372884 0.0011448091988995183 1.1999999995847748 -1.1999999995391437 -4.7983807147627369 
7000.0000000000000 8000.0000000000000 -2666.6666666669998 -31547677.252230860 -5318169.0651209950 -65353091.197260283 6.1991053949701880e-05 -0.0016580307940061375 0.0011381690854534155 1.1999999995872448 -0.79999999969804114 -4.7983807145646677 
8000.0000000000000 7000.0000000000000 -2500.0000000000000 -30396391.150914375 -4166882.9626439423 -61271258.654412374 2.0810349793296310e-05 -0.0014482922586550391 0.0013343930469730859 0.79999999976458025 -1.1999999996003743 -5.0294434302947257 
7000.0000000000000 7000.0000000000000 -2500.0000000000000 -30396391.150834858 -4166882.9625708694 -61271258.654154710 7.2472727377260562e-05 -0.0015262780544488738 0.0011588622947558427 1.1999999996422357 -1.1999999996015573 -5.0294434300972135 
7000.0000000000000 8000.0000000000000 -2500.0000000000000 -30396391.150740139 -4166882.9623858784 -61271258.653726570 5.4189668747252960e-05 -0.0016974432578705592 0.0011559722322255969 1.1999999996444075 -0.79999999973997515 -5.0294434298978574 
8000.0000000000000 7000.0000000000000 -2333.3333333330002 -29245001.998097010 -3015493.8085394716 -57189060.746773861 8.6879075894224464e-06 -0.0014690155306842007 0.0013498556473109994 0.79999999980365366 -1.1999999996639303 -5.2456085345367960 
7000.0000000000000 7000.0000000000000 -2333.3333333330002 -29245001.998033360 -3015493.8085326273 -57189060.746781342 6.0881324495340837e-05 -0.0015460878014444215 0.0011729394616222333 1.1999999997001434 -1.1999999996647064 -5.2456085343391115 
7000.0000000000000 8000.0000000000000 -2333.3333333330002 -29245001.998008858 -3015493.8083810648 -57189060.746635243 4.5882639589758277e-05 -0.0017290040040296539 0.0011736496570911479 1.1999999997019957 -0.79999999978212943 -5.2456085341395786 
8000.0000000000000 7000.0000000000000 -2166.6666666669998 -28093509.784808073 -1864001.5939357402 -53106497.442909680 -2.5978986494800117e-06 -0.0014879443287001387 0.0013596752447253744 0.79999999984257997 -1.1999999997279327 -5.4468746942037205 
7000.0000000000000 7000.0000000000000 -2166.6666666669998 -28093509.784764975 -1864001.5939873753 -53106497.443144441 4.8709410707322207e-05 -0.0015635640698707857 0.0011865365760372140 1.1999999997582629 -1.1999999997283159 -5.4468746940068007 
7000.0000000000000 8000.0000000000000 -2166.6666666669998 -28093509.784803428 -1864001.5938753623 -53106497.443246685 3.7098501767490075e-05 -0.0017519090246441520 0.0011905760414482047 1.1999999997597748 -0.79999999982427483 -5.4468746938080645 
8000.0000000000000 7000.0000000000000 -2000.0000000000000 -26941914.501805678 -712406.30959237309 -49023568.710062116 -1.3221262637592512e-05 -0.0015040193477447029 0.0013629725044592262 0.79999999988118042 -1.1999999997921298 -5.6332405756980943 
7000.0000000000000 7000.0000000000000 -2000.0000000000000 -26941914.501790393 -712406.30969545210 -49023568.710486583 3.5962283440571543e-05 -0.0015776943082113472 0.0011986331993577059 1.1999999998163811 -1.1999999997921302 -5.6332405755027199 
7000.0000000000000 8000.0000000000000 -2000.0000000000000 -26941914.501885258 -712406.30963220203 -49023568.710802987 2.7856049691827200e-05 -0.0017649567757068013 0.0012056350514154303 1.1999999998175335 -0.79999999986619408 -5.6332405753056101 
8000.0000000000000 7000.0000000000000 -1833.3333333329999 -25790216.139853265 439292.05372609477 -44940274.515491843 -2.3388582698324701e-05 -0.0015155349828352010 0.0013585062628863399 0.79999999991928761 -1.1999999998562816 -5.8047048452993408 
7000.0000000000000 7000.0000000000000 -1833.3333333329999 -25790216.139875639 439292.05357785826 -44940274.516068779 2.2635619008466703e-05 -0.0015868035782418402 0.0012076641952124009 1.1999999998743018 -1.1999999998559050 -5.8047048451061434 
7000.0000000000000 8000.0000000000000 -1833.3333333329999 -25790216.140021175 439292.05357989157 -44940274.516564831 1.8167263324658882e-05 -0.0017665269526184343 0.0012171864285191458 1.1999999998750759 -0.79999999990767501 -5.8047048449113330 
8000.0000000000000 7000.0000000000000 -1666.6666666670001 -24638414.689714368 1591093.5052553115 -40856614.826459624 -3.3347437189253439e-05 -0.0015201068223393275 0.0013446798143008901 0.79999999995674276 -1.1999999999201556 -5.9612661691677395 
7000.0000000000000 7000.0000000000000 -1666.6666666670001 -24638414.689786892 1591093.5050673825 -40856614.827152424 8.7098384527186763e-06 -0.0015885149944259813 0.0012115512710647090 1.1999999999318405 -1.1999999999194026 -5.9612661689771844 
7000.0000000000000 8000.0000000000000 -1666.6666666670001 -24638414.689978182 1591093.5049924478 -40856614.827792957 8.0329966418253955e-06 -0.0017545586200749864 0.0012230728353858386 1.1999999999322180 -0.79999999994850857 -5.9612661687851949 
8000.0000000000000 6000.0000000000000 -4833.3333333330002 -46505023.117818475 -20275514.940099947 -118383681.10604605 0.00040351427137308091 -0.00016760358956502018 0.00016791797330700361 0.79999999934435539 -1.5999999986608855 -0.43948932217991071 
8000.0000000000000 5000.0000000000000 -4833.3333333330002 -46505023.121687889 -20275514.940399881 -118383681.12283549 0.00045831839483036001 2.5013827165868887e-05 0.00011054772448224439 0.79999999932775878 -1.9999999984265882 -0.43948932224820375 
7000.0000000000000 5000.0000000000000 -4833.3333333330002 -46505023.120661885 -20275514.938229695 -118383681.11400402 0.00020383547942696696 -1.6528320529205278e-06 0.00023340376282858746 1.1999999990412047 -1.9999999984412591 -0.43948932220964204 
7000.0000000000000 6000.0000000000000 -4833.3333333330002 -46505023.116702646 -20275514.937988669 -118383681.09796393 0.00018997893166459418 -0.00018961211953390526 0.00023518372359183435 1.1999999990474428 -1.5999999986737152 -0.43948932214792397 
8000.0000000000000 6000.0000000000000 -5000.0000000000000 -47079971.024538867 -20850462.846896715 -120422132.77547406 0.00041143681526572900 -9.0127291031851978e-05 8.7398015489384927e-05 0.79999999934104060 -1.5999999986551543 0.0000000000000000 
8000.0000000000000 5000.0000000000000 -5000.0000000000000 -47079971.028593309 -20850462.847364761 -120422132.79291724 0.00046778590772584416 4.4621417945636130e-06 5.8934821953871416e-05 0.79999999932402244 -1.9999999984198440 0.0000000000000000 
7000.0000000000000 5000.0000000000000 -5000.0000000000000 -47079971.027451791 -20850462.845062617 -120422132.78360249 0.00020420591054063749 -8.3539596427976771e-06 0.00012179878674880017 1.1999999990368984 -1.9999999984348622 0.0000000000000000 
7000.0000000000000 6000.0000000000000 -5000.0000000000000 -47079971.023319162 -20850462.844671629 -120422132.76698771 0.00019033497189677767 -0.00010079536898667397 0.00012276994647301552 1.1999999990431487 -1.5999999986682858 0.0000000000000000 
8000.0000000000000 6000.0000000000000 -4666.6666666669998 -45355075.841142565 -19125567.663201451 -114306595.30648842 0.00038213833615793457 -0.00029858748703611132 0.00031638677095619389 0.79999999935385868 -1.5999999986774827 -0.86409968943706317 
8000.0000000000000 5000.0000000000000 -4666.6666666669998 -45355075.844650313 -19125567.663189813 -114306595.32199830 0.00043289648003485605 9.5780624980189516e-05 0.00020150184030338266 0.79999999933834043 -1.9999999984460255 -0.86409968956879368 
7000.0000000000000 5000.0000000000000 -4666.6666666669998 -45355075.843831956 -19125567.661272265 -114306595.31410535 0.00020267429445678344 4.0275899396412736e-05 0.00043695419484012426 1.1999999990537098 -1.9999999984598171 -0.86409968949610227 
7000.0000000000000 6000.0000000000000 -4666.6666666669998 -45355075.840220854 -19125567.661312658 -114306595.29919891 0.00018887090669046717 -0.00034385890036109324 0.00044009311669170726 1.1999999990599106 -1.5999999986895532 -0.86409968937620629 
8000.0000000000000 6000.0000000000000 -4500.0000000000000 -44205025.633374564 -17975517.455079377 -110229144.56914988 0.00035219523373426103 -0.00038436369826143867 0.00044182796861120470 0.79999999936872790 -1.5999999987037976 -1.2738297699693233 
8000.0000000000000 5000.0000000000000 -4500.0000000000000 -44205025.636538550 -17975517.454805706 -110229144.58343604 0.00039762361372014268 0.00022084156819578179 0.00027189981515162625 0.79999999935463950 -1.9999999984766430 -1.2738297701598338 
7000.0000000000000 5000.0000000000000 -4500.0000000000000 -44205025.635886729 -17975517.453119591 -110229144.57642700 0.00020060322600037007 0.00013564965348896723 0.00060294066312242215 1.1999999990735846 -1.9999999984892864 -1.2738297700571268 
7000.0000000000000 6000.0000000000000 -4500.0000000000000 -44205025.632620707 -17975517.453402311 -110229144.56262113 0.00018691263247389884 -0.00045296452868623485 0.00060702897525718677 1.1999999990797237 -1.5999999987148779 -1.2738297698825791 
8000.0000000000000 6000.0000000000000 -4333.3333333330002 -43054872.485275432 -16825364.306510586 -106151328.86129364 0.00031783990023815159 -0.00043069996912325614 0.00054808722082464465 0.79999999938824751 -1.5999999987387576 -1.6686782318473798 
8000.0000000000000 5000.0000000000000 -4333.3333333330002 -43054872.488115847 -16825364.306024387 -106151328.87441149 0.00035770282420825004 0.00039007733470701694 0.00032845065246111090 0.79999999937574606 -1.9999999985170729 -1.6686782320921958 
7000.0000000000000 5000.0000000000000 -4333.3333333330002 -43054872.487598494 -16825364.304550737 -106151328.86823452 0.00019749029313304790 0.00027662113861371014 0.00073521424983470087 1.1999999991000161 -1.9999999985284589 -1.6686782319632838 
7000.0000000000000 6000.0000000000000 -4333.3333333330002 -43054872.484664962 -16825364.305033568 -106151328.85549320 0.00018399146404724388 -0.00052098097580635563 0.00074007665808992348 1.1999999991060657 -1.5999999987487519 -1.6686782317376001 
8000.0000000000000 6000.0000000000000 -4166.6666666669998 -41904616.387605503 -15675108.208269805 -102073148.15018298 0.00028182317236631670 -0.00044378811046599277 0.00063838664006000750 0.79999999941178057 -1.5999999987813676 -2.0486437430227693 
8000.0000000000000 5000.0000000000000 -4166.6666666669998 -41904616.390144214 -15675108.207619673 -102073148.16218774 0.00031655802348732389 0.00059340159503585091 0.00037582738353372596 0.79999999940089939 -1.9999999985660855 -2.0486437433175904 
7000.0000000000000 5000.0000000000000 -4166.6666666669998 -41904616.389734983 -15675108.206341028 -102073148.15679288 0.00019323323745511496 0.00045440944539362299 0.00083812271608062596 1.1999999991322252 -1.9999999985762023 -2.0486437431660041 
7000.0000000000000 6000.0000000000000 -4166.6666666669998 -41904616.387115516 -15675108.206980545 -102073148.14507747 0.00018001567537949693 -0.00055321008303253164 0.00084380875799793496 1.1999999991381545 -1.5999999987902600 -2.0486437428926831 
8000.0000000000000 6000.0000000000000 -4000.0000000000000 -40754257.331119515 -14524749.151124675 -97994602.403062582 0.00024593338835028172 -0.00042998131373920829 0.00071552581948016835 0.79999999943875266 -1.5999999988307112 -2.4137249713343283 
8000.0000000000000 5000.0000000000000 -4000.0000000000000 -40754257.333379455 -14524749.150357425 -97994602.414009392 0.00027635008286341906 0.00082096405723791014 0.00041738983571940882 0.79999999942944922 -1.9999999986225847 -2.4137249716750175 
7000.0000000000000 5000.0000000000000 -4000.0000000000000 -40754257.333056048 -14524749.149257455 -97994602.409348160 0.00018778199029362771 0.00065982992480880019 0.00091619500990702926 1.1999999991694776 -1.9999999986314771 -2.4137249715040325 
7000.0000000000000 6000.0000000000000 -4000.0000000000000 -40754257.330728792 -14524749.150010535 -97994602.398617506 0.00017493272959924927 -0.00055563454821461482 0.00092294293953868855 1.1999999991752528 -1.5999999988385296 -2.4137249711865389 
8000.0000000000000 6000.0000000000000 -3833.3333333330002 -39603795.306577325 -13374287.125846293 -93915691.587195441 0.00021129607446172948 -0.00039558750620148251 0.00078193151195045754 0.79999999946864342 -1.5999999988859508 -2.7639205844945249 
8000.0000000000000 5000.0000000000000 -3833.3333333330002 -39603795.308581814 -13374287.125006203 -93915691.597139105 0.00023834572969481482 0.0010633661687025355 0.00045557561188954137 0.79999999946083111 -1.9999999986856047 -2.7639205848771065 
7000.0000000000000 5000.0000000000000 -3833.3333333330002 -39603795.308325104 -13374287.124069575 -93915691.593164042 0.00018113862410214958 0.00088374642394701251 0.00097387237152906704 1.1999999992110923 -1.9999999986933472 -2.7639205846897594 
7000.0000000000000 6000.0000000000000 -3833.3333333330002 -39603795.306266524 -13374287.124894556 -93915691.583375245 0.00016873472569425518 -0.00053446295969799347 0.00098203593621684344 1.1999999992166777 -1.5999999988927465 -2.7639205843315091 
8000.0000000000000 6000.0000000000000 -3666.6666666669998 -38453230.304738805 -12223722.123204166 -89836415.669844300 0.00017858146982030042 -0.00034668693334946176 0.00083970621640394594 0.79999999950098100 -1.5999999989463272 -3.0992292500966836 
8000.0000000000000 5000.0000000000000 -3666.6666666669998 -38453230.306510977 -12223722.122332372 -89836415.678839117 0.00020319138897812643 0.0013118029525140875 0.00049216623756188297 0.79999999949454859 -1.9999999987543047 -3.0992292505173404 
7000.0000000000000 5000.0000000000000 -3666.6666666669998 -38453230.306304649 -12223722.121544711 -89836415.675503582 0.00017334219265386348 0.0011173505569321532 0.0010153354223155213 1.1999999992564410 -1.9999999987609836 -3.0992292503164438 
7000.0000000000000 6000.0000000000000 -3666.6666666669998 -38453230.304490715 -12223722.122402230 -89836415.666612372 0.00016144968691642739 -0.00049585385104089854 0.0010253095476996264 1.1999999992618020 -1.5999999989521609 -3.0992292499207923 
8000.0000000000000 6000.0000000000000 -3500.0000000000000 -37302562.316358820 -11073054.133961169 -85756774.618253201 0.00014814415491492256 -0.00028900049042336688 0.00089063207627587031 0.79999999953533696 -1.5999999990111573 -3.4196496356206256 
8000.0000000000000 5000.0000000000000 -3500.0000000000000 -37302562.317921259 -11073054.133095274 -85756774.626352876 0.00017110887399496963 0.0015581630128828695 0.00052842209081905461 0.79999999953016321 -1.9999999988279600 -3.4196496360756998 
7000.0000000000000 5000.0000000000000 -3500.0000000000000 -37302562.317751504 -11073054.132443069 -85756774.623610750 0.00016445846597425585 0.0013523631529649316 0.0010444245749347792 1.1999999993049515 -1.9999999988336639 -3.4196496358638546 
7000.0000000000000 6000.0000000000000 -3500.0000000000000 -37302562.316158473 -11073054.133296706 -85756774.615571976 0.00015312787286826730 -0.00044569887793713837 0.0010565973062484498 1.1999999993100523 -1.5999999990160965 -3.4196496354340726 
8000.0000000000000 6000.0000000000000 -3333.3333333330002 -36151791.332197651 -9922283.1488841027 -81676768.399684504 0.00012012482747244932 -0.00022776023050945720 0.00093615808722326255 0.79999999957132395 -1.5999999990798344 -3.7251804084206048 
8000.0000000000000 5000.0000000000000 -3333.3333333330002 -36151791.333571985 -9922283.1480578557 -81676768.406941786 0.00014204206360541899 0.0017951031087589484 0.00056515943717793597 0.79999999956728651 -1.9999999989059594 -3.7251804089065961 
7000.0000000000000 5000.0000000000000 -3333.3333333330002 -36151791.333427504 -9922283.1475284453 -81676768.404747322 0.00015456965833090782 0.0015811794113870386 0.0010645383512152473 1.1999999993561052 -1.9999999989107704 -3.7251804086861964 
7000.0000000000000 6000.0000000000000 -3333.3333333330002 -36151791.332032487 -9922283.1483451705 -81676768.397515476 0.00014383641438229133 -0.00038945815362257405 0.0010792489112680728 1.1999999993609125 -1.5999999990839433 -3.7251804082254685 
8000.0000000000000 6000.0000000000000 -3166.6666666669998 -35000917.343015864 -8771409.1587385908 -77596396.981400147 9.4521258824224408e-05 -0.00016764102564413162 0.00097739952433627546 0.79999999960859158 -1.5999999991518212 -4.0158202357317379 
8000.0000000000000 5000.0000000000000 -3166.6666666669998 -35000917.344222546 -8771409.1579816844 -77596396.987866551 0.00011576545090877740 0.0020160280888713560 0.00060281796310997476 0.79999999960557322 -1.9999999989877923 -4.0158202362453084 
7000.0000000000000 5000.0000000000000 -3166.6666666669998 -35000917.344094455 -8771409.1575632691 -77596396.986174554 0.00014375962251415110 0.0017969126766215759 0.0010785863926454596 1.1999999994094344 -1.9999999989917865 -4.0158202360185484 
7000.0000000000000 6000.0000000000000 -3166.6666666669998 -35000917.342875794 -8771409.1583137214 -77596396.979704142 0.00013364894431032009 -0.00033205060670870202 0.0010960838993815422 1.1999999994139168 -1.5999999991551628 -4.0158202355299473 
8000.0000000000000 6000.0000000000000 -3000.0000000000000 -33849940.339569129 -7620432.1542840730 -73515660.330643624 7.1237053843693023e-05 -0.00011269680328452144 0.0010151249589282544 0.79999999964682433 -1.5999999992266480 -4.2915677846748332 
8000.0000000000000 5000.0000000000000 -3000.0000000000000 -33849940.340627261 -7620432.1536220498 -73515660.336369336 9.1956312880694442e-05 0.0022151227804356848 0.00064149293899305835 0.79999999964471591 -1.9999999990730455 -4.2915677852128065 
7000.0000000000000 5000.0000000000000 -3000.0000000000000 -33849940.340509102 -7620432.1533036288 -73515660.335134849 0.00013210839619460829 0.0019934444825458753 0.0010889625670780039 1.1999999994645210 -1.9999999990762869 -4.2915677849816811 
7000.0000000000000 6000.0000000000000 -3000.0000000000000 -33849940.339446582 -7620432.1539623337 -73515660.329380825 0.00012263762881802558 -0.00027777799816154831 0.0011093958344661258 1.1999999994686485 -1.5999999992292808 -4.2915677844681701 
8000.0000000000000 6000.0000000000000 -2833.3333333330002 -32698860.312618639 -6469352.1262843069 -69434558.414676636 5.0118725995076892e-05 -6.6304392189822794e-05 0.0010497768928137631 0.79999999968573787 -1.5999999993039060 -4.5524217222459322 
8000.0000000000000 5000.0000000000000 -2833.3333333330002 -32698860.313545890 -6469352.1257384932 -69434558.419710279 7.0250468746932057e-05 0.0023873560438036063 0.00068097354735237585 0.79999999968443991 -1.9999999991613895 -4.5524217228052946 
7000.0000000000000 5000.0000000000000 -2833.3333333330002 -32698860.313433595 -6469352.1255098423 -69434558.418888673 0.00011968323170542342 0.0021654417986377364 0.0010975357832820661 1.1999999995209907 -1.9999999991639310 -4.5524217225716024 
7000.0000000000000 6000.0000000000000 -2833.3333333330002 -32698860.312508579 -6469352.1260553636 -69434558.413806841 0.00011086860243277733 -0.00023027604333487661 0.0011209534393448713 1.1999999995247361 -1.5999999993058838 -4.5524217220360166 
8000.0000000000000 6000.0000000000000 -2666.6666666669998 -31547677.252925821 -5318169.0655022124 -65353091.200760528 3.0975470692667494e-05 -3.1131515684520067e-05 0.0010814666865252395 0.79999999972507752 -1.5999999993832434 -4.7983807153219393 
8000.0000000000000 5000.0000000000000 -2666.6666666669998 -31547677.253738418 -5318169.0650897436 -65353091.205149323 5.0278865558082275e-05 0.0025284526120888224 0.00072075771287988895 0.79999999972450109 -1.9999999992525745 -4.7983807158998415 
7000.0000000000000 5000.0000000000000 -2666.6666666669998 -31547677.253630307 -5318169.0649413811 -65353091.204696313 0.00010653270152609639 0.0023083482541586585 0.0011056419649591127 1.1999999995785118 -1.9999999992544579 -4.7983807156651830 
7000.0000000000000 6000.0000000000000 -2666.6666666669998 -31547677.252825748 -5318169.0653563375 -65353091.200243279 9.8391815798337738e-05 -0.00019245717476021180 0.0011319657355208035 1.1999999995818493 -1.5999999993846143 -4.7983807151102313 
8000.0000000000000 6000.0000000000000 -2500.0000000000000 -30396391.151247207 -4166882.9626948722 -61271258.656138249 1.3595090561668336e-05 -9.1262662325822925e-06 0.0011099623745357645 0.79999999976461367 -1.5999999994643574 -5.0294434306646432 
8000.0000000000000 5000.0000000000000 -2500.0000000000000 -30396391.151959930 -4166882.9624286806 -61271258.659927994 3.1684971872281136e-05 0.0026348463238397460 0.00076004323288851063 0.79999999976468061 -1.9999999993464166 -5.0294434312584064 
7000.0000000000000 5000.0000000000000 -2500.0000000000000 -30396391.151856679 -4166882.9623518153 -61271258.659799568 9.2685913735572839e-05 0.0024183293448422081 0.0011140475311256562 1.1999999996367883 -1.9999999993476756 -5.0294434310241849 
7000.0000000000000 6000.0000000000000 -2500.0000000000000 -30396391.151157141 -4166882.9626229559 -61271258.655932926 8.5244477614072192e-05 -0.00016651619366174996 0.0011430901455330659 1.1999999996396935 -1.5999999994651632 -5.0294434304524378 
8000.0000000000000 6000.0000000000000 -2333.3333333330002 -29245001.998344790 -3015493.8086239733 -57189060.748071112 -2.2500371452626433e-06 -1.5103430596704649e-06 0.0011347115872203327 0.79999999980413949 -1.5999999995469878 -5.2456085349118693 
8000.0000000000000 5000.0000000000000 -2333.3333333330002 -29245001.998970944 -3015493.8085127389 -57189060.751306146 1.4137189912187834e-05 0.0027036696253852706 0.00079776473433159929 0.79999999980478254 -1.9999999994427939 -5.2456085355189828 
7000.0000000000000 5000.0000000000000 -2333.3333333330002 -29245001.998875607 -3015493.8084992720 -57189060.751458660 7.8149113466115505e-05 0.0024922917341365846 0.0011229778758603814 1.1999999996955568 -1.9999999994434527 -5.2456085352864070 
7000.0000000000000 6000.0000000000000 -2333.3333333330002 -29245001.998267207 -3015493.8086175285 -57189060.748137042 7.1449726806660700e-05 -0.00015387897586279851 0.0011544505236500684 1.1999999996980060 -1.5999999995472654 -5.2456085347002928 
8000.0000000000000 6000.0000000000000 -2166.6666666669998 -28093509.784980688 -1864001.5940506349 -53106497.443820231 -1.6806570852378447e-05 -8.7434351119953645e-06 0.0011548520346242996 0.79999999984346837 -1.5999999996309109 -5.4468746945823066 
8000.0000000000000 5000.0000000000000 -2166.6666666669998 -28093509.785532191 -1864001.5940987775 -53106497.446543686 -2.6697506492434121e-06 0.0027327577921137207 0.00083260577179402901 0.79999999984463066 -1.9999999995416347 -5.4468746952004334 
7000.0000000000000 5000.0000000000000 -2166.6666666669998 -28093509.785450164 -1864001.5941412596 -53106497.446933910 6.2907921986300091e-05 0.0025278738525274856 0.0011321372944070878 1.1999999997545814 -1.9999999995417101 -5.4468746949705054 
7000.0000000000000 6000.0000000000000 -2166.6666666669998 -28093509.784920614 -1864001.5941018681 -53106497.444117039 5.7009889245261691e-05 -0.00015518786393888272 0.0011656499377355209 1.1999999997565507 -1.5999999996306917 -5.4468746943723110 
8000.0000000000000 6000.0000000000000 -2000.0000000000000 -26941914.501911983 -712406.30973029474 -49023568.710628137 -3.0340119610403651e-05 -3.0499948478946798e-05 0.0011692071879839290 0.79999999988242998 -1.5999999997159322 -5.6332405760787259 
8000.0000000000000 5000.0000000000000 -2000.0000000000000 -26941914.502399378 -712406.30993790319 -49023568.712882161 -1.9021924775608230e-05 0.0027206464429171541 0.00086299425212569571 0.79999999988406501 -1.9999999996429116 -5.6332405767057017 
7000.0000000000000 5000.0000000000000 -2000.0000000000000 -26941914.502338395 -712406.31002950098 -49023568.713467352 4.6928919680621625e-05 0.0025234187508264348 0.0011406633128244661 1.1999999998136497 -1.9999999996424125 -5.6332405764792313 
7000.0000000000000 6000.0000000000000 -2000.0000000000000 -26941914.501876920 -712406.30983209901 -49023568.711115874 4.1911363802468049e-05 -0.00017030323631156581 0.0011757483617331887 1.1999999998151154 -1.5999999997152408 -5.6332405758710857 
8000.0000000000000 6000.0000000000000 -1833.3333333329999 -25790216.139901064 439292.05357680953 -44940274.515755922 -4.3147625746218220e-05 -6.5676685232763163e-05 0.0011763005751431006 0.79999999992086712 -1.5999999998018799 -5.8047048456807326 
8000.0000000000000 5000.0000000000000 -1833.3333333329999 -25790216.140333511 439292.05321412050 -44940274.517581895 -3.5205362301697689e-05 0.0026665548772481368 0.00088713220903819203 0.79999999992294069 -1.9999999997466311 -5.8047048463145767 
7000.0000000000000 5000.0000000000000 -1833.3333333329999 -25790216.140303656 439292.05307961500 -44940274.518319912 3.0158726116170539e-05 0.0024780097033261402 0.0011471630895741520 1.1999999998725654 -1.9999999997455620 -5.8047048460921715 
7000.0000000000000 6000.0000000000000 -1833.3333333329999 -25790216.139900986 439292.05343083711 -44940274.516395144 2.6124495646509583e-05 -0.00019825176880973650 0.0011832660915702558 1.1999999998735034 -1.5999999998007333 -5.8047048454760519 
8000.0000000000000 6000.0000000000000 -1666.6666666670001 -24638414.689710349 1591093.5051108112 -40856614.826464728 -5.5573864648096446e-05 -0.00011235683758537994 0.0011743545551326955 0.79999999995863280 -1.5999999998885956 -5.9612661695487992 
8000.0000000000000 5000.0000000000000 -1666.6666666670001 -24638414.690095656 1591093.5046021186 -40856614.827903479 -5.1528388427482092e-05 0.0025704225669654040 0.00090298976278788807 0.79999999996112436 -1.9999999998528268 -5.9612661701877130 
7000.0000000000000 5000.0000000000000 -1666.6666666670001 -24638414.690109342 1591093.5044302847 -40856614.828752972 1.2525888509531543e-05 0.0023914903560760107 0.0011497025221215923 1.1999999999311475 -1.9999999998511842 -5.9612661699697833 
7000.0000000000000 6000.0000000000000 -1666.6666666670001 -24638414.689757753 1591093.5049263088 -40856614.827216789 9.6024705855412484e-06 -0.00023719910744272036 0.0011861986168341526 1.1999999999315312 -1.5999999998870025 -5.9612661693475042 
5000.0000000000000 5000.0000000000000 -4833.3333333330002 -46505023.118895069 -20275514.932291426 -118383681.08872169 8.7557455555919555e-05 6.0713710908009868e-05 -3.9264748608458123e-05 1.9999999985799470 -1.9999999984347139 -0.43948932211558617 
6000.0000000000000 6000.0000000000000 -4833.3333333330002 -46505023.115561679 -20275514.935294814 -118383681.08675547 -1.0768956454538094e-05 -0.00017005758981396908 0.00016118248273603371 1.5999999987814937 -1.5999999986727875 -0.43948932210640634 
6000.0000000000000 5000.0000000000000 -4833.3333333330002 -46505023.119386882 -20275514.935627535 -118383681.10343306 -4.2988630024836272e-05 2.2895300564283752e-05 0.00021999847186886443 1.5999999987853586 -1.9999999984392873 -0.43948932217423081 
5000.0000000000000 5000.0000000000000 -5000.0000000000000 -47079971.025414318 -20850462.838857491 -120422132.75737160 8.3991564877160092e-05 2.1504264178101869e-05 -1.3089083840462770e-05 1.9999999985737642 -1.9999999984276231 0.0000000000000000 
6000.0000000000000 6000.0000000000000 -5000.0000000000000 -47079971.022046275 -20850462.841846552 -120422132.75530726 -1.7475778952406922e-05 -9.1408233963569834e-05 8.7116236440839412e-05 1.5999999987761546 -1.5999999986670908 0.0000000000000000 
6000.0000000000000 5000.0000000000000 -5000.0000000000000 -47079971.026056744 -20850462.842349473 -120422132.77264422 -5.1378421938460023e-05 3.3746209192192020e-06 0.00011638001670509170 1.5999999987804212 -1.9999999984325687 0.0000000000000000 
5000.0000000000000 5000.0000000000000 -4666.6666666669998 -45355075.842591509 -19125567.655858826 -114306595.29069747 9.6869985722181692e-05 0.00017058237879649066 -0.00011490994329274243 1.9999999985976760 -1.9999999984550259 -0.86409968931342518 
6000.0000000000000 6000.0000000000000 -4666.6666666669998 -45355075.839334533 -19125567.658875652 -114306595.28892291 6.8610571303689671e-06 -0.00030318444245570203 0.00028492023117663250 1.5999999987969533 -1.5999999986892897 -0.86409968929596659 
6000.0000000000000 5000.0000000000000 -4666.6666666669998 -45355075.842798889 -19125567.658892360 -114306595.30430974 -2.0986463217395097e-05 9.1665662550605034e-05 0.00040207398123602247 1.5999999987998146 -1.9999999984586481 -0.86409968942673476 
5000.0000000000000 5000.0000000000000 -4500.0000000000000 -44205025.635130979 -17975517.448210709 -110229144.55484459 0.00010906849252615294 0.00033584926481852414 -0.00023200833159113006 1.9999999986254360 -1.9999999984867585 -1.2738297697913523 
6000.0000000000000 6000.0000000000000 -4500.0000000000000 -44205025.631965891 -17975517.451210015 -110229144.55325232 3.0375143034194016e-05 -0.00039087774612770729 0.00036337832160679965 1.5999999988214404 -1.5999999987154554 -1.2738297697664567 
6000.0000000000000 5000.0000000000000 -4500.0000000000000 -44205025.635089815 -17975517.450960055 -110229144.56740463 8.1998135321834193e-06 0.00021464039486012855 0.00053528378322413399 1.5999999988230247 -1.9999999984891335 -1.2738297699554861 
5000.0000000000000 5000.0000000000000 -4333.3333333330002 -43054872.487267859 -16825364.300122134 -106151328.84842202 0.00012168993607218498 0.00054236983521684069 -0.00038111606285537751 1.9999999986619437 -1.9999999985283414 -1.6686782316200044 
6000.0000000000000 6000.0000000000000 -4333.3333333330002 -43054872.484211639 -16825364.303072419 -106151328.84700212 5.5595238344228603e-05 -0.00043920471798789766 0.00040370581364117172 1.5999999988539135 -1.5999999987502105 -1.6686782315884616 
6000.0000000000000 5000.0000000000000 -4333.3333333330002 -43054872.487017386 -16825364.302605622 -106151328.85997647 3.9222023780596116e-05 0.00038133723565511298 0.00062366417815283895 1.5999999988541516 -1.9999999985293686 -1.6686782318312525 
5000.0000000000000 5000.0000000000000 -4166.6666666669998 -41904616.389761128 -15675108.202366088 -102073148.13868953 0.00013312547447747039 0.00077757314210627222 -0.00055411120111633597 1.9999999987060906 -1.9999999985784096 -2.0486437427508384 
6000.0000000000000 6000.0000000000000 -4166.6666666669998 -41904616.386830956 -15675108.205236305 -102073148.13743109 7.9886466562819955e-05 -0.00045460407551338027 0.00041304604595054489 1.5999999988934039 -1.5999999987925582 -2.0486437427133950 
6000.0000000000000 5000.0000000000000 -4166.6666666669998 -41904616.389341876 -15675108.204601806 -102073148.14928457 6.8725125566912801e-05 0.00058141965442210278 0.00067285499691143130 1.5999999988923503 -1.9999999985781187 -2.0486437430056186 
5000.0000000000000 5000.0000000000000 -4000.0000000000000 -40754257.333367601 -14524749.145708177 -97994602.392888755 0.00014240433855552568 0.0010302953919139554 -0.00074365300302983316 1.9999999987569110 -1.9999999986357806 -2.4137249710225848 
6000.0000000000000 6000.0000000000000 -4000.0000000000000 -40754257.330580227 -14524749.148468759 -97994602.391780198 0.00010166124494555815 -0.00044362647991671338 0.00039823361630002589 1.5999999989390241 -1.5999999988415778 -2.4137249709799451 
6000.0000000000000 5000.0000000000000 -4000.0000000000000 -40754257.332819983 -14524749.147713933 -97994602.402570099 9.4744210740293800e-05 0.00080489544648359459 0.00068921126908039556 1.5999999989368066 -1.9999999986342840 -2.4137249713174356 
5000.0000000000000 5000.0000000000000 -3833.3333333330002 -39603795.308851339 -13374287.120917177 -93915691.578279823 0.00014901765243460879 0.0012906989600038144 -0.00094292225975311941 1.9999999988135690 -1.9999999986994403 -2.7639205841475776 
6000.0000000000000 6000.0000000000000 -3833.3333333330002 -39603795.306222610 -13374287.123540852 -93915691.577309132 0.00012003861062704766 -0.00041266845324273424 0.00036563535892393984 1.5999999989899716 -1.5999999988964304 -2.7639205841004038 
6000.0000000000000 5000.0000000000000 -3833.3333333330002 -39603795.308214657 -13374287.122710481 -93915691.587092638 0.00011627089004847936 0.0010423692286595876 0.00067928067563546521 1.5999999989867548 -1.9999999986968988 -2.7639205844791590 
5000.0000000000000 5000.0000000000000 -3666.6666666669998 -38453230.306977957 -12223722.118760101 -89836415.662123173 0.00015278057547410699 0.0015501085210442842 -0.0011454893663561637 1.9999999988753354 -1.9999999987685269 -3.0992292497189884 
6000.0000000000000 6000.0000000000000 -3666.6666666669998 -38453230.304522492 -12223722.121222464 -89836415.661278054 0.00013460916377087446 -0.00036781904457642661 0.00032106242320019450 1.5999999990455256 -1.5999999989563563 -3.0992292496678955 
6000.0000000000000 5000.0000000000000 -3666.6666666669998 -38453230.306289613 -12223722.120358095 -89836415.670111805 0.00013293513853704006 0.0012851197483812545 0.00064943194274931049 1.5999999990414902 -1.9999999987651225 -3.0992292500840759 
5000.0000000000000 5000.0000000000000 -3500.0000000000000 -37302562.318509020 -11073054.129997225 -85756774.611660734 0.00015372224699598445 0.0018009260714693133 -0.0013452831239319117 1.9999999989415864 -1.9999999988423165 -3.4196496352164596 
6000.0000000000000 6000.0000000000000 -3500.0000000000000 -37302562.316239893 -11073054.132277109 -85756774.610928833 0.00014527128472349363 -0.00031474614016987741 0.00026976572605535851 1.5999999991050446 -1.5999999990206748 -3.4196496351620165 
6000.0000000000000 5000.0000000000000 -3500.0000000000000 -37302562.317803904 -11073054.131416587 -85756774.618868634 0.00014478328613103347 0.0015251737595440168 0.00060569329976414561 1.5999999991003730 -1.9999999988382340 -3.4196496356119495 
5000.0000000000000 5000.0000000000000 -3333.3333333330002 -36151791.334212147 -9922283.1453927141 -81676768.394152671 0.00015200000337019362 0.0020365447959476753 -0.0015366244022130462 1.9999999990117880 -1.9999999989202075 -3.7251804079940518 
6000.0000000000000 6000.0000000000000 -3333.3333333330002 -36151791.332140744 -9922283.1474724077 -81676768.393522009 0.00015211761250634125 -0.00025858775856641499 0.00021639624903098219 1.5999999991679632 -1.5999999990887814 -3.7251804079367763 
6000.0000000000000 5000.0000000000000 -3333.3333333330002 -36151791.333522290 -9922283.1466496103 -81676768.400622427 0.00015211511306485758 0.0017553618364244531 0.00055360654999499074 1.5999999991628306 -1.9999999989156263 -3.7251804084169531 
5000.0000000000000 5000.0000000000000 -3166.6666666669998 -35000917.344855756 -8771409.1557097174 -77596396.976859391 0.00014784196723237333 0.0022512373215199714 -0.0017142599028606952 1.9999999990854938 -1.9999999990017083 -4.0158202352866619 
6000.0000000000000 6000.0000000000000 -3166.6666666669998 -35000917.342991494 -8771409.1575749740 -77596396.976318255 0.00015535157041317215 -0.00020386720844802397 0.00016497198316997526 1.5999999992337843 -1.5999999991601426 -4.0158202352270251 
6000.0000000000000 5000.0000000000000 -3166.6666666669998 -35000917.344209902 -8771409.1568196658 -77596396.982632503 0.00015536043648754633 0.0019693057376150226 0.00049811912957204200 1.5999999992283529 -1.9999999989967936 -4.0158202357341066 
5000.0000000000000 5000.0000000000000 -3000.0000000000000 -33849940.341203697 -7620432.1517052855 -73515660.327022836 0.00014150276918367563 0.0024401087003271637 -0.0018733631002264379 1.9999999991623338 -1.9999999990864250 -4.2915677842148758 
6000.0000000000000 6000.0000000000000 -3000.0000000000000 -33849940.339553885 -7620432.1533453818 -73515660.326560125 0.00015523354991061366 -0.00015445715222112282 0.00011892311336431837 1.5999999993020741 -1.5999999992342921 -4.2915677841532878 
6000.0000000000000 5000.0000000000000 -3000.0000000000000 -33849940.340627067 -7620432.1526830755 -73515660.332139656 0.00015499997189679203 0.0021614163092703751 0.00044357042994144145 1.5999999992964928 -1.9999999990813271 -4.2915677846841085 
5000.0000000000000 5000.0000000000000 -2833.3333333330002 -32698860.314025532 -6469352.1241409034 -69434558.411903232 0.00013323475561345224 0.0025990325349948785 -0.0020095966510175695 1.9999999992420108 -1.9999999991740522 -4.5524217217744800 
6000.0000000000000 6000.0000000000000 -2833.3333333330002 -32698860.312595241 -6469352.1255485769 -69434558.411508605 0.00015204276985541370 -0.00011355033477963328 8.1070134356294002e-05 1.5999999993724556 -1.5999999993108249 -4.5524217217113074 
6000.0000000000000 5000.0000000000000 -2833.3333333330002 -32698860.313539654 -6469352.1250005225 -69434558.416403159 0.00015150719682432387 0.0023268833484835555 0.00039363511608674041 1.5999999993668594 -1.9999999991689028 -4.5524217222628698 
5000.0000000000000 5000.0000000000000 -2666.6666666669998 -31547677.254091352 -5318169.0637774430 -65353091.198760927 0.00012326841321241190 0.0027245426972740219 -0.0021191886897483953 1.9999999993242918 -1.9999999992643573 -4.7983807148421240 
6000.0000000000000 6000.0000000000000 -2666.6666666669998 -31547677.252883151 -5318169.0649487590 -65353091.198424637 0.00014604803823625137 -8.3640337805556076e-05 5.3569140741566000e-05 1.5999999994446059 -1.5999999993893916 -4.7983807147776760 
6000.0000000000000 5000.0000000000000 -2666.6666666669998 -31547677.253713831 -5318169.0645319642 -65353091.202682219 0.00014531517769310462 0.0024616150334873820 0.00035128066379524917 1.5999999994391136 -1.9999999992592703 -4.7983807153471583 
5000.0000000000000 5000.0000000000000 -2500.0000000000000 -30396391.152166460 -4166882.9613700337 -61271258.654837899 0.00011180035429626631 0.0028138576281663127 -0.0021989125554926379 1.9999999994089992 -1.9999999993571751 -5.0294434301793194 
6000.0000000000000 6000.0000000000000 -2500.0000000000000 -30396391.151180293 -4166882.9623043267 -61271258.654550940 0.00013750172227115732 -6.6515817167771786e-05 3.7938709850915192e-05 1.5999999995182443 -1.5999999994696916 -5.0294434301138606 
6000.0000000000000 5000.0000000000000 -2500.0000000000000 -30396391.151910897 -4166882.9620315777 -61271258.658217892 0.00013679726857476217 0.0025622200109904816 0.00031875900735774555 1.5999999995129655 -1.9999999993522517 -5.0294434306986160 
5000.0000000000000 5000.0000000000000 -2333.3333333330002 -29245001.999021824 -3015493.8076785128 -57189060.747394688 9.8990307061609984e-05 0.0028648384167362876 -0.0022461420573118003 1.9999999994960054 -1.9999999994523940 -5.2456085344236039 
6000.0000000000000 6000.0000000000000 -2333.3333333330002 -29245001.998254817 -3015493.8083783416 -57189060.747148752 0.00012662988776371612 -6.3209097742193053e-05 3.5041926600235646e-05 1.5999999995931307 -1.5999999995514662 -5.2456085343573529 
6000.0000000000000 5000.0000000000000 -2333.3333333330002 -29245001.998897634 -3015493.8082581903 -57189060.750269927 0.00012625315250319226 0.0026260172273137898 0.00029759862467044302 1.5999999995881622 -1.9999999994477233 -5.2456085349549078 
5000.0000000000000 5000.0000000000000 -2166.6666666669998 -28093509.785428811 -1864001.5934622502 -53106497.443691880 8.4963063067409713e-05 0.0028759454903447036 -0.0022589135576044635 1.9999999995852262 -1.9999999995499547 -5.4468746940933688 
6000.0000000000000 6000.0000000000000 -2166.6666666669998 -28093509.784875046 -1864001.5939333867 -53106497.443479411 0.00011363277469123731 -7.4007004324860712e-05 4.5077510473267554e-05 1.5999999996690575 -1.5999999996344925 -5.4468746940264987 
6000.0000000000000 5000.0000000000000 -2166.6666666669998 -28093509.785441037 -1864001.5939700941 -53106497.446098268 0.00011391672512957178 0.0026510006307224874 0.00028859646959331254 1.5999999996644880 -1.9999999995456135 -5.4468746946345581 
5000.0000000000000 5000.0000000000000 -2000.0000000000000 -26941914.502153952 -712406.30947493087 -49023568.710971624 6.9813892691552573e-05 0.0028462806608086054 -0.0022359542227379462 1.9999999996766091 -1.9999999996498337 -5.6332405755910706 
6000.0000000000000 6000.0000000000000 -2000.0000000000000 -26941914.501804266 -712406.30972638400 -49023568.710785843 9.8695331309175206e-05 -9.8463192209929907e-05 6.7541171379102135e-05 1.5999999997458438 -1.5999999997185748 -5.6332405755237209 
6000.0000000000000 5000.0000000000000 -2000.0000000000000 -26941914.502303094 -712406.30991986243 -49023568.712944679 9.9964138063911073e-05 0.0026358302150940186 0.00029176006822237720 1.5999999997417531 -1.9999999996458926 -5.6332405761401683 
5000.0000000000000 5000.0000000000000 -1833.3333333329999 -25790216.139969382 439292.05352504243 -44940274.516494587 5.3618428339046064e-05 0.0027755670594405298 -0.0021767285543172576 1.9999999997701319 -1.9999999997520417 -5.8047048451959915 
6000.0000000000000 6000.0000000000000 -1833.3333333329999 -25790216.139811125 439292.05348087312 -44940274.516329668 8.1995094334695698e-05 -0.00013534960248174195 0.00010120943965436058 1.5999999998233287 -1.5999999998035395 -5.8047048451282697 
6000.0000000000000 5000.0000000000000 -1833.3333333329999 -25790216.140251189 439292.05313519534 -44940274.518069938 8.4528156777799199e-05 0.0025798556257543253 0.00030632936817401551 1.5999999998197896 -1.9999999997485642 -5.8047048457511750 
5000.0000000000000 5000.0000000000000 -1666.6666666670001 -24638414.689647704 1591093.5047797039 -40856614.827521749 3.6449077441094406e-05 0.0026641666747962462 -0.0020815419354914557 1.9999999998657871 -1.9999999998566160 -5.9612661690682662 
6000.0000000000000 6000.0000000000000 -1666.6666666670001 -24638414.689664420 1591093.5049268808 -40856614.827372819 6.3719476750271860e-05 -0.00018261301339036643 0.00014414655341306060 1.5999999999013659 -1.5999999998892263 -5.9612661690002593 
6000.0000000000000 5000.0000000000000 -1666.6666666670001 -24638414.690052886 1591093.5044382536 -40856614.828735434 6.7727570699195608e-05 0.0024831618437138512 0.00033073608100349340 1.5999999998984422 -1.9999999998536586 -5.9612661696278764 
0.0000000000000000 4000.0000000000000 -4833.3333333330002 -46505023.131823264 -20275514.914964311 -118383681.02692689 -8.9702448465659847e-05 0.00027385804771083656 -0.00013666966167267969 4.0000000000000000 -2.3999999983716376 -0.43948932183296258 
0.0000000000000000 5000.0000000000000 -4833.3333333330002 -46505023.127426833 -20275514.915847577 -118383681.00537214 -0.00011451835458048466 4.1609000811870293e-05 -0.00020719005794978869 4.0000000000000000 -1.9999999984705521 -0.43948932173717675 
1000.0000000000000 5000.0000000000000 -4833.3333333330002 -46505023.126458012 -20275514.917023543 -118383681.01169267 -5.5154241401724803e-05 1.7602087533496458e-05 -0.00033653969734248504 3.5999999993794747 -1.9999999984759680 -0.43948932177091471 
1000.0000000000000 4000.0000000000000 -4833.3333333330002 -46505023.130981460 -20275514.916067678 -118383681.03259259 -3.2303132351451507e-05 0.00025159207874057675 -0.00027276437456442336 3.5999999993840608 -2.3999999983763494 -0.43948932185932665 
0.0000000000000000 4000.0000000000000 -5000.0000000000000 -47079971.037652582 -20850462.820701301 -120422132.69261877 -9.7411857692955076e-05 0.00012670548545425857 -6.5467322294038098e-05 4.0000000000000000 -2.3999999983642266 0.0000000000000000 
0.0000000000000000 5000.0000000000000 -5000.0000000000000 -47079971.033010304 -20850462.821349148 -120422132.67011705 -0.00012209646675806246 1.2390113293822489e-05 -0.00010119893158578955 4.0000000000000000 -1.9999999984636696 0.0000000000000000 
1000.0000000000000 5000.0000000000000 -5000.0000000000000 -47079971.032143578 -20850462.822655022 -120422132.67692870 -6.2203065602110333e-05 8.5421884151994044e-07 -0.00016280200278829090 3.5999999993759371 -1.9999999984694259 0.0000000000000000 
1000.0000000000000 4000.0000000000000 -5000.0000000000000 -47079971.036900334 -20850462.821910907 -120422132.69867471 -3.9390579865653216e-05 0.00011616254967450042 -0.00013073108764363102 3.5999999993809633 -2.3999999983693003 0.0000000000000000 
0.0000000000000000 4000.0000000000000 -4666.6666666669998 -45355075.856661998 -19125567.640063945 -114306595.23436849 -7.0149949541929211e-05 0.00060344827712335977 -0.00028821548181081968 4.0000000000000000 -2.3999999983926945 -0.86409968877292520 
0.0000000000000000 5000.0000000000000 -4666.6666666669998 -45355075.852722220 -19125567.641368132 -114306595.21463406 -9.4915082280169828e-05 0.00012988935385946677 -0.00042489223564870938 4.0000000000000000 -1.9999999984902457 -0.86409968858924513 
1000.0000000000000 5000.0000000000000 -4666.6666666669998 -45355075.851601131 -19125567.642322108 -114306595.22009125 -3.6954697096014619e-05 8.0113098212184801e-05 -0.00070008196148193657 3.5999999993889062 -1.9999999984948202 -0.86409968865078113 
1000.0000000000000 4000.0000000000000 -4666.6666666669998 -45355075.855678797 -19125567.640984386 -114306595.23935431 -1.4355201959880416e-05 0.00055669458217653164 -0.00057517217025434783 3.5999999993924274 -2.3999999983965243 -0.86409968882146004 
0.0000000000000000 4000.0000000000000 -4500.0000000000000 -44205025.649922028 -17975517.433720514 -110229144.50314702 -4.5767765953456671e-05 0.00099340405218810630 -0.00045482096454812831 4.0000000000000000 -2.3999999984252351 -1.2738297690137961 
0.0000000000000000 5000.0000000000000 -4500.0000000000000 -44205025.646376580 -17975517.435349982 -110229144.48508859 -6.9499719839944345e-05 0.00027070523833750977 -0.00064877828325817855 4.0000000000000000 -1.9999999985209815 -1.2738297687495945 
1000.0000000000000 5000.0000000000000 -4500.0000000000000 -44205025.645183802 -17975517.436146762 -110229144.48989566 -1.3473902364173876e-05 0.00019518885948655338 -0.0010868513999430097 3.5999999994022898 -1.9999999985245025 -1.2738297688345794 
1000.0000000000000 4000.0000000000000 -4500.0000000000000 -44205025.648856878 -17975517.434508573 -110229144.50763153 7.9256560444399451e-06 0.00092208099325724840 -0.00090752595574357614 3.5999999994045235 -2.3999999984279934 -1.2738297690816569 
0.0000000000000000 4000.0000000000000 -4333.3333333330002 -43054872.502448633 -16825364.286750931 -106151328.80064097 -2.1858608608667593e-05 0.0014250460989924806 -0.00063207728603691452 4.0000000000000000 -2.3999999984674520 -1.6686782306228647 
0.0000000000000000 5000.0000000000000 -4333.3333333330002 -43054872.499248192 -16825364.288618654 -106151328.78412096 -4.3154502681744903e-05 0.00045072540750450759 -0.00087186755058000197 4.0000000000000000 -1.9999999985612424 -1.6686782302849910 
1000.0000000000000 5000.0000000000000 -4333.3333333330002 -43054872.498028338 -16825364.289305460 -106151328.78844979 1.0636376705337023e-05 0.00035206097554067468 -0.0014831785672513424 3.5999999994183791 -1.9999999985636729 -1.6686782303903487 
1000.0000000000000 4000.0000000000000 -4333.3333333330002 -43054872.501336388 -16825364.287443582 -106151328.80476496 2.9558953889137889e-05 0.0013320170952559121 -0.0012591245797385709 3.5999999994193344 -2.3999999984691525 -1.6686782307082380 
0.0000000000000000 4000.0000000000000 -4166.6666666669998 -41904616.405066445 -15675108.189960314 -102073148.09421289 -1.1482156460402981e-06 0.0018828554304929873 -0.00081850861981010820 4.0000000000000000 -2.3999999985178482 -2.0486437415487142 
0.0000000000000000 5000.0000000000000 -4166.6666666669998 -41904616.402170412 -15675108.191987930 -102073148.07910201 -1.8641077586699018e-05 0.00065833819564528996 -0.0010924517665605717 4.0000000000000000 -1.9999999986097219 -2.0486437411434983 
1000.0000000000000 5000.0000000000000 -4166.6666666669998 -41904616.400948033 -15675108.192600021 -102073148.08309151 3.2712999097420445e-05 0.00054041376189735652 -0.0018818694042991139 3.5999999994363847 -1.9999999986111270 -2.0486437412672163 
1000.0000000000000 4000.0000000000000 -4166.6666666669998 -41904616.403928384 -15675108.190585595 -102073148.09808791 4.7945043315694811e-05 0.0017722508680171141 -0.0016235594794822912 3.5999999994361969 -2.3999999985186169 -2.0486437416506118 
0.0000000000000000 4000.0000000000000 -4000.0000000000000 -40754257.348581463 -14524749.134141102 -97994602.351199254 1.5262645019217180e-05 0.0023537887390785036 -0.0010136967745930211 4.0000000000000000 -2.3999999985751952 -2.4137249696276610 
0.0000000000000000 5000.0000000000000 -4000.0000000000000 -40754257.345955357 -14524749.136258628 -97994602.337377444 2.6560176068690751e-06 0.00088333823738115185 -0.0013111394132862019 4.0000000000000000 -1.9999999986652990 -2.4137249691609317 
1000.0000000000000 5000.0000000000000 -4000.0000000000000 -40754257.344743297 -14524749.136821708 -97994602.341135055 5.1409428898643918e-05 0.00075054996533140464 -0.0022792997417636360 3.5999999994558354 -1.9999999986657977 -2.4137249693018319 
1000.0000000000000 4000.0000000000000 -4000.0000000000000 -40754257.347430855 -14524749.134719897 -97994602.354909882 6.2017620929805714e-05 0.0022300092317400324 -0.0019966973459503734 3.5999999994546985 -2.3999999985752094 -2.4137249697457119 
0.0000000000000000 4000.0000000000000 -3833.3333333330002 -39603795.323794045 -13374287.110084094 -93915691.538944215 2.7256437151333783e-05 0.0028267539686181943 -0.0012173332845920994 4.0000000000000000 -2.3999999986384983 -2.7639205825700688 
0.0000000000000000 5000.0000000000000 -3833.3333333330002 -39603795.321407758 -13374287.112229360 -93915691.526301205 2.0221523037094367e-05 0.0011167292513224493 -0.0015291399080048188 4.0000000000000000 -1.9999999987270132 -2.7639205820471893 
1000.0000000000000 5000.0000000000000 -3833.3333333330002 -39603795.320212588 -13374287.112761831 -93915691.529907078 6.6226645673893514e-05 0.00097346838888492417 -0.0026736255368470393 3.5999999994764704 -1.9999999987267463 -2.7639205822046899 
1000.0000000000000 4000.0000000000000 -3833.3333333330002 -39603795.322639845 -13374287.110631827 -93915691.542552173 7.1652947020794871e-05 0.0026938899634914911 -0.0023755534381163139 3.5999999994745910 -2.3999999986379414 -2.7639205827043125 
0.0000000000000000 4000.0000000000000 -3666.6666666669998 -38453230.321495518 -12223722.108573738 -89836415.624779195 3.5251317310532726e-05 0.0032922007532028372 -0.0014287958930212965 4.0000000000000000 -2.3999999987069596 -3.0992292479675054 
0.0000000000000000 5000.0000000000000 -3666.6666666669998 -38453230.319322184 -12223722.110691685 -89836415.613214582 3.4064874095577824e-05 0.0013505816760474236 -0.0017475097576886895 4.0000000000000000 -1.9999999987940489 -3.0992292473934104 
1000.0000000000000 5000.0000000000000 -3666.6666666669998 -38453230.318148077 -12223722.111206897 -89836415.616727591 7.7181461638593582e-05 0.0012009232848455751 -0.0030636813034569201 3.5999999994981695 -1.9999999987931594 -3.0992292475673411 
1000.0000000000000 4000.0000000000000 -3666.6666666669998 -38453230.320345014 -12223722.109102074 -89836415.628328905 7.7243690788644743e-05 0.0031537372909775565 -0.0027575606803041516 3.5999999994957435 -2.3999999987060003 -3.0992292481182391 
0.0000000000000000 4000.0000000000000 -3500.0000000000000 -37302562.332465246 -11073054.120384371 -85756774.576007068 3.9905346782114497e-05 0.0037417293309244468 -0.0016470347928001002 4.0000000000000000 -2.3999999987799514 -3.4196496332983237 
0.0000000000000000 5000.0000000000000 -3500.0000000000000 -37302562.330480628 -11073054.122426350 -85756774.565430269 4.4484281922897065e-05 0.0015778742193979223 -0.0019667869671171805 4.0000000000000000 -1.9999999988657184 -3.4196496326775607 
1000.0000000000000 5000.0000000000000 -3500.0000000000000 -37302562.329331391 -11073054.122934131 -85756774.568892643 8.4582231500009765e-05 0.0014254359493779010 -0.0034484075144625512 3.5999999995209069 -1.9999999988643411 -3.4196496328680230 
1000.0000000000000 4000.0000000000000 -3500.0000000000000 -37302562.331325501 -11073054.120902339 -85756774.579529792 7.9433874988988989e-05 0.0036004708266026584 -0.0031402281916172669 3.5999999995181078 -2.3999999987787324 -3.4196496334659932 
0.0000000000000000 4000.0000000000000 -3333.3333333330002 -36151791.347482592 -9922283.1362917423 -81676768.359941289 4.1950487004580973e-05 0.0041679117921528293 -0.0018705334894656327 4.0000000000000000 -2.3999999988569951 -3.7251804059155540 
0.0000000000000000 5000.0000000000000 -3333.3333333330002 -36151791.345664635 -9922283.1382147837 -81676768.350271046 5.1915156168405824e-05 0.0017924183892323745 -0.0021867803637312545 4.0000000000000000 -1.9999999989414490 -3.7251804052523259 
1000.0000000000000 5000.0000000000000 -3333.3333333330002 -36151791.344544917 -9922283.1387224570 -81676768.353711933 8.8880184289219738e-05 0.0016403003670953458 -0.0038264259257581221 3.5999999995447221 -1.9999999989397030 -3.7251804054595863 
1000.0000000000000 4000.0000000000000 -3333.3333333330002 -36151791.346361235 -9922283.1368064675 -81676768.363458097 7.8944480875033784e-05 0.0040260075848952978 -0.0035209071611717359 3.5999999995416951 -2.3999999988556309 -3.7251804061006704 
0.0000000000000000 4000.0000000000000 -3166.6666666669998 -35000917.357322738 -8771409.1470685489 -77596396.943888813 4.2099037143428942e-05 0.0045640641860154145 -0.0020972342761590794 4.0000000000000000 -2.3999999989377399 -4.0158202330532990 
0.0000000000000000 5000.0000000000000 -3166.6666666669998 -35000917.355651319 -8771409.1488346625 -77596396.935052738 5.6837188253077445e-05 0.0019888324714627918 -0.0024065895237364073 4.0000000000000000 -1.9999999990207697 -4.0158202323515022 
1000.0000000000000 5000.0000000000000 -3166.6666666669998 -35000917.354567192 -8771409.1493478119 -77596396.938491061 9.0569199229063375e-05 0.0018396069696401344 -0.0041957969638093872 3.5999999995697105 -1.9999999990187567 -4.0158202325759094 
1000.0000000000000 4000.0000000000000 -3166.6666666669998 -35000917.356228448 -8771409.1475857832 -77596396.947412983 7.6472994950038464e-05 0.0044231104885825634 -0.0038965400985723690 3.5999999995665708 -2.3999999989363130 -4.0158202332563855 
0.0000000000000000 4000.0000000000000 -3000.0000000000000 -33849940.352752283 -7620432.1434798678 -73515660.295133412 4.0986112222559909e-05 0.0049240043106316984 -0.0023246997808602501 4.0000000000000000 -2.3999999990219476 -4.2915677818315370 
0.0000000000000000 5000.0000000000000 -3000.0000000000000 -33849940.351209044 -7620432.1450555138 -73515660.287067533 5.9713476083590698e-05 0.0021624021584204767 -0.0026247074088900425 4.0000000000000000 -1.9999999991032993 -4.2915677810948036 
1000.0000000000000 5000.0000000000000 -3000.0000000000000 -33849940.350168414 -7620432.1455784664 -73515660.290513992 9.0126693943053097e-05 0.0020181502535488783 -0.0045540380305910903 3.5999999995960019 -1.9999999991011053 -4.2915677813367266 
1000.0000000000000 4000.0000000000000 -3000.0000000000000 -33849940.351695061 -7620432.1440043319 -73515660.298671961 7.2645180161019695e-05 0.0047851620441637776 -0.0042637050531982969 3.5999999995928391 -2.3999999990205150 -4.2915677820530886 
0.0000000000000000 4000.0000000000000 -2833.3333333330002 -32698860.324540071 -6469352.1162939798 -69434558.380973607 3.9130124177265536e-05 0.0052420512687680956 -0.0025501679818717947 4.0000000000000000 -2.3999999991094789 -4.5524217192456460 
0.0000000000000000 5000.0000000000000 -2833.3333333330002 -32698860.323108345 -6469352.1176495198 -69434558.373621657 6.0953344860259717e-05 0.0023090899078758022 -0.0028390284619147165 4.0000000000000000 -1.9999999991887376 -4.5524217184773743 
1000.0000000000000 5000.0000000000000 -2833.3333333330002 -32698860.322121106 -6469352.1181856561 -69434558.377080157 8.7974529024833145e-05 0.0021714433742136834 -0.0048980513183283295 3.5999999996237695 -1.9999999991864326 -4.5524217187371576 
1000.0000000000000 4000.0000000000000 -2833.3333333330002 -32698860.323531445 -6469352.1168295909 -69434558.384528309 6.7970776769899245e-05 0.0051061323490595115 -0.0046186041167721424 3.5999999996206489 -2.3999999991080734 -4.5524217194860901 
0.0000000000000000 4000.0000000000000 -2666.6666666669998 -31547677.263452448 -5318169.0562774809 -65353091.168705270 3.6932080622033638e-05 0.0055129322386705884 -0.0027704801405897565 4.0000000000000000 -2.3999999992002805 -4.7983807121720208 
0.0000000000000000 5000.0000000000000 -2666.6666666669998 -31547677.262117196 -5318169.0573867457 -65353091.162017964 6.0895364760730862e-05 0.0024255121425775664 -0.0030468929993560513 4.0000000000000000 -1.9999999992768538 -4.7983807113754091 
1000.0000000000000 5000.0000000000000 -2666.6666666669998 -31547677.261195362 -5318169.0579387899 -65353091.165486842 8.4455450802195531e-05 0.0022957127304256016 -0.0052240458060935956 3.5999999996532148 -1.9999999992744950 -4.7983807116533308 
1000.0000000000000 4000.0000000000000 -2666.6666666669998 -31547677.262505710 -5318169.0568275619 -65353091.172273517 6.2836278273326995e-05 0.0053805280196905989 -0.0049569041047941142 3.5999999996501826 -2.3999999991989189 -4.7983807124316975 
0.0000000000000000 4000.0000000000000 -2500.0000000000000 -30396391.160248280 -4166882.9541903501 -61271258.625604056 3.4686506021253355e-05 0.0057316207602007389 -0.0029820775105722833 4.0000000000000000 -2.3999999992943777 -5.0294434273720885 
0.0000000000000000 5000.0000000000000 -2500.0000000000000 -30396391.158996042 -4166882.9550303263 -61271258.619538501 5.9805837389306470e-05 0.0025088899279410459 -0.0032451195099210163 4.0000000000000000 -1.9999999993674784 -5.0294434265501611 
1000.0000000000000 5000.0000000000000 -2500.0000000000000 -30396391.158153929 -4166882.9556004796 -61271258.623011239 7.9831709701371119e-05 0.0023878446429563124 -0.0055275205135488243 3.5999999996845777 -1.9999999993651123 -5.0294434268464068 
1000.0000000000000 4000.0000000000000 -2500.0000000000000 -30396391.159378663 -4166882.9547577184 -61271258.629179157 5.7514977768866624e-05 0.0056031969295551147 -0.0052736894559558276 3.5999999996816667 -2.3999999992930623 -5.0294434276512332 
0.0000000000000000 4000.0000000000000 -2333.3333333330002 -29245002.005689457 -3015493.8007964790 -57189060.718963020 3.2576185919206362e-05 0.0058933080468017646 -0.0031810007821081883 4.0000000000000000 -2.3999999993918628 -5.2456085314834553 
0.0000000000000000 5000.0000000000000 -2333.3333333330002 -29245002.004508283 -3015493.8013469754 -57189060.713481724 5.7873456692219970e-05 0.0025570300596074362 -0.0034299718701371329 4.0000000000000000 -1.9999999994604940 -5.2456085306390889 
1000.0000000000000 5000.0000000000000 -2333.3333333330002 -29245002.003762651 -3015493.8019370157 -57189060.716947362 7.4279419146458696e-05 0.0024453397814084019 -0.0058032104644091028 3.5999999997181291 -1.9999999994581599 -5.2456085309537217 
1000.0000000000000 4000.0000000000000 -2333.3333333330002 -29245002.004914414 -3015493.8013835237 -57189060.722534321 5.2161420583480495e-05 0.0057692582248668311 -0.0055634205192390939 3.5999999997153647 -2.3999999993905887 -5.2456085317821737 
0.0000000000000000 4000.0000000000000 -2166.6666666669998 -28093509.790535737 -1864001.5868585033 -53106497.416074626 3.0672882058046924e-05 0.0059934679987486902 -0.0033628713502916073 4.0000000000000000 -2.3999999994928887 -5.4468746910247363 
0.0000000000000000 5000.0000000000000 -2166.6666666669998 -28093509.789415181 -1864001.5871020253 -53106497.411144823 5.5208142551610141e-05 0.0025683588336754565 -0.0035972364382364612 4.0000000000000000 -1.9999999995558291 -5.4468746901606666 
1000.0000000000000 5000.0000000000000 -2166.6666666669998 -28093509.788785543 -1864001.5877134562 -53106497.414588489 6.7889798337273838e-05 0.0024663488090280799 -0.0060450368017563854 3.5999999997541812 -1.9999999995535607 -5.4468746904936074 
1000.0000000000000 4000.0000000000000 -2166.6666666669998 -28093509.789875321 -1864001.5874673289 -53106497.419627793 4.6816618386180323e-05 0.0058741444262584317 -0.0058198088109572103 3.5999999997515855 -2.3999999994916466 -5.4468746913429857 
0.0000000000000000 4000.0000000000000 -2000.0000000000000 -26941914.505539566 -712406.30313265009 -49023568.684212781 2.8955515814595809e-05 0.0060277857746650603 -0.0035227499854918820 4.0000000000000000 -2.3999999995976613 -5.6332405723987726 
0.0000000000000000 5000.0000000000000 -2000.0000000000000 -26941914.504470583 -712406.30305429280 -49023568.679805599 5.1858148073898402e-05 0.0025419439862432568 -0.0037421233262169939 4.0000000000000000 -1.9999999996534477 -5.6332405715176108 
1000.0000000000000 5000.0000000000000 -2000.0000000000000 -26941914.503979538 -712406.30368842045 -49023568.683208689 6.0684641014975817e-05 0.0024497052642464753 -0.0062460316867658057 3.5999999997930852 -1.9999999996512767 -5.6332405718686198 
1000.0000000000000 4000.0000000000000 -2000.0000000000000 -26941914.505016778 -712406.30376511172 -49023568.687729649 4.1422965993659816e-05 0.0059135236406082274 -0.0060357149542277040 3.5999999997906817 -2.3999999995964427 -5.6332405727363444 
0.0000000000000000 4000.0000000000000 -1833.3333333329999 -25790216.141456295 439292.05962093669 -44940274.490670115 2.7329920730954595e-05 0.0059920844190296018 -0.0036550509219954522 4.0000000000000000 -2.3999999997064343 -5.8047048418853917 
0.0000000000000000 5000.0000000000000 -1833.3333333329999 -25790216.140431229 439292.06003349897 -44940274.486759670 4.7827284907347424e-05 0.0024774457321269142 -0.0038591791137917320 4.0000000000000000 -1.9999999997533442 -5.8047048409896371 
1000.0000000000000 5000.0000000000000 -1833.3333333329999 -25790216.140104905 439292.05937545135 -44940274.490100026 5.2628965413132342e-05 0.0023948717810303791 -0.0063981969622326626 3.5999999998352434 -1.9999999997513027 -5.8047048413582889 
1000.0000000000000 4000.0000000000000 -1833.3333333329999 -25790216.141097587 439292.05896316841 -44940274.494128510 3.5835721443887125e-05 0.0058832292156481697 -0.0062029677402375945 3.5999999998330554 -2.3999999997052357 -5.8047048422418888 
0.0000000000000000 4000.0000000000000 -1666.6666666670001 -24638414.689038768 1591093.5106435085 -40856614.802739769 2.5637590559698564e-05 0.0058824572492601436 -0.0037534931188969185 4.0000000000000000 -2.3999999998195047 -5.9612661656454398 
0.0000000000000000 5000.0000000000000 -1666.6666666670001 -24638414.688051283 1591093.5113999117 -40856614.799302414 4.3081949449787457e-05 0.0023752211304281625 -0.0039422804886986851 4.0000000000000000 -1.9999999998555369 -5.9612661647374754 
1000.0000000000000 5000.0000000000000 -1666.6666666670001 -24638414.687919945 1591093.5107166979 -40856614.802554324 4.3646212250519036e-05 0.0023020072266576519 -0.0064923653919127201 3.5999999998811072 -1.9999999998536548 -5.9612661651231482 
1000.0000000000000 4000.0000000000000 -1666.6666666670001 -24638414.688874729 1591093.5099588274 -40856614.806113459 2.9841088760950180e-05 0.0057793240172673496 -0.0063122278670251697 3.5999999998791696 -2.3999999998183275 -5.9612661660202511 
7000.0000000000000 2000.0000000000000 -4833.3333333330002 -46505023.134764262 -20275514.932116758 -118383681.18192574 0.00011213545649885401 0.00051364695144689402 0.00022177846213940666 1.1999999990248951 -3.1999999987685408 -0.43948932249945016 
6000.0000000000000 2000.0000000000000 -4833.3333333330002 -46505023.133326478 -20275514.929637127 -118383681.17232430 0.00026269155682403904 0.00048730817729340803 0.00030942727314941707 1.5999999987850511 -3.1999999987776864 -0.43948932247621014 
7000.0000000000000 2000.0000000000000 -5000.0000000000000 -47079971.042315781 -20850462.839612544 -120422132.85420166 0.00011282548980646687 0.00024729601094681901 0.00011545810465672151 1.1999999990205181 -3.1999999987628209 0.0000000000000000 
6000.0000000000000 2000.0000000000000 -5000.0000000000000 -47079971.040798068 -20850462.837073632 -120422132.84444025 0.00026721141488819709 0.00023419852794153705 0.00016055054234996116 1.5999999987811222 -3.1999999987721752 0.0000000000000000 
7000.0000000000000 2000.0000000000000 -4666.6666666669998 -45355075.856476746 -19125567.653980359 -114306595.37688525 0.00011033947240640101 0.0010780992029000350 0.00041648852844176985 1.1999999990375685 -3.1999999987845786 -0.86409969005780440 
6000.0000000000000 2000.0000000000000 -4666.6666666669998 -45355075.855230130 -19125567.651643068 -114306595.36766595 0.00024988322448395622 0.0010255237776063515 0.00058093784107945327 1.5999999987971874 -3.1999999987931558 -0.86409969000881059 
7000.0000000000000 2000.0000000000000 -4500.0000000000000 -44205025.647213511 -17975517.444931224 -110229144.63448401 0.00010793919279211914 0.0016946951115448900 0.00057641299194308236 1.1999999990576617 -3.1999999988088961 -1.2738297708735755 
6000.0000000000000 2000.0000000000000 -4500.0000000000000 -44205025.646197021 -17975517.442772321 -110229144.62575634 0.00023057852435465545 0.0016173299027713328 0.00079696949363047831 1.5999999988178404 -3.1999999988166610 -1.2738297707975088 
7000.0000000000000 2000.0000000000000 -4333.3333333330002 -43054872.497756563 -16825364.295724612 -106151328.92197123 0.00010524672152549957 0.0023433645198263279 0.00070418700251740924 1.1999999990843617 -3.1999999988398589 -1.6686782330181518 
6000.0000000000000 2000.0000000000000 -4333.3333333330002 -43054872.496971950 -16825364.293761268 -106151328.91381639 0.00020681754223249183 0.0022442176609416753 0.00095578460953654547 1.5999999988467197 -3.1999999988466712 -1.6686782329147325 
7000.0000000000000 2000.0000000000000 -4166.6666666669998 -41904616.398872517 -15675108.197110292 -102073148.20659189 0.00010236881600091494 0.0030085493591560982 0.00080321869616425360 1.1999999991169019 -3.1999999988761774 -2.0486437444438388 
6000.0000000000000 2000.0000000000000 -4166.6666666669998 -41904616.398300797 -15675108.195347574 -102073148.19906600 0.00018043929773224249 0.0028915583210015732 0.0010620188586565322 1.5999999988832221 -3.1999999988819776 -2.0486437443136336 
7000.0000000000000 2000.0000000000000 -4000.0000000000000 -40754257.341313913 -14524749.139830451 -97994602.455568925 9.9314849123929107e-05 0.0036781196976844910 0.00087742745401710024 1.1999999991545600 -3.1999999989168657 -2.4137249729902943 
6000.0000000000000 2000.0000000000000 -4000.0000000000000 -40754257.340925440 -14524749.138265731 -97994602.448706597 0.00015293459661264711 0.0035477167953862862 0.0011234182323210050 1.5999999989266007 -3.1999999989216503 -2.4137249728345291 
7000.0000000000000 2000.0000000000000 -3833.3333333330002 -39603795.315833561 -13374287.114631915 -93915691.636140734 9.6048582464474831e-05 0.0043425656812829993 0.00093094239159293487 1.1999999991966617 -3.1999999989611854 -2.7639205863708329 
6000.0000000000000 2000.0000000000000 -3833.3333333330002 -39603795.315594293 -13374287.113257669 -93915691.629958391 0.00012542922897532268 0.0042033297388956083 0.0011489441915754376 1.5999999989760616 -3.1999999989649868 -2.7639205861912224 
7000.0000000000000 2000.0000000000000 -3666.6666666669998 -38453230.313181855 -12223722.112262070 -89836415.715543717 9.2518822600940893e-05 0.0049941777826951472 0.00096784448586005730 1.1999999992425814 -3.1999999990086057 -3.0992292521796334 
6000.0000000000000 2000.0000000000000 -3666.6666666669998 -38453230.313057281 -12223722.111067755 -89836415.710042626 9.8721606687772576e-05 0.0048505273823023871 0.0011476260763945429 1.5999999990308245 -3.1999999990114798 -3.0992292519782279 
7000.0000000000000 2000.0000000000000 -3500.0000000000000 -37302562.324103154 -11073054.123464206 -85756774.660994157 8.8672748003305069e-05 0.0056265365197289132 0.00099202656138618734 1.1999999992917443 -3.1999999990587722 -3.4196496378973502 
6000.0000000000000 2000.0000000000000 -3500.0000000000000 -37302562.324060664 -11073054.122437535 -85756774.656163171 7.3345360506767013e-05 0.0054826133191839925 0.0011279206047091165 1.5999999990901530 -3.1999999990607892 -3.4196496376764109 
7000.0000000000000 2000.0000000000000 -3333.3333333330002 -36151791.339347094 -9922283.1389882285 -81676768.439725742 8.4461498062007466e-05 0.0062340465315925938 0.0010070280355990368 1.1999999993436281 -3.1999999991114794 -3.7251804108790294 
6000.0000000000000 2000.0000000000000 -3333.3333333330002 -36151791.339357346 -9922283.1381159928 -81676768.435543567 4.9634568558174695e-05 0.0060936334772384530 0.0010973752566527755 1.5999999991533724 -3.1999999991127108 -3.7251804106409243 
7000.0000000000000 2000.0000000000000 -3166.6666666669998 -35000917.349664003 -8771409.1495856009 -77596397.018971637 7.9836625269622387e-05 0.0068115396120440519 0.0010159489518850541 1.1999999993977608 -3.1999999991666446 -4.0158202383605195 
6000.0000000000000 2000.0000000000000 -3166.6666666669998 -35000917.349701740 -8771409.1488542575 -77596397.015408874 2.7769190628822082e-05 0.0066779868719307302 0.0010624560595722827 1.5999999992198803 -3.1999999991671655 -4.0158202381076391 
7000.0000000000000 2000.0000000000000 -3000.0000000000000 -33849940.345800012 -7620432.1460041385 -73515660.365946308 7.4755042032127993e-05 0.0073540347074651383 0.0010213773430427513 1.1999999994537200 -3.1999999992243002 -4.2915677874632978 
6000.0000000000000 2000.0000000000000 -3000.0000000000000 -33849940.345844477 -7620432.1454001898 -73515660.362967134 7.8248764809492068e-06 0.0072302367459170461 0.0010284709315458208 1.5999999992891440 -3.1999999992241830 -4.2915677871979794 
7000.0000000000000 2000.0000000000000 -2833.3333333330002 -32698860.318507593 -6469352.1189983422 -69434558.447882786 6.9177010701379959e-05 0.0078564234176941045 0.0010253890854819523 1.1999999995111283 -3.1999999992845751 -4.5524217251839838 
6000.0000000000000 2000.0000000000000 -2833.3333333330002 -32698860.318542730 -6469352.1185086593 -69434558.445446461 -1.0181822028507410e-05 0.0077448386853546120 0.00099959570334599585 1.5999999993607010 -3.1999999992838877 -4.5524217249084620 
7000.0000000000000 2000.0000000000000 -2666.6666666669998 -31547677.258540437 -5318169.0593241435 -65353091.232014365 6.3066035960269724e-05 0.0083132686382425235 0.0010294942584323920 1.1999999995696511 -3.1999999993476864 -4.7983807183999820 
6000.0000000000000 2000.0000000000000 -2666.6666666669998 -31547677.258554880 -5318169.0589361386 -65353091.230076462 -2.6270518572301817e-05 0.0082159148925640638 0.00097886224609278834 1.5999999994341556 -3.1999999993464949 -4.7983807181163369 
7000.0000000000000 2000.0000000000000 -2500.0000000000000 -30396391.156648222 -4166882.9577335455 -61271258.685556412 5.6388771093668927e-05 0.0087186379725204058 0.0010346273058643252 1.1999999996289927 -3.1999999994139392 -5.0294434338734817 
6000.0000000000000 2000.0000000000000 -2500.0000000000000 -30396391.156635262 -4166882.9574353243 -61271258.684069909 -4.0479565691422805e-05 0.0086371031225633606 0.00096825058955801442 1.5999999995091696 -3.1999999994123041 -5.0294434335836113 
7000.0000000000000 2000.0000000000000 -2333.3333333330002 -29245002.003586996 -3015493.8049849723 -57189060.775743581 4.9113559980897178e-05 0.0090659229111306281 0.0010411877218415629 1.1999999996888902 -3.1999999994837149 -5.2456085382426174 
6000.0000000000000 2000.0000000000000 -2333.3333333330002 -29245002.003544468 -3015493.8047654158 -57189060.774659589 -5.2839248285181226e-05 0.0090013928169069401 0.00096874416676500828 1.5999999995854597 -3.1999999994816970 -5.2456085379482049 
7000.0000000000000 2000.0000000000000 -2166.6666666669998 -28093509.790113762 -1864001.5918378255 -53106497.469811104 4.1212519963625180e-05 0.0093476322113729624 0.0010490056068292509 1.1999999997491109 -3.1999999995574759 -5.4468746980262903 
6000.0000000000000 2000.0000000000000 -2166.6666666669998 -28093509.790043999 -1864001.5916867014 -53106497.469079763 -6.3362223247534819e-05 0.0093008725351238029 0.00098033710402628343 1.5999999996627849 -3.1999999995551356 -5.4468746977287861 
7000.0000000000000 2000.0000000000000 -2000.0000000000000 -26941914.506981190 -712406.30904717685 -49023568.734976575 3.2657754497737639e-05 0.0095552070218889781 0.0010573345581714258 1.1999999998094457 -3.1999999996357662 -5.6332405796273797 
6000.0000000000000 2000.0000000000000 -2000.0000000000000 -26941914.506891027 -712406.30895525741 -49023568.734547921 -7.2045775907316579e-05 0.0095265454265070770 0.0010021182716063145 1.5999999997409449 -3.1999999996331630 -5.6332405793279836 
7000.0000000000000 2000.0000000000000 -1833.3333333329999 -25790216.144947939 439292.05262592767 -44940274.538477212 2.3428223145966894e-05 0.0096788447831237488 0.0010648779628268448 1.1999999998697042 -3.1999999997192123 -5.8047048493255105 
6000.0000000000000 2000.0000000000000 -1833.3333333329999 -25790216.144848686 439292.05266682408 -44940274.538301580 -7.8856760893295397e-05 0.0096681909137994720 0.0010322722210120937 1.5999999998197654 -3.1999999997164070 -5.8047048490251747 
7000.0000000000000 2000.0000000000000 -1666.6666666670001 -24638414.694773093 1591093.5024199823 -40856614.847550936 1.3506544375661718e-05 0.0097072341893280727 0.0010697778679114927 1.1999999999297095 -3.1999999998085289 -5.9612661732810714 
6000.0000000000000 2000.0000000000000 -1666.6666666670001 -24638414.694680721 1591093.5024168214 -40856614.847579837 -8.3738357569075142e-05 0.0097140672735425045 0.0010680904810800600 1.5999999998990924 -3.1999999998055868 -5.9612661729804861 
8000.0000000000000 2000.0000000000000 -4833.3333333330002 -46505023.135667063 -20275514.934363075 -118383681.19205201 -6.0654342229878949e-05 0.00049252061670691371 2.3720141421892300e-05 0.79999999929673349 -3.1999999987705867 -0.43948932255224704 
9000.0000000000000 2000.0000000000000 -4833.3333333330002 -46505023.136065342 -20275514.936052114 -118383681.20047501 -6.9477731697780774e-05 0.00045753746863890307 2.9291784423209257e-05 0.39999999963163813 -3.1999999987758025 -0.43948932259597401 
9000.0000000000000 1000.0000000000000 -4833.3333333330002 -46505023.139190421 -20275514.933780242 -118383681.21642888 -0.00013791024036015901 0.00025901520645320926 5.5758155064438100e-05 0.39999999963836053 -3.5999999993307443 -0.43948932266544416 
8000.0000000000000 2000.0000000000000 -5000.0000000000000 -47079971.043369725 -20850462.842037283 -120422132.86501572 -6.4977629635683433e-05 0.00023679439926625805 1.6727900931678952e-05 0.79999999929206411 -3.1999999987650001 0.0000000000000000 
9000.0000000000000 2000.0000000000000 -5000.0000000000000 -47079971.043926537 -20850462.843915232 -120422132.87418467 -7.2639539060448819e-05 0.00021939208653623941 1.9769297700869707e-05 0.39999999962904698 -3.1999999987704513 0.0000000000000000 
9000.0000000000000 1000.0000000000000 -5000.0000000000000 -47079971.047260545 -20850462.841830529 -120422132.89087275 -0.00014394622664958844 0.00012367537782910254 3.2444881926595917e-05 0.39999999963603150 -3.5999999993280922 0.0000000000000000 
8000.0000000000000 2000.0000000000000 -4666.6666666669998 -45355075.857126914 -19125567.655902799 -114306595.38572109 -4.8565055811575678e-05 0.0010358909054493032 2.3756949169186310e-05 0.79999999930954868 -3.1999999987862355 -0.86409969015475518 
9000.0000000000000 2000.0000000000000 -4666.6666666669998 -45355075.857273623 -19125567.657258201 -114306595.39276242 -6.0428389248305854e-05 0.00096609973684657344 3.2211555592645912e-05 0.39999999963883631 -3.1999999987908030 -0.86409969023508648 
9000.0000000000000 1000.0000000000000 -4666.6666666669998 -45355075.860018015 -19125567.654665254 -114306595.40738130 -0.00012183351857108409 0.00055044491794037126 8.7470881151527829e-05 0.39999999964485417 -3.5999999993382548 -0.86409969036896694 
8000.0000000000000 2000.0000000000000 -4500.0000000000000 -44205025.647690982 -17975517.446585767 -110229144.64218575 -3.0707374350521979e-05 0.0016324759662025678 4.4244887500456100e-06 0.79999999932849886 -3.1999999988099499 -1.2738297710074455 
9000.0000000000000 2000.0000000000000 -4500.0000000000000 -44205025.647694811 -17975517.447683472 -110229144.64805150 -4.6587943790547199e-05 0.0015297505354450731 1.0348835055592987e-05 0.39999999964959004 -3.1999999988135768 -1.2738297711181434 
9000.0000000000000 1000.0000000000000 -4500.0000000000000 -44205025.650126956 -17975517.444864389 -110229144.66157714 -9.9847001044488099e-05 0.00087836339765224409 9.5128111066404285e-05 0.39999999965461730 -3.5999999993497949 -1.2738297713123883 
8000.0000000000000 2000.0000000000000 -4333.3333333330002 -43054872.498110913 -16825364.297151074 -106151328.92866987 -9.1952803248277757e-06 0.0022634714904938898 -2.1207977954611368e-05 0.79999999935219190 -3.1999999988401702 -1.6686782331829202 
9000.0000000000000 2000.0000000000000 -4333.3333333330002 -43054872.498042613 -16825364.298045889 -106151328.93353766 -2.9320687686811061e-05 0.0021316971238248992 -2.3658229041334733e-05 0.39999999966304767 -3.1999999988426735 -1.6686782333186021 
9000.0000000000000 1000.0000000000000 -4333.3333333330002 -43054872.500220217 -16825364.295075405 -106151328.94616711 -7.5422330422239141e-05 0.0012335809733858292 8.8560894525462945e-05 0.39999999966693262 -3.5999999993646687 -1.6686782335699450 
8000.0000000000000 2000.0000000000000 -4166.6666666669998 -41904616.399136230 -15675108.198338280 -102073148.21239765 1.4156206496142991e-05 0.0029142223537996850 -4.6373779841305597e-05 0.79999999937963306 -3.1999999988756835 -2.0486437446344907 
9000.0000000000000 2000.0000000000000 -4166.6666666669998 -41904616.399040140 -15675108.199070137 -102073148.21641873 -9.9800719719681608e-06 0.0027586672316492369 -6.1305939681786860e-05 0.39999999967854677 -3.1999999988769723 -2.0486437447905632 
9000.0000000000000 1000.0000000000000 -4166.6666666669998 -41904616.401011907 -15675108.196007969 -102073148.22831346 -5.0785564832865608e-05 0.0016083668639534222 7.4503726662388344e-05 0.39999999968123973 -3.5999999993823049 -2.0486437450963488 
8000.0000000000000 2000.0000000000000 -4000.0000000000000 -40754257.341509715 -14524749.140883032 -97994602.460575253 3.7892392075920432e-05 0.0035731062816642626 -6.7928220307192740e-05 0.79999999941008693 -3.1999999989155601 -2.4137249732026294 
9000.0000000000000 2000.0000000000000 -4000.0000000000000 -40754257.341412224 -14524749.141481400 -97994602.463877305 1.0233466738164389e-05 0.0033998342087583557 -9.7324130768323706e-05 0.39999999969558420 -3.1999999989156178 -2.4137249733752011 
9000.0000000000000 1000.0000000000000 -4000.0000000000000 -40754257.343219370 -14524749.138376202 -97994602.475170463 -2.7298892942091652e-05 0.0019961353395898701 5.7252223982892536e-05 0.39999999969710731 -3.5999999994022600 -2.4137249737332649 
8000.0000000000000 2000.0000000000000 -3833.3333333330002 -39603795.315978400 -13374287.115527868 -93915691.640427738 6.0899872434017791e-05 0.0042307612966373410 -8.4743244131811228e-05 0.79999999944299005 -3.1999999989591035 -2.7639205866013055 
9000.0000000000000 2000.0000000000000 -3833.3333333330002 -39603795.315894000 -13374287.116014831 -93915691.643117845 3.0328816580582915e-05 0.0040461424814563036 -0.00012879429300231325 0.39999999971377992 -3.1999999989579671 -2.7639205867871017 
9000.0000000000000 1000.0000000000000 -3833.3333333330002 -39603795.317571647 -13374287.112907268 -93915691.653919578 -5.7415434040331718e-06 0.0023912680446418213 3.9333054525616543e-05 0.39999999971420269 -3.5999999994241949 -2.7639205871956722 
8000.0000000000000 2000.0000000000000 -3666.6666666669998 -38453230.313289091 -12223722.113017244 -89836415.719180703 8.2354895879167486e-05 0.0048794603614862719 -9.6740795840492870e-05 0.79999999947789502 -3.1999999990058141 -3.0992292524252187 
9000.0000000000000 2000.0000000000000 -3666.6666666669998 -38453230.313224576 -12223722.113409679 -89836415.721348166 4.9526641286329865e-05 0.0046898196684761820 -0.00015439534311609865 0.39999999973284778 -3.1999999990035595 -3.0992292526214871 
9000.0000000000000 1000.0000000000000 -3666.6666666669998 -38453230.314802803 -12223722.110334754 -89836415.731749773 1.3491735184870784e-05 0.0027889601222299385 2.2071675580813608e-05 0.39999999973226791 -3.5999999994478702 -3.0992292530791166 
8000.0000000000000 2000.0000000000000 -3500.0000000000000 -37302562.324183658 -11073054.124092435 -85756774.664041966 0.00010167449198542177 0.0055125758183150143 -0.00010432296613903517 0.79999999951443646 -3.1999999990553540 -3.4196496381554371 
9000.0000000000000 2000.0000000000000 -3500.0000000000000 -37302562.324141063 -11073054.124403559 -85756774.665761322 6.7239870651134899e-05 0.0053239241543000249 -0.00017385249876156561 0.39999999975257022 -3.1999999990520829 -3.4196496383598673 
9000.0000000000000 1000.0000000000000 -3500.0000000000000 -37302562.325645790 -11073054.121392565 -85756774.675838351 3.0250840949184444e-05 0.0031849278212526641 5.9944417533791708e-06 0.39999999975110073 -3.5999999994731242 -3.4196496388653719 
8000.0000000000000 2000.0000000000000 -3333.3333333330002 -36151791.339409798 -9922283.1395018902 -81676768.442238584 0.00011846592559531456 0.0061241767771413567 -0.00010807721056227057 0.79999999955230627 -3.1999999991075283 -3.7251804111473379 
9000.0000000000000 2000.0000000000000 -3333.3333333330002 -36151791.339388281 -9922283.1397422906 -81676768.443571866 8.3046932211413766e-05 0.0059420632632457221 -0.00018753034860791658 0.39999999977277850 -3.1999999991033614 -3.7251804113579898 
9000.0000000000000 1000.0000000000000 -3333.3333333330002 -36151791.340842016 -9922283.1368243471 -81676768.453386366 4.4543775573102164e-05 0.0035752812609289135 -8.8509006814550910e-06 0.39999999977053768 -3.5999999994998761 -3.7251804119103977 
8000.0000000000000 2000.0000000000000 -3166.6666666669998 -35000917.349716142 -8771409.1499959454 -77596397.020998329 0.00013247667327572239 0.0067087158525642983 -0.00010860935553993652 0.79999999959123802 -3.1999999991622605 -4.0158202386370396 
9000.0000000000000 2000.0000000000000 -3166.6666666669998 -35000917.349713206 -8771409.1501743663 -77596397.021997333 9.6656023116837333e-05 0.0065381196122819138 -0.00019615017592420342 0.39999999979333817 -3.1999999991573258 -4.0158202388522772 
9000.0000000000000 1000.0000000000000 -3166.6666666669998 -35000917.351135597 -8771409.1473777015 -77596397.031599507 5.6466260722556674e-05 0.0039563424020291329 -2.2684427546329014e-05 0.39999999979044448 -3.5999999995281078 -4.0158202394507887 
8000.0000000000000 2000.0000000000000 -3000.0000000000000 -33849940.345847189 -7620432.1463215575 -73515660.367531583 0.00014355310789728357 0.0072607893354107956 -0.00010647938010777743 0.79999999963099910 -3.1999999992195844 -4.2915677877462288 
9000.0000000000000 2000.0000000000000 -3000.0000000000000 -33849940.345859453 -7620432.1464454057 -73515660.368239790 0.00010787198905922612 0.0071060182811108928 -0.00020060334750099775 0.39999999981413886 -3.1999999992140173 -4.2915677879646692 
9000.0000000000000 1000.0000000000000 -3000.0000000000000 -33849940.347267754 -7620432.1437985152 -73515660.377669141 6.6155897594118735e-05 0.0043244535757718597 -3.5852172628875009e-05 0.39999999981070711 -3.5999999995578595 -4.2915677886086163 
8000.0000000000000 2000.0000000000000 -2833.3333333330002 -32698860.318553742 -6469352.1192324860 -69434558.449068084 0.00015160048674197976 0.0077748689748929848 -0.00010217069707742010 0.79999999967138180 -3.1999999992796266 -4.5524217254717128 
9000.0000000000000 2000.0000000000000 -2833.3333333330002 -32698860.318577379 -6469352.1193082118 -69434558.449522227 0.00011656583802934213 0.0076395565168888473 -0.00020183695378817154 0.39999999983508699 -3.1999999992735648 -4.5524217256921711 
9000.0000000000000 1000.0000000000000 -2833.3333333330002 -32698860.319986805 -6469352.1168409092 -69434558.458808333 7.3763442430890377e-05 0.0046758903782880175 -4.8750398076208436e-05 0.39999999983122658 -3.5999999995892327 -4.5524217263809801 
8000.0000000000000 2000.0000000000000 -2666.6666666669998 -31547677.258587763 -5318169.0594839901 -65353091.232838489 0.00015656232590372584 0.0082451123126569253 -9.6105951589418783e-05 0.79999999971219848 -3.1999999993426078 -4.7983807186910417 
9000.0000000000000 2000.0000000000000 -2666.6666666669998 -31547677.258618679 -5318169.0595173538 -65353091.233070068 0.00012265285978956689 0.0081322122075792747 -0.00020079304469527117 0.39999999985609991 -3.1999999993361894 -4.7983807189125072 
9000.0000000000000 1000.0000000000000 -2666.6666666669998 -31547677.260042828 -5318169.0572617929 -65353091.242233180 7.9432109758441127e-05 0.0050067216741262544 -6.1782086755878441e-05 0.39999999985191487 -3.5999999996223799 -4.7983807196456523 
8000.0000000000000 2000.0000000000000 -2500.0000000000000 -30396391.156697143 -4166882.9578275215 -61271258.686056249 0.00015839960805952728 0.0086651598669919908 -8.8692826849890826e-05 0.79999999975327829 -3.1999999994088273 -5.0294434341665388 
9000.0000000000000 2000.0000000000000 -2500.0000000000000 -30396391.156731118 -4166882.9578237985 -61271258.686092779 0.00012607586920162126 0.0085769241949323616 -0.00019836970426185567 0.39999999987710322 -3.1999999994021939 -5.0294434343881340 
9000.0000000000000 1000.0000000000000 -2500.0000000000000 -30396391.158182118 -4166882.9558153958 -61271258.695143595 8.3284993598396807e-05 0.0053126248736415126 -7.5308460033977524e-05 0.39999999987269247 -3.5999999996575061 -5.0294434351651089 
8000.0000000000000 2000.0000000000000 -2333.3333333330002 -29245002.003636036 -3015493.8050209247 -57189060.775954388 0.00015706920742945070 0.0090279762377814300 -8.0340398115001882e-05 0.79999999979446479 -3.1999999994786688 -5.2456085385364526 
9000.0000000000000 2000.0000000000000 -2333.3333333330002 -29245002.003668711 -3015493.8049850231 -57189060.775820285 0.00012678631461468426 0.0089659526251349569 -0.00019541206308249445 0.39999999989802865 -3.1999999994719603 -5.2456085387574154 
9000.0000000000000 1000.0000000000000 -2333.3333333330002 -29245002.005157474 -3015493.8032634966 -57189060.784759983 8.5415080116844075e-05 0.0055887709586867809 -8.9656736458080199e-05 0.39999999989348739 -3.5999999996948722 -5.2456085395776819 
8000.0000000000000 2000.0000000000000 -2166.6666666669998 -28093509.790159494 -1864001.5918230691 -53106497.469766974 0.00015251741726461505 0.0093256623567895894 -7.1497447046043599e-05 0.79999999983561321 -3.1999999995525958 -5.4468746983197898 
9000.0000000000000 2000.0000000000000 -2166.6666666669998 -28093509.790186405 -1864001.5917596447 -53106497.469484508 0.00012473735927250864 0.0092907167489440848 -0.00019270726818078161 0.39999999991881285 -3.1999999995459558 -5.4468746985394523 
9000.0000000000000 1000.0000000000000 -2166.6666666669998 -28093509.791722842 -1864001.5903701310 -53106497.478304446 8.5882288216184902e-05 0.0058296604914801859 -0.00010511628886596194 0.39999999991423391 -3.5999999997347882 -5.4468746994023940 
8000.0000000000000 2000.0000000000000 -2000.0000000000000 -26941914.507018242 -712406.30898855871 -49023568.734710939 0.00014467521652988195 0.0095492326902252029 -6.2696951767843192e-05 0.79999999987658821 -3.1999999996311534 -5.6332405799195264 
9000.0000000000000 2000.0000000000000 -2000.0000000000000 -26941914.507034961 -712406.30890219344 -49023568.734301381 0.00011987471322320047 0.0095415012373125975 -0.00019096241502390281 0.39999999993939689 -3.1999999996247270 -5.6332405801373104 
9000.0000000000000 1000.0000000000000 -2000.0000000000000 -26941914.508628096 -712406.30789640616 -49023568.742982335 8.4708685881852523e-05 0.0060289329905345076 -0.00012190086116183732 0.39999999993487295 -3.5999999997776291 -5.6332405810421866 
8000.0000000000000 2000.0000000000000 -1833.3333333329999 -25790216.144968905 439292.05272203631 -44940274.538023047 0.00013345214627222041 0.0096884623562373123 -5.4555805681596663e-05 0.79999999991726400 -3.1999999997149713 -5.8047048496153870 
9000.0000000000000 2000.0000000000000 -1833.3333333329999 -25790216.144971155 439292.05282674188 -44940274.537507199 0.00011213007922821759 0.0097073601334072817 -0.00019079230720225792 0.39999999995972824 -3.1999999997089081 -5.8047048498307898 
9000.0000000000000 1000.0000000000000 -1833.3333333329999 -25790216.146629289 439292.05338919879 -44940274.546018526 8.1875322487375343e-05 0.0061792175195995967 -0.00014012842351229050 0.39999999995535301 -3.5999999998238232 -5.8047048507766625 
8000.0000000000000 2000.0000000000000 -1666.6666666670001 -24638414.694768578 1591093.5025476150 -40856614.846941210 0.00011873408963066691 0.0097316072707838101 -4.7781642328697849e-05 0.79999999995752247 -3.1999999998047670 -5.9612661735678580 
9000.0000000000000 2000.0000000000000 -1666.6666666670001 -24638414.694752492 1591093.5026659102 -40856614.846340112 0.00010142165612211288 0.0097758261675642815 -0.00019267825035944514 0.39999999997976177 -3.1999999997992230 -5.9612661737804551 
9000.0000000000000 1000.0000000000000 -1666.6666666670001 -24638414.696483351 1591093.5027160121 -40856614.854638763 7.7327725829917938e-05 0.0062718294637530373 -0.00015978854422057354 0.39999999997563229 -3.5999999998738770 -5.9612661747661324 
4000.0000000000000 1000.0000000000000 -4833.3333333330002 -46505023.136645690 -20275514.920054011 -118383681.15511042 -3.7202686820002341e-05 0.00025340004453064223 -0.00027257860357614728 2.3999999984713969 -3.5999999993387850 -0.43948932240994243 
5000.0000000000000 2000.0000000000000 -4833.3333333330002 -46505023.132597946 -20275514.926461354 -118383681.15911454 0.00021380305766296309 0.00045007206738645409 -6.9184132373885257e-06 1.9999999985701107 -3.1999999987882894 -0.43948932243287814 
4000.0000000000000 1000.0000000000000 -5000.0000000000000 -47079971.044036597 -20850462.827360459 -120422132.82684997 -4.2016402830820586e-05 0.00012081697141953726 -0.00012774682046957537 2.3999999984645215 -3.5999999993361311 0.0000000000000000 
5000.0000000000000 2000.0000000000000 -5000.0000000000000 -47079971.039976493 -20850462.833814964 -120422132.83098836 0.00021643373371034466 0.00021565558814753833 1.8677753419025563e-06 1.9999999985642474 -3.1999999987829266 0.0000000000000000 
4000.0000000000000 1000.0000000000000 -4666.6666666669998 -45355075.858715110 -19125567.642367464 -114306595.35132109 -2.4698689252132223e-05 0.00053954027652773314 -0.00059135623264080801 2.3999999984908329 -3.5999999993462914 -0.86409968987923702 
5000.0000000000000 2000.0000000000000 -4666.6666666669998 -45355075.854711980 -19125567.648657050 -114306595.35500374 0.00020627344853595510 0.00095119287343677496 -4.4942846120440101e-05 1.9999999985870818 -3.1999999988032863 -0.86409968992122554 
4000.0000000000000 1000.0000000000000 -4500.0000000000000 -44205025.649844490 -17975517.433880743 -110229144.61048119 -8.3510852850914332e-06 0.00086285905664155310 -0.00095969069329419237 2.3999999985207285 -3.5999999993578120 -1.2738297706085735 
5000.0000000000000 2000.0000000000000 -4500.0000000000000 -44205025.645916156 -17975517.440011460 -110229144.61375187 0.00019473525598606619 0.0015076648699348437 -0.00012186705274432381 1.9999999986139889 -3.1999999988260024 -1.2738297706658015 
4000.0000000000000 1000.0000000000000 -4333.3333333330002 -43054872.500757791 -16825364.285299167 -106151328.89975487 8.8087538494361483e-06 0.0012143705265005896 -0.0013622646209736843 2.3999999985594456 -3.5999999993726415 -1.6686782326711103 
5000.0000000000000 2000.0000000000000 -4333.3333333330002 -43054872.496920690 -16825364.291240379 -106151328.90254894 0.00018024504252870784 0.0021030120579931793 -0.00023294268356805148 1.9999999986497703 -3.1999999988549774 -1.6686782327399285 
4000.0000000000000 1000.0000000000000 -4166.6666666669998 -41904616.402186058 -15675108.187338671 -102073148.18631604 2.5052971196660857e-05 0.0015862318518311226 -0.0017869559570702482 2.3999999986056797 -3.5999999993902132 -2.0486437440205427 
5000.0000000000000 2000.0000000000000 -4166.6666666669998 -41904616.398451544 -15675108.193068234 -102073148.18858789 0.00016379614869554003 0.0027240404553365511 -0.00037219613593161426 1.9999999986934396 -3.1999999988890946 -2.0486437440974794 
4000.0000000000000 1000.0000000000000 -4000.0000000000000 -40754257.344861522 -14524749.130718408 -97994602.437327445 3.9485586413605919e-05 0.0019717067011042659 -0.0022236332884300780 2.3999999986583767 -3.5999999994100764 -2.4137249724975685 
5000.0000000000000 2000.0000000000000 -4000.0000000000000 -40754257.341240078 -14524749.136221096 -97994602.439047247 0.00014623893307956905 0.0033599626669223088 -0.00053290787663576463 1.9999999987440835 -3.1999999989275030 -2.4137249725793199 
4000.0000000000000 1000.0000000000000 -3833.3333333330002 -39603795.319527425 -13374287.106170090 -93915691.619977564 5.1721990999073779e-05 0.0023650711832214656 -0.0026634120725836379 2.3999999987166802 -3.5999999994318910 -2.7639205858162375 
5000.0000000000000 2000.0000000000000 -3833.3333333330002 -39603795.316030249 -13374287.111435687 -93915691.621128157 0.00012824705764668938 0.0040017605030619133 -0.00070790462665146171 1.9999999988008665 -3.1999999989695662 -2.7639205858996521 
4000.0000000000000 1000.0000000000000 -3666.6666666669998 -38453230.316932142 -12223722.104431910 -89836415.701462463 6.1678585578327677e-05 0.0027613686904908582 -0.0030982743095380040 2.3999999987799012 -3.5999999994554104 -3.0992292515711948 
5000.0000000000000 2000.0000000000000 -3666.6666666669998 -38453230.313571468 -12223722.109453311 -89836415.702036247 0.00011031567564060827 0.0046415451362868988 -0.00088992065538633894 1.9999999988630357 -3.1999999990148242 -3.0992292516532567 
4000.0000000000000 1000.0000000000000 -3500.0000000000000 -37302562.327823184 -11073054.116242385 -85756774.648966447 6.9437018573168481e-05 0.0031561986020928450 -0.0035208931087562828 2.3999999988474965 -3.5999999994804730 -3.4196496372433449 
5000.0000000000000 2000.0000000000000 -3500.0000000000000 -37302562.324611932 -11073054.121013941 -85756774.648963004 9.2793007860256409e-05 0.0052723150200268331 -0.0010719762238969100 1.9999999989299262 -3.1999999990629644 -3.4196496373211507 
4000.0000000000000 1000.0000000000000 -3333.3333333330002 -36151791.342956603 -9922283.1323498636 -81676768.429697812 7.5160871485811459e-05 0.0035456239297172662 -0.0039244250133418862 2.3999999989190450 -3.5999999995069878 -3.7251804101877974 
5000.0000000000000 2000.0000000000000 -3333.3333333330002 -36151791.339908041 -9922283.1368659902 -81676768.429122314 7.5911141333181458e-05 0.0058876487141938660 -0.0012474792010706661 1.9999999990009589 -3.1999999991138064 -3.7251804102585426 
4000.0000000000000 1000.0000000000000 -3166.6666666669998 -35000917.353091277 -8771409.1435066815 -77596397.010869592 7.9036692908549840e-05 0.0039259236992841926 -0.0043024469169126419 2.3999999989942391 -3.5999999995349339 -4.0158202376403205 
5000.0000000000000 2000.0000000000000 -3166.6666666669998 -35000917.350218579 -8771409.1477606427 -77596397.009731725 5.9808683975440691e-05 0.0064813716679755903 -0.0014103866872324621 1.9999999990756410 -3.1999999991672792 -4.0158202377012850 
4000.0000000000000 1000.0000000000000 -3000.0000000000000 -33849940.348983161 -7620432.1404634537 -73515660.359680489 8.1251149462858036e-05 0.0042934263145687828 -0.0046488339797700964 2.3999999990728678 -3.5999999995643508 -4.2915677867221715 
5000.0000000000000 2000.0000000000000 -3000.0000000000000 -33849940.346299045 -7620432.1444463059 -73515660.357993796 4.4555689577507803e-05 0.0070473889933140021 -0.0015553200717674848 1.9999999991535626 -3.1999999992234183 -4.2915677867707194 
4000.0000000000000 1000.0000000000000 -2833.3333333330002 -32698860.321395267 -6469352.1139790071 -69434558.443350747 8.1973856024977231e-05 0.0046444366984820344 -0.0049578186434901077 2.3999999991548084 -3.5999999995953336 -4.5524217244296565 
5000.0000000000000 2000.0000000000000 -2833.3333333330002 -32698860.318911672 -6469352.1176786553 -69434558.441132635 3.0178916049044438e-05 0.0075794928829391768 -0.0016776072320249678 1.9999999992343886 -3.1999999992823476 -4.5524217244632297 
4000.0000000000000 1000.0000000000000 -2666.6666666669998 -31547677.261092201 -5318169.0548148490 -65353091.229103245 8.1341372357526641e-05 0.0049750475296956231 -0.0052238832451966524 2.3999999992400194 -3.5999999996280319 -4.7983807176397635 
5000.0000000000000 2000.0000000000000 -2666.6666666669998 -31547677.258819971 -5318169.0582151422 -65353091.226374984 1.6681091947003639e-05 0.0080711632660251578 -0.0017733128251603951 1.9999999993178545 -3.1999999993442829 -4.7983807176558981 
4000.0000000000000 1000.0000000000000 -2500.0000000000000 -30396391.158834890 -4166882.9537298628 -61271258.684144929 7.9462361679010179e-05 0.0052810041200581307 -0.0054416941642216245 2.3999999993285246 -3.5999999996626491 -5.0294434331141948 
5000.0000000000000 2000.0000000000000 -2500.0000000000000 -30396391.156783476 -4166882.9568096348 -61271258.680931978 4.0521917338785548e-06 0.0085154046363184327 -0.0018392219098508911 1.9999999994037589 -3.1999999994095223 -5.0294434331105320 
4000.0000000000000 1000.0000000000000 -2333.3333333330002 -29245002.005390689 -3015493.8014902985 -57189060.775702387 7.6409293906669150e-05 0.0055575484494464677 -0.0056061816098313044 2.3999999994204129 -3.5999999996994410 -5.2456085374905159 
5000.0000000000000 2000.0000000000000 -2333.3333333330002 -29245002.003567860 -3015493.8042224888 -57189060.772035331 -7.7223091225083201e-06 0.0089045563861866774 -0.0018728774240316898 1.9999999994919553 -3.1999999994784436 -5.2456085374648316 
4000.0000000000000 1000.0000000000000 -2166.6666666669998 -28093509.791528177 -1864001.5888645540 -53106497.471003316 7.2214738151614780e-05 0.0057992193909623940 -0.0057124702131249446 2.3999999995158294 -3.5999999997387175 -5.4468746972869875 
5000.0000000000000 2000.0000000000000 -2166.6666666669998 -28093509.789939746 -1864001.5912152100 -53106497.466918841 -1.8646020926522333e-05 0.0092300467782620386 -0.0018726093658754559 1.9999999995823461 -3.1999999995515078 -5.4468746972372211 
4000.0000000000000 1000.0000000000000 -2000.0000000000000 -26941914.508012183 -712406.30661810574 -49023568.737258323 6.6879624761510451e-05 0.0059997292801805798 -0.0057559123182067476 2.3999999996149657 -3.5999999997808514 -5.6332405789057809 
5000.0000000000000 2000.0000000000000 -2000.0000000000000 -26941914.506661586 -712406.30854523077 -49023568.732800432 -2.8710188690077527e-05 0.0094822268853261213 -0.0018375329747543174 1.9999999996748696 -3.1999999996292585 -5.6332405788300894 
4000.0000000000000 1000.0000000000000 -1833.3333333329999 -25790216.145614054 439292.05447630584 -44940274.541696697 6.0369794702745590e-05 0.0061517454917345065 -0.0057321085678636412 2.3999999997180583 -3.5999999998262728 -5.8047048486257404 
5000.0000000000000 2000.0000000000000 -1833.3333333329999 -25790216.144501898 439292.05302398966 -44940274.536918305 -3.7892386868750674e-05 0.0096502287331199990 -0.0017675985881545715 1.9999999997694977 -3.1999999997123250 -5.8047048485225492 
4000.0000000000000 1000.0000000000000 -1666.6666666670001 -24638414.695106596 1591093.5036437714 -40856614.851547785 5.2623171568915258e-05 0.0062466526730024317 -0.0056369323772631407 2.3999999998253787 -3.5999999998754832 -5.9612661726063987 
5000.0000000000000 2000.0000000000000 -1666.6666666670001 -24638414.694230206 1591093.5027282485 -40856614.846512735 -4.6156623505176495e-05 0.0097216343326344112 -0.0016636532181947936 1.9999999998662210 -3.1999999998014279 -5.9612661724744820 
2000.0000000000000 7000.0000000000000 -4833.3333333330002 -46505023.117324941 -20275514.918773010 -118383681.00143032 0.00017601070226098132 -0.00026666642208701555 -0.00043778487033144632 3.1999999989038121 -1.1999999990119934 -0.43948932175050542 
2000.0000000000000 6000.0000000000000 -4833.3333333330002 -46505023.120254904 -20275514.919824105 -118383681.01212800 0.00021142772907043692 -0.00018626970669536076 -0.00043856044528811557 3.1999999988977019 -1.5999999987093227 -0.43948932178954980 
1000.0000000000000 6000.0000000000000 -4833.3333333330002 -46505023.122709572 -20275514.916724622 -118383680.99556622 -4.1220007873736773e-05 -0.00016766359351786154 -0.00039635045637507424 3.5999999993752634 -1.5999999987084537 -0.43948932170531896 
1000.0000000000000 7000.0000000000000 -4833.3333333330002 -46505023.119897678 -20275514.915596925 -118383680.98445451 -1.8673349889134063e-05 -0.00025440453708419999 -0.00044114683348884620 3.5999999993724510 -1.1999999990119841 -0.43948932166214844 
2000.0000000000000 7000.0000000000000 -5000.0000000000000 -47079971.022934988 -20850462.824407928 -120422132.66665313 0.00017685697669717423 -0.00013742063622369024 -0.00020904625254615017 3.1999999988988996 -1.1999999990079435 0.0000000000000000 
2000.0000000000000 6000.0000000000000 -5000.0000000000000 -47079971.025988609 -20850462.825567309 -120422132.67775559 0.00021238177456338195 -9.8865890418865738e-05 -0.00020954576419094460 3.1999999988927561 -1.5999999987040350 0.0000000000000000 
1000.0000000000000 6000.0000000000000 -5000.0000000000000 -47079971.028213881 -20850462.822188612 -120422132.66014889 -4.7015799572305782e-05 -8.9920215776373839e-05 -0.00019288477712637545 3.5999999993713381 -1.5999999987029323 0.0000000000000000 
1000.0000000000000 7000.0000000000000 -5000.0000000000000 -47079971.025271222 -20850462.820937146 -120422132.64856924 -2.2793389309232333e-05 -0.00013156487528674494 -0.00021541839462218160 3.5999999993682392 -1.1999999990077723 0.0000000000000000 
2000.0000000000000 7000.0000000000000 -4666.6666666669998 -45355075.842708424 -19125567.644096687 -114306595.21002086 0.00017347998825143851 -0.00050894216422023720 -0.00092842234533850230 3.1999999989175834 -1.1999999990238270 -0.86409968860705877 
2000.0000000000000 6000.0000000000000 -4666.6666666669998 -45355075.845387653 -19125567.644940507 -114306595.21991618 0.00020855945507418079 -0.00033888813958182892 -0.00092946837114590928 3.1999999989115646 -1.5999999987247262 -0.86409968868271680 
1000.0000000000000 6000.0000000000000 -4666.6666666669998 -45355075.848203182 -19125567.642332401 -114306595.20524037 -2.6188786835784788e-05 -0.00030037042022542824 -0.00081731059845319696 3.5999999993856378 -1.5999999987244367 -0.86409968852433561 
1000.0000000000000 7000.0000000000000 -4666.6666666669998 -45355075.845646650 -19125567.641438693 -114306595.19504762 -7.9589506878707447e-06 -0.00048338088299761464 -0.00090510531002051026 3.5999999993835310 -1.1999999990242196 -0.86409968844134077 
2000.0000000000000 7000.0000000000000 -4500.0000000000000 -44205025.636671580 -17975517.437993538 -110229144.48031382 0.00016930094986226216 -0.00071930714118614392 -0.0014740530508512049 3.1999999989384480 -1.1999999990428003 -1.2738297687663656 
2000.0000000000000 6000.0000000000000 -4500.0000000000000 -44205025.639097795 -17975517.438650418 -110229144.48942231 0.00020379141635647720 -0.00044889711118798473 -0.0014750950471770811 3.1999999989325656 -1.5999999987493214 -1.2738297688761893 
1000.0000000000000 6000.0000000000000 -4500.0000000000000 -44205025.642112352 -17975517.436414920 -110229144.47625826 -6.6184793914827500e-06 -0.00039065127242915839 -0.0012555009293971355 3.5999999994001759 -1.5999999987497575 -1.2738297686518560 
1000.0000000000000 7000.0000000000000 -4500.0000000000000 -44205025.639798485 -17975517.435727503 -110229144.46695028 6.0490510783515399e-06 -0.00068046025232923284 -0.0013817659542473752 3.5999999993989396 -1.1999999990436991 -1.2738297685322986 
2000.0000000000000 7000.0000000000000 -4333.3333333330002 -43054872.489974104 -16825364.291243553 -106151328.77959171 0.00016356078115104504 -0.00089932375906336701 -0.0020544477711070047 3.1999999989649730 -1.1999999990682546 -1.6686782302979464 
2000.0000000000000 6000.0000000000000 -4333.3333333330002 -43054872.492152311 -16825364.291736491 -106151328.78793119 0.00019720665512489889 -0.00052048393409574972 -0.0020556919236486611 3.1999999989592727 -1.5999999987821902 -1.6686782304394716 
1000.0000000000000 6000.0000000000000 -4333.3333333330002 -43054872.495259680 -16825364.289781027 -106151328.77596459 1.3758048939235900e-05 -0.00044478257574632042 -0.0016945445844172573 3.5999999994174341 -1.5999999987833751 -1.6686782301557503 
1000.0000000000000 7000.0000000000000 -4333.3333333330002 -43054872.493175492 -16825364.289271481 -106151328.76750672 2.0694714174486831e-05 -0.00084873309165163946 -0.0018526544672871886 3.5999999994170859 -1.1999999990696779 -1.6686782300028027 
2000.0000000000000 7000.0000000000000 -4166.6666666669998 -41904616.393389232 -15675108.194629289 -102073148.07513964 0.00015640073180463477 -0.0010514085143285372 -0.0026537685469360034 3.1999999989960419 -1.1999999990995389 -2.0486437411521927 
2000.0000000000000 6000.0000000000000 -4166.6666666669998 -41904616.395329043 -15675108.194982659 -102073148.08273020 0.00018896205646135264 -0.00055882050990206569 -0.0026557563076191866 3.1999999989905663 -1.5999999988224458 -2.0486437413229446 
1000.0000000000000 6000.0000000000000 -4166.6666666669998 -41904616.398459107 -15675108.193234358 -102073148.07169825 3.2774296164084978e-05 -0.00046902168713853012 -0.0021263479510764492 3.5999999994365131 -1.5999999988243281 -2.0486437409849851 
1000.0000000000000 7000.0000000000000 -4166.6666666669998 -41904616.396591499 -15675108.192874322 -102073148.06405567 3.4405577477101599e-05 -0.00099142931290076394 -0.0023089537438580848 3.5999999994369896 -1.1999999991014494 -2.0486437408017264 
2000.0000000000000 7000.0000000000000 -4000.0000000000000 -40754257.337691166 -14524749.138927821 -97994602.334221542 0.00014800347280957848 -0.0011784881175726546 -0.0032598166493616539 3.1999999990308101 -1.1999999991360195 -2.4137249691667821 
2000.0000000000000 6000.0000000000000 -4000.0000000000000 -40754257.339405127 -14524749.139166426 -97994602.341085792 0.00017926320984221243 -0.00056956299136983238 -0.0032632766539791133 3.1999999990256005 -1.5999999988692475 -2.4137249693642868 
1000.0000000000000 6000.0000000000000 -4000.0000000000000 -40754257.342511706 -14524749.137568632 -97994602.330774456 4.9280481014650348e-05 -0.00046946972591026959 -0.0025474481486638220 3.5999999994568919 -1.5999999988717351 -2.4137249689760480 
1000.0000000000000 7000.0000000000000 -4000.0000000000000 -40754257.340847604 -14524749.137330379 -97994602.323911846 4.6322728749000958e-05 -0.0011118255970755759 -0.0027472567050160213 3.5999999994580874 -1.1999999991383508 -2.4137249687654614 
2000.0000000000000 7000.0000000000000 -3833.3333333330002 -39603795.313662417 -13374287.114920886 -93915691.524119303 0.00013857503798740271 -0.0012837540049543091 -0.0038633236390597549 3.1999999990686678 -1.1999999991770911 -2.7639205820529900 
2000.0000000000000 6000.0000000000000 -3833.3333333330002 -39603795.315164693 -13374287.115069153 -93915691.530282244 0.00016834329232922853 -0.00055853378230652701 -0.0038690078411104164 3.1999999990637602 -1.5999999989218132 -2.7639205822747921 
1000.0000000000000 6000.0000000000000 -3833.3333333330002 -39603795.318216778 -13374287.113578141 -93915691.520520717 6.2776708251298792e-05 -0.00045197205254475476 -0.0029567512150350406 3.5999999994782921 -1.5999999989247955 -2.7639205818392694 
1000.0000000000000 7000.0000000000000 -3833.3333333330002 -39603795.316743143 -13374287.113435118 -93915691.514402151 5.6050679975640268e-05 -0.0012131450815841495 -0.0031669730764116032 3.5999999994800822 -1.1999999991797614 -2.7639205816042374 
2000.0000000000000 7000.0000000000000 -3666.6666666669998 -38453230.312086746 -12223722.113389816 -89836415.612116247 0.00012832678288712641 -0.0013704594842231510 -0.0044571141957907203 3.1999999991091963 -1.1999999992221826 -3.0992292474029353 
2000.0000000000000 6000.0000000000000 -3666.6666666669998 -38453230.313392319 -12223722.113471063 -89836415.617605209 0.00015644664862755832 -0.00053147148927243967 -0.0044657206198520510 3.1999999991046235 -1.5999999989794236 -3.0992292476466110 
1000.0000000000000 6000.0000000000000 -3666.6666666669998 -38453230.316367432 -12223722.112052836 -89836415.608258396 7.3164987617806431e-05 -0.00042203274961928096 -0.0033541078571617052 3.5999999995005925 -1.5999999989827858 -3.0992292471660337 
1000.0000000000000 7000.0000000000000 -3666.6666666669998 -38453230.315071382 -12223722.111980202 -89836415.602847472 6.3479547725069069e-05 -0.0012984806239186677 -0.0035687054178434067 3.5999999995028524 -1.1999999992251060 -3.0992292469093279 
2000.0000000000000 7000.0000000000000 -3500.0000000000000 -37302562.323742501 -11073054.125109956 -85756774.565478578 0.00011746709844245322 -0.0014417549347399534 -0.0050354418258678011 3.1999999991521402 -1.1999999992707602 -3.4196496326952355 
2000.0000000000000 6000.0000000000000 -3500.0000000000000 -37302562.324866578 -11073054.125145786 -85756774.570322737 0.00014380755624749411 -0.00049381215449336509 -0.0050475763087838785 3.1999999991479262 -1.5999999990414278 -3.4196496329584076 
1000.0000000000000 6000.0000000000000 -3500.0000000000000 -37302562.327746384 -11073054.123773698 -85756774.561285198 8.0577442368158920e-05 -0.00038470963137712225 -0.0037395561429261919 3.5999999995237806 -1.5999999990450577 -3.4196496324344094 
1000.0000000000000 7000.0000000000000 -3500.0000000000000 -37302562.326615334 -11073054.123748774 -85756774.556545049 6.8669776823834835e-05 -0.0013707056653235095 -0.0039532997971965583 3.5999999995263923 -1.1999999992738515 -3.4196496321586882 
2000.0000000000000 7000.0000000000000 -3333.3333333330002 -36151791.339412123 -9922283.1408607550 -81676768.351491496 0.00010618499797269500 -0.0015005697782954376 -0.0055934493785415075 3.1999999991973702 -1.1999999993223269 -3.7251804052829591 
2000.0000000000000 6000.0000000000000 -3333.3333333330002 -36151791.340369664 -9922283.1408705600 -81676768.355721578 0.00013063940500570697 -0.00045055963899099413 -0.0056095667145189699 3.1999999991935351 -1.5999999991072413 -3.7251804055633171 
1000.0000000000000 6000.0000000000000 -3333.3333333330002 -36151791.343137123 -9922283.1395235825 -81676768.346912533 8.5270421469528347e-05 -0.00034457215591010212 -0.0041128095981485552 3.5999999995479111 -1.5999999991110341 -3.7251804049970727 
1000.0000000000000 7000.0000000000000 -3333.3333333330002 -36151791.342158824 -9922283.1395262238 -81676768.342805922 7.1773489529239375e-05 -0.0014324253875429233 -0.0043213006344835665 3.5999999995507674 -1.1999999993255066 -3.7251804047048793 
2000.0000000000000 7000.0000000000000 -3166.6666666669998 -35000917.349876560 -8771409.1514205094 -77596396.937440485 9.4648631403667759e-05 -0.0015495243460263994 -0.0061267045664572198 3.1999999992448731 -1.1999999993764263 -4.0158202324000714 
2000.0000000000000 6000.0000000000000 -3166.6666666669998 -35000917.350682087 -8771409.1514210962 -77596396.941088706 0.00011712831303512355 -0.00040620546688310979 -0.0061470934132158619 3.1999999992414305 -1.5999999991763425 -4.0158202326953756 
1000.0000000000000 6000.0000000000000 -3166.6666666669998 -35000917.353319384 -8771409.1500824392 -77596396.932447866 8.7552439315719590e-05 -0.00030563263497464791 -0.0044729744780973701 3.5999999995730971 -1.5999999991802052 -4.0158202320877345 
1000.0000000000000 7000.0000000000000 -3166.6666666669998 -35000917.352482036 -8771409.1500953585 -77596396.928937197 7.2986645525051336e-05 -0.0014859069506320576 -0.0046726448257498601 3.5999999995761018 -1.1999999993796211 -4.0158202317814817 
2000.0000000000000 7000.0000000000000 -3000.0000000000000 -33849940.345909953 -7620432.1475611664 -73515660.290592819 8.2995540917351669e-05 -0.0015908538676230339 -0.0066308674635660314 3.1999999992947261 -1.1999999994326378 -4.2915677811662718 
2000.0000000000000 6000.0000000000000 -3000.0000000000000 -33849940.346577309 -7620432.1475664405 -73515660.293692604 0.00010342095936492546 -0.00036464782265083640 -0.0066556543067307142 3.1999999992916845 -1.5999999992482741 -4.2915677814743729 
1000.0000000000000 6000.0000000000000 -3000.0000000000000 -33849940.349064589 -7620432.1462226138 -73515660.285177141 8.7732258508962628e-05 -0.00027130738850539846 -0.0048185127167411738 3.5999999995994889 -1.5999999992521212 -4.2915677808259574 
1000.0000000000000 7000.0000000000000 -3000.0000000000000 -33849940.348356895 -7620432.1462316066 -73515660.282224461 7.2515412283487778e-05 -0.0015330162779161047 -0.0050065460953049182 3.5999999996025562 -1.1999999994357824 -4.2915677805079264 
2000.0000000000000 7000.0000000000000 -2833.3333333330002 -32698860.318289891 -6469352.1200586641 -69434558.378233820 7.1325395214355829e-05 -0.0016263236777766001 -0.0071014091929857675 3.1999999993470918 -1.1999999994905768 -4.5524217185765439 
2000.0000000000000 6000.0000000000000 -2833.3333333330002 -32698860.318832129 -6469352.1200793358 -69434558.380819559 8.9626076642546773e-05 -0.00032912839858381866 -0.0071305678023066994 3.1999999993444552 -1.5999999993226335 -4.5524217188953928 
1000.0000000000000 6000.0000000000000 -2833.3333333330002 -32698860.321146499 -6469352.1187194083 -69434558.372401759 8.6096794102907316e-05 -0.00024438564045451826 -0.0051471447262463289 3.5999999996272716 -1.5999999993263907 -4.5524217182066868 
1000.0000000000000 7000.0000000000000 -2833.3333333330002 -32698860.320557773 -6469352.1187135987 -69434558.369968832 7.0552944559541217e-05 -0.0015751854938220817 -0.0053214194015031710 3.5999999996303278 -1.1999999994936112 -4.5524217178790236 
2000.0000000000000 7000.0000000000000 -2666.6666666669998 -31547677.257792450 -5318169.0596879227 -65353091.167648830 5.9708126584526279e-05 -0.0016572113243441338 -0.0075334270794174671 3.1999999994022024 -1.1999999995498891 -4.7983807115067920 
2000.0000000000000 6000.0000000000000 -2666.6666666669998 -31547677.258221760 -5318169.0597312925 -65353091.169755705 7.5814558748515449e-05 -0.00030222053631895915 -0.0075667953661144307 3.1999999993999735 -1.5999999993990692 -4.7983807118344517 
1000.0000000000000 6000.0000000000000 -2666.6666666669998 -31547677.260336485 -5318169.0583462818 -65353091.161420792 8.2893240860291680e-05 -0.00022701199492973907 -0.0054558093087127809 3.5999999996566605 -1.5999999994026717 -4.7983807111058789 
1000.0000000000000 7000.0000000000000 -2666.6666666669998 -31547677.259856682 -5318169.0583182890 -65353091.159469143 6.7274928789390321e-05 -0.0016133715095220233 -0.0056148431743489220 3.5999999996596412 -1.1999999995527615 -4.7983807107705845 
2000.0000000000000 7000.0000000000000 -2500.0000000000000 -30396391.155187063 -4166882.9572176593 -61271258.626104355 4.8178623065239707e-05 -0.0016842583568993847 -0.0079214074660343761 3.1999999994603638 -1.1999999996102504 -5.0294434267178749 
2000.0000000000000 6000.0000000000000 -2500.0000000000000 -30396391.155514702 -4166882.9572874326 -61271258.627768256 6.2014928823040988e-05 -0.00028578600038853665 -0.0079586928427101307 3.1999999994585413 -1.5999999994772778 -5.0294434270525281 
1000.0000000000000 6000.0000000000000 -2500.0000000000000 -30396391.157398529 -4166882.9558699206 -61271258.619513236 7.8323826161549466e-05 -0.00022065703998535465 -0.0057406222418172476 3.5999999996879057 -1.5999999994806675 -5.0294434262845256 
1000.0000000000000 7000.0000000000000 -2500.0000000000000 -30396391.157018326 -4166882.9558159979 -61271258.618004084 6.2833763210334029e-05 -0.0016480115051030007 -0.0058835047304714979 3.5999999996907519 -1.1999999996129134 -5.0294434259434482 
2000.0000000000000 7000.0000000000000 -2333.3333333330002 -29245002.001246974 -3015493.8034207830 -57189060.720884517 3.6737006157123772e-05 -0.0017076175607459363 -0.0082591024295307520 3.1999999995219457 -1.1999999996713588 -5.2456085308467486 
2000.0000000000000 6000.0000000000000 -2333.3333333330002 -29245002.001483247 -3015493.8035169151 -57189060.722142063 4.8218188876782044e-05 -0.00028096886847435741 -0.0082998971470216974 3.1999999995205317 -1.5999999995569931 -5.2456085311867104 
1000.0000000000000 6000.0000000000000 -2333.3333333330002 -29245002.003099740 -3015493.8020606805 -57189060.713974655 7.2544319018536077e-05 -0.00022610836351866502 -0.0059968857489192898 3.5999999997212870 -1.5999999995601173 -5.2456085303797870 
1000.0000000000000 7000.0000000000000 -2333.3333333330002 -29245002.002810553 -3015493.8019808722 -57189060.712868907 5.7355900468491820e-05 -0.0016789838966226182 -0.0061232293707898519 3.5999999997239480 -1.1999999996737707 -5.2456085300346169 
2000.0000000000000 7000.0000000000000 -2166.6666666669998 -28093509.786744349 -1864001.5890694566 -53106497.419273183 2.5354848184747879e-05 -0.0017268423065193307 -0.0085393560411671909 3.1999999995873871 -1.1999999997329336 -5.4468746904113052 
2000.0000000000000 6000.0000000000000 -2166.6666666669998 -28093509.786898572 -1864001.5891879795 -53106497.420161612 3.4383834071916649e-05 -0.00028818804696908968 -0.0085831545735474621 3.1999999995863813 -1.5999999996379834 -5.4468746907550321 
1000.0000000000000 6000.0000000000000 -2166.6666666669998 -28093509.788205311 -1864001.5876876987 -53106497.412099518 6.5665521060802594e-05 -0.00024346048607511235 -0.0062190167581478335 3.5999999997571193 -1.5999999996407945 -5.4468746899098255 
1000.0000000000000 7000.0000000000000 -2166.6666666669998 -28093509.787999365 -1864001.5875859568 -53106497.411357686 5.0945879703919506e-05 -0.0017056017195319732 -0.0063289048696081908 3.5999999997595498 -1.1999999997350559 -5.4468746895620876 
2000.0000000000000 7000.0000000000000 -2000.0000000000000 -26941914.502445146 -712406.30492990429 -49023568.688535005 1.3971711264457546e-05 -0.0017408483920470820 -0.0087539311415900049 3.1999999996571948 -1.1999999997947077 -5.6332405718135883 
2000.0000000000000 6000.0000000000000 -2000.0000000000000 -26941914.502525646 -712406.30506276456 -49023568.689092249 2.0433992920441497e-05 -0.00030708469939039017 -0.0088001289781080884 3.1999999996566002 -1.5999999997200425 -5.6332405721596865 
1000.0000000000000 6000.0000000000000 -2000.0000000000000 -26941914.503473356 -712406.30351376545 -49023568.681162849 5.7761988544939908e-05 -0.00027206410830037510 -0.0064004813614911560 3.5999999997957590 -1.5999999997224950 -5.6332405712770193 
1000.0000000000000 7000.0000000000000 -2000.0000000000000 -26941914.503343716 -712406.30339811207 -49023568.680745013 4.3689063786178489e-05 -0.0017265626815033417 -0.0064944099558750679 3.5999999997979160 -1.1999999997965058 -5.6332405709280673 
2000.0000000000000 7000.0000000000000 -1833.3333333329999 -25790216.139119837 439292.05822700937 -44940274.495952703 2.4918806732130189e-06 -0.0017478955117672336 -0.0088933036229113353 3.1999999997319488 -1.1999999998564244 -5.8047048413325530 
2000.0000000000000 6000.0000000000000 -1833.3333333329999 -25790216.139133900 439292.05809211452 -44940274.496217348 6.2550224138410403e-06 -0.00033651342890678068 -0.0089412059327205508 3.1999999997317699 -1.5999999998029830 -5.8047048416797873 
1000.0000000000000 6000.0000000000000 -1833.3333333329999 -25790216.139665373 439292.05969411402 -44940274.488457531 4.8879285942051250e-05 -0.00031052326435423408 -0.0065336894633383413 3.5999999998376069 -1.5999999998050336 -5.8047048407607171 
1000.0000000000000 7000.0000000000000 -1833.3333333329999 -25790216.139605965 439292.05981143762 -44940274.488323256 3.5654064119719626e-05 -0.0017399374705983474 -0.0066125049626184779 3.5999999998394534 -1.1999999998578657 -5.8047048404117243 
2000.0000000000000 7000.0000000000000 -1666.6666666670001 -24638414.687538378 1591093.5096308778 -40856614.808808312 -9.2068697489851856e-06 -0.0017455424750684404 -0.0089464401797610029 3.1999999998123085 -1.1999999999178301 -5.9612661651280865 
2000.0000000000000 6000.0000000000000 -1666.6666666670001 -24638414.687492162 1591093.5095107257 -40856614.808819756 -8.2947315582502270e-06 -0.00037452001942265742 -0.0089952951239201610 3.1999999998125550 -1.5999999998866288 -5.9612661654753945 
1000.0000000000000 6000.0000000000000 -1666.6666666670001 -24638414.687540848 1591093.5111699281 -40856614.801275827 3.9046436280642850e-05 -0.00035667011920894508 -0.0066098086206890045 3.5999999998831176 -1.5999999998882357 -5.9612661645212679 
1000.0000000000000 7000.0000000000000 -1666.6666666670001 -24638414.687546540 1591093.5112722523 -40856614.801384106 2.6901026986690984e-05 -0.0017431393176250058 -0.0066746568243846362 3.5999999998846173 -1.1999999999188844 -5.9612661641732192 
6000.0000000000000 7000.0000000000000 -4833.3333333330002 -46505023.112679087 -20275514.934109386 -118383681.07501698 5.0880111414156371e-05 -0.00025095202731974491 0.00012230527513320831 1.5999999987799898 -1.1999999989789056 -0.43948932206126573 
6000.0000000000000 7000.0000000000000 -5000.0000000000000 -47079971.019026533 -20850462.840530749 -120422132.74308202 4.7491655044890939e-05 -0.00013029096203420000 6.7786637361480574e-05 1.5999999987743567 -1.1999999989744434 0.0000000000000000 
6000.0000000000000 7000.0000000000000 -4666.6666666669998 -45355075.836721115 -19125567.657938309 -114306595.27814291 5.9797738504609974e-05 -0.00047388488167638613 0.00020741398100301793 1.5999999987961782 -1.1999999989918526 -0.86409968920903590 
6000.0000000000000 7000.0000000000000 -4500.0000000000000 -44205025.629610397 -17975517.450493887 -110229144.54339999 7.1691762999892084e-05 -0.00066184665818451503 0.00024959563249823789 1.5999999988215805 -1.1999999990124222 -1.2738297696410255 
6000.0000000000000 7000.0000000000000 -4333.3333333330002 -43054872.482101098 -16825364.302548304 -106151328.83804502 8.4390663196070079e-05 -0.00081855002375257491 0.00025814687965309240 1.5999999988550084 -1.1999999990397958 -1.6686782314277553 
6000.0000000000000 7000.0000000000000 -4166.6666666669998 -41904616.384951323 -15675108.204874128 -102073148.12933519 9.6475186789768305e-05 -0.00094785135623142889 0.00024126668462750970 1.5999999988954063 -1.1999999990732013 -2.0486437425205679 
6000.0000000000000 7000.0000000000000 -4000.0000000000000 -40754257.328916773 -14524749.148238640 -97994602.384509981 0.00010705627897378771 -0.0010536303511781153 0.00020614383513779271 1.5999999989418379 -1.1999999991119175 -2.4137249707580710 
6000.0000000000000 7000.0000000000000 -3833.3333333330002 -39603795.304760337 -13374287.123413952 -93915691.570827663 0.00011561615788037731 -0.0011396641263768915 0.00015906361593269106 1.5999999989934730 -1.1999999991552741 -2.7639205838524670 
6000.0000000000000 7000.0000000000000 -3666.6666666669998 -38453230.303246401 -12223722.121171672 -89836415.655547142 0.00012189129038382266 -0.0012095354715081041 0.00010550857620682885 1.5999999990495810 -1.1999999992026522 -3.0992292493967821 
6000.0000000000000 7000.0000000000000 -3500.0000000000000 -37302562.315135285 -11073054.132277602 -85756774.605909288 0.00012578392749343194 -0.0012665614786794893 5.0219840553155374e-05 1.5999999991095191 -1.1999999992534838 -3.4196496348705061 
6000.0000000000000 7000.0000000000000 -3333.3333333330002 -36151791.331193313 -9922283.1475020684 -81676768.389173731 0.00012730671395310014 -0.0013137202810191277 -2.7592861975040013e-06 1.5999999991727254 -1.1999999993072488 -3.7251804076275294 
6000.0000000000000 7000.0000000000000 -3166.6666666669998 -35000917.342187524 -8771409.1576147340 -77596396.972600475 0.00012654036089407181 -0.0013535998071821369 -5.0033951535698135e-05 1.5999999992387091 -1.1999999993634745 -4.0158202349025744 
6000.0000000000000 7000.0000000000000 -3000.0000000000000 -33849940.338880293 -7620432.1533794757 -73515660.323431522 0.00012360278988268004 -0.0013883248254309183 -8.8816521431762024e-05 1.5999999993070446 -1.1999999994217314 -4.2915677838160358 
6000.0000000000000 7000.0000000000000 -2833.3333333330002 -32698860.312039685 -6469352.1255647531 -69434558.408927366 0.00011862913044558397 -0.0014195515767788601 -0.00011693564775408830 1.5999999993773653 -1.1999999994816306 -4.5524217213635092 
6000.0000000000000 7000.0000000000000 -2666.6666666669998 -31547677.252434101 -5318169.0649384744 -65353091.196348839 0.00011175572537999624 -0.0014484163073244540 -0.00013283433814487031 1.5999999994493541 -1.1999999995428199 -4.7983807144214374 
6000.0000000000000 7000.0000000000000 -2500.0000000000000 -30396391.150827061 -4166882.9622628489 -61271258.652938388 0.00010311803920716365 -0.0014755028588267192 -0.00013555598691936550 1.5999999995227407 -1.1999999996049786 -5.0294434297511295 
6000.0000000000000 7000.0000000000000 -2333.3333333330002 -29245001.997987542 -3015493.8083048500 -57189060.745956965 9.2847615449505541e-05 -0.0015008284427174287 -0.00012477433364923492 1.5999999995972922 -1.1999999996678150 -5.2456085339899117 
6000.0000000000000 7000.0000000000000 -2166.6666666669998 -28093509.784684811 -1864001.5938311340 -53106497.442665875 8.1068422933166953e-05 -0.0015238032741211453 -0.00010077228733886126 1.5999999996728074 -1.1999999997310595 -5.4468746936559569 
6000.0000000000000 7000.0000000000000 -2000.0000000000000 -26941914.501683075 -712406.30960282532 -49023568.710307926 6.7903881995745187e-05 -0.0015432349389349247 -6.4464504713419087e-05 1.5999999997491141 -1.1999999997944606 -5.6332405751515076 
6000.0000000000000 7000.0000000000000 -1833.3333333329999 -25790216.139751941 439292.05361397075 -44940274.516144551 5.3483500156284244e-05 -0.0015572899649155057 -1.7428397179058261e-05 1.5999999998260583 -1.1999999998577788 -5.8047048447556318 
6000.0000000000000 7000.0000000000000 -1666.6666666670001 -24638414.689661168 1591093.5050532904 -40856614.827437289 3.7945765565936969e-05 -0.0015634674248000825 3.8121120478974463e-05 1.5999999999035013 -1.1999999999207811 -5.9612661686282422 
7000.0000000000000 4000.0000000000000 -4833.3333333330002 -46505023.125383638 -20275514.937191714 -118383681.13478228 0.00019180761851884891 0.00023946403535776679 0.00023082977637049645 1.1999999990349401 -2.3999999983430418 -0.43948932229358911 
6000.0000000000000 4000.0000000000000 -4833.3333333330002 -46505023.123985834 -20275514.934666540 -118383681.12490098 -1.0308929042293132e-05 0.00026270569255420795 0.00028315019788252858 1.5999999987898219 -2.3999999983418796 -0.43948932226505477 
7000.0000000000000 4000.0000000000000 -5000.0000000000000 -47079971.032395996 -20850462.844214290 -120422132.80513424 0.00019204664149651387 0.00011062922710329212 0.00012038148713408365 1.1999999990306187 -2.3999999983361660 0.0000000000000000 
6000.0000000000000 4000.0000000000000 -5000.0000000000000 -47079971.030893341 -20850462.841601752 -120422132.79496562 -1.8415961223733661e-05 0.00012161005461665519 0.00014775339501051793 1.5999999987853422 -2.3999999983346831 0.0000000000000000 
7000.0000000000000 4000.0000000000000 -4666.6666666669998 -45355075.848114923 -19125567.659888390 -114306595.33341277 0.00019099061705531056 0.00053067516895145578 0.00043245791136918251 1.1999999990474830 -2.3999999983628579 -0.86409968965924466 
6000.0000000000000 4000.0000000000000 -4666.6666666669998 -45355075.846941173 -19125567.657546073 -114306595.32412295 1.0474784341969237e-05 0.00057977514342645521 0.00052803762464716394 1.5999999988031486 -2.3999999983624818 -0.86409968960210559 
7000.0000000000000 4000.0000000000000 -4500.0000000000000 -44205025.639749169 -17975517.451456837 -110229144.59433649 0.00018937840092650014 0.00088276388308542982 0.00059711311115977781 1.1999999990674131 -2.3999999983940437 -1.2738297702947847 
6000.0000000000000 4000.0000000000000 -4500.0000000000000 -44205025.638813280 -17975517.449309263 -110229144.58566707 3.6867654046344730e-05 0.00095847407279476843 0.00072026090202047537 1.5999999988249476 -2.3999999983946299 -1.2738297702094099 
7000.0000000000000 4000.0000000000000 -4333.3333333330002 -43054872.491068073 -16825364.302675504 -106151328.88482022 0.00018676948390581284 0.0012830310588623811 0.00072827838997503930 1.1999999990939221 -2.3999999984351477 -1.6686782322708653 
6000.0000000000000 4000.0000000000000 -4333.3333333330002 -43054872.490360528 -16825364.300727054 -106151328.87679070 6.3252039535461666e-05 0.0013831420946566037 0.00086037727961339326 1.5999999988546230 -2.3999999984366895 -1.6686782321580211 
7000.0000000000000 4000.0000000000000 -4166.6666666669998 -41904616.392844468 -15675108.204317564 -102073148.17212953 0.00018303907790572830 0.0017185366485832053 0.00083001186183658329 1.1999999991262378 -2.3999999984848639 -2.0486437435390203 
6000.0000000000000 4000.0000000000000 -4166.6666666669998 -41904616.392342694 -15675108.202567156 -102073148.16475056 8.6427767019877182e-05 0.0018393415011829933 0.00095248907684732965 1.5999999988914730 -2.3999999984872478 -2.0486437433998153 
7000.0000000000000 4000.0000000000000 -4000.0000000000000 -40754257.335840367 -14524749.147146745 -97994602.423510104 0.00017814302959814765 0.0021766223974831306 0.00090664217579934181 1.1999999991636316 -2.3999999985420390 -2.4137249719381129 
6000.0000000000000 4000.0000000000000 -4000.0000000000000 -40754257.335515171 -14524749.145589318 -97994602.416784137 0.00010481884144361549 0.0023139087616274481 0.0010026552280088365 1.5999999989347591 -2.3999999985450988 -2.4137249717739313 
7000.0000000000000 4000.0000000000000 -3833.3333333330002 -39603795.310819358 -13374287.121928608 -93915691.606224373 0.00017209474918092026 0.0026453782551340830 0.00096251595433252668 1.1999999992054249 -2.3999999986056793 -2.7639205851806703 
6000.0000000000000 4000.0000000000000 -3833.3333333330002 -39603795.310638972 -13374287.120556230 -93915691.600146383 0.00011790323015268006 0.0027950244615586985 0.0010178691964051587 1.5999999989837497 -2.3999999986092333 -2.7639205849931083 
7000.0000000000000 4000.0000000000000 -3666.6666666669998 -38453230.308542825 -12223722.119426098 -89836415.687533334 0.00016494845370556340 0.0031137848713808322 0.0010018084241770514 1.1999999992509911 -2.3999999986749470 -3.0992292508600952 
6000.0000000000000 4000.0000000000000 -3666.6666666669998 -38453230.308475479 -12223722.118228815 -89836415.682091624 0.00012580951899706784 0.0032720695155464487 0.0010053695520312056 1.5999999990377474 -2.3999999986788176 -3.0992292506509078 
7000.0000000000000 4000.0000000000000 -3500.0000000000000 -37302562.319765665 -11073054.130394949 -85756774.634678215 0.00015678614915286802 0.0035717871389352009 0.0010283888596075463 1.1999999992997565 -2.3999999987491552 -3.4196496364563096 
6000.0000000000000 4000.0000000000000 -3500.0000000000000 -37302562.319781244 -11073054.129361426 -85756774.629855052 0.00012904412953584167 0.0037355354788694731 0.00097220903835046834 1.5999999990961007 -2.3999999987531830 -3.4196496362273554 
7000.0000000000000 4000.0000000000000 -3333.3333333330002 -36151791.335247263 -9922283.1455945056 -81676768.414917305 0.00014769564923362814 0.0040103338789525145 0.0010457331644664640 1.1999999993512003 -2.3999999988277581 -3.7251804093236811 
6000.0000000000000 4000.0000000000000 -3333.3333333330002 -36151791.335318394 -9922283.1447125878 -81676768.410689831 0.00012829703953347036 0.0041769604646131287 0.00092500138581560944 1.5999999991582159 -2.3999999988318090 -3.7251804090768763 
7000.0000000000000 4000.0000000000000 -3166.6666666669998 -35000917.345746815 -8771409.1557829771 -77596396.995508030 0.00013775930013039224 0.0044212566944914601 0.0010568571231906803 1.1999999994048525 -2.3999999989103418 -4.0158202366974463 
6000.0000000000000 4000.0000000000000 -3166.6666666669998 -35000917.345849469 -8771409.1550401039 -77596396.991848961 0.00012431764056135812 0.0045887243144397665 0.00086971741992943389 1.5999999992235578 -2.3999999989143057 -4.0158202364347195 
7000.0000000000000 4000.0000000000000 -3000.0000000000000 -33849940.342018351 -7620432.1517124772 -73515660.343688548 0.00012704871778456133 0.0047971933001465777 0.0010642595732322053 1.1999999994602921 -2.3999999989966092 -4.2915677856985397 
6000.0000000000000 4000.0000000000000 -3000.0000000000000 -33849940.342132293 -7620432.1510960087 -73515660.340567023 0.00011783311040472273 0.0049639368596686275 0.00081158929097870384 1.5999999992916529 -2.3999999990004053 -4.2915677854218002 
7000.0000000000000 4000.0000000000000 -2833.3333333330002 -32698860.314821329 -6469352.1241396004 -69434558.426714763 0.00011561589405044293 0.0051314947788834268 0.0010699176005762178 1.1999999995171420 -2.3999999990863770 -4.5524217233231248 
6000.0000000000000 4000.0000000000000 -2833.3333333330002 -32698860.314930294 -6469352.1236370904 -69434558.424096972 0.00010949611572099566 0.0052963407763168373 0.00075506074903439852 1.5999999993620864 -2.3999999990899443 -4.5524217230342252 
7000.0000000000000 4000.0000000000000 -2666.6666666669998 -31547677.254915595 -5318169.0638204217 -65353091.211842388 0.00010349408191410975 0.0054181375739267915 0.0010752648779148760 1.1999999995750688 -2.3999999991795566 -4.7983807164482277 
6000.0000000000000 4000.0000000000000 -2666.6666666669998 -31547677.255007423 -5318169.0634198058 -65353091.209692203 9.9866732746423293e-05 0.0055801766013735014 0.00070373809935548996 1.5999999994344969 -2.3999999991828544 -4.7983807161489409 
7000.0000000000000 4000.0000000000000 -2500.0000000000000 -30396391.153056215 -4166882.9615053376 -61271258.666308559 9.0696129199077327e-05 0.0056515730918122835 0.0010811687739290617 1.1999999996337751 -2.3999999992761505 -5.0294434318357482 
6000.0000000000000 4000.0000000000000 -2500.0000000000000 -30396391.153122898 -4166882.9611951308 -61271258.664588280 8.9396037768437123e-05 0.0058101108044281242 0.00066039346554865866 1.5999999995085761 -2.3999999992791530 -5.0294434315277492 
7000.0000000000000 4000.0000000000000 -2333.3333333330002 -29245002.000003889 -3015493.8079495137 -57189060.757369034 7.7208108461967038e-05 0.0058266540799488736 0.0010879551255306400 1.1999999996929975 -2.3999999993762375 -5.2456085361236200 
6000.0000000000000 4000.0000000000000 -2333.3333333330002 -29245002.000041559 -3015493.8077188735 -57189060.756039672 7.8415140826143919e-05 0.0059811340048590697 0.00062697898084160481 1.5999999995840586 -2.3999999993789305 -5.2456085358084659 
7000.0000000000000 4000.0000000000000 -2166.6666666669998 -28093509.786519695 -1864001.5939075924 -53106497.452279694 6.2996068955958624e-05 0.0059385675027292598 0.0010953960253136557 1.1999999997525002 -2.3999999994799697 -5.4468746958306307 
6000.0000000000000 4000.0000000000000 -2166.6666666669998 -28093509.786528628 -1864001.5937464980 -53106497.451301642 6.7150428831929960e-05 0.0060885089001359929 0.00060459774596158841 1.5999999996607188 -2.3999999994823464 -5.4468746955097478 
7000.0000000000000 4000.0000000000000 -2000.0000000000000 -26941914.503359832 -712406.31012850732 -49023568.718278572 4.8010268324079904e-05 0.0059827953697275003 0.0011027018025129051 1.1999999998120716 -2.3999999995875609 -5.6332405773596372 
6000.0000000000000 4000.0000000000000 -2000.0000000000000 -26941914.503344536 -712406.31002786336 -49023568.717612028 5.5730532764596698e-05 0.0061277578519271280 0.00059351549319568468 1.5999999997383614 -2.3999999995896175 -5.6332405770343090 
7000.0000000000000 4000.0000000000000 -1833.3333333329999 -25790216.141285956 439292.05263423559 -44940274.522622801 3.2184780325751757e-05 0.0059550405300585292 0.0011085470657956188 1.1999999998715187 -2.3999999996992831 -5.8047048469903348 
6000.0000000000000 4000.0000000000000 -1833.3333333329999 -25790216.141255185 439292.05268253986 -44940274.522227995 4.4204393076973598e-05 0.0060946032883057019 0.00059317824216771012 1.5999999998168148 -2.3999999997010146 -5.8047048466617079 
7000.0000000000000 4000.0000000000000 -1666.6666666670001 -24638414.691059828 1591093.5036278998 -40856614.832570352 1.5436054186488459e-05 0.0058512563046455206 0.0011110484235177908 1.1999999999306599 -2.3999999998154542 -5.9612661708832722 
6000.0000000000000 4000.0000000000000 -1666.6666666670001 -24638414.691026736 1591093.5036308370 -40856614.832407974 3.2570662847816682e-05 0.0059850134157574952 0.00060217010787739936 1.5999999998959227 -2.3999999998168544 -5.9612661705523431 
0.0000000000000000 7000.0000000000000 -4833.3333333330002 -46505023.121112168 -20275514.914258637 -118383680.97706808 -6.3728106766283637e-05 -0.00024222392211551623 -0.00031835472443348019 4.0000000000000000 -1.1999999990091219 -0.43948932161739485 
0.0000000000000000 8000.0000000000000 -4833.3333333330002 -46505023.119293787 -20275514.912838664 -118383680.96994132 -3.5840130180948665e-05 -0.00023000710343123033 -0.00034839796246731772 4.0000000000000000 -0.79999999933970867 -0.43948932158933546 
1000.0000000000000 8000.0000000000000 -4833.3333333330002 -46505023.118003517 -20275514.914234355 -118383680.97762793 -3.9639978996922069e-06 -0.00023702384799446184 -0.00047005056573592476 3.5999999993709730 -0.79999999934132671 -0.43948932163697135 
0.0000000000000000 7000.0000000000000 -5000.0000000000000 -47079971.026366696 -20850462.819432832 -120422132.64054149 -6.8157658621056989e-05 -0.00012575629477925101 -0.00015735692785868972 4.0000000000000000 -1.1999999990047230 0.0000000000000000 
0.0000000000000000 8000.0000000000000 -5000.0000000000000 -47079971.024457932 -20850462.817918658 -120422132.63306764 -3.8651015959305065e-05 -0.00011794586645865620 -0.00017251228088077252 4.0000000000000000 -0.79999999933678889 0.0000000000000000 
1000.0000000000000 8000.0000000000000 -5000.0000000000000 -47079971.023291253 -20850462.819491006 -120422132.64143826 -6.5783321126508048e-06 -0.00012127469205557958 -0.00022994725742920492 3.5999999993665739 -0.79999999933852450 0.0000000000000000 
0.0000000000000000 7000.0000000000000 -4666.6666666669998 -45355075.847025149 -19125567.640383799 -114306595.18880010 -5.2155296951845415e-05 -0.00045792306650235457 -0.00064142137685907822 4.0000000000000000 -1.1999999990218284 -0.86409968836030282 
0.0000000000000000 8000.0000000000000 -4666.6666666669998 -45355075.845378533 -19125567.639144115 -114306595.18235277 -2.8485370871511608e-05 -0.00044295453978828543 -0.00070004647288431446 4.0000000000000000 -0.79999999934816635 -0.86409968830699624 
1000.0000000000000 8000.0000000000000 -4666.6666666669998 -45355075.843921542 -19125567.640237883 -114306595.18882161 2.8323913894557539e-06 -0.00045769615887299251 -0.00096174266705910416 3.5999999993825145 -0.79999999934948884 -0.86409968839313755 
0.0000000000000000 7000.0000000000000 -4500.0000000000000 -44205025.641227134 -17975517.434872799 -110229144.46158190 -3.6875364129032646e-05 -0.00064161954958999381 -0.00095805112563836789 4.0000000000000000 -1.1999999990419103 -1.2738297684215154 
0.0000000000000000 8000.0000000000000 -4500.0000000000000 -44205025.639736958 -17975517.433796979 -110229144.45578463 -1.8751886159143099e-05 -0.00063466001446516702 -0.0010418954178689939 4.0000000000000000 -0.79999999936158306 -1.2738297683456488 
1000.0000000000000 8000.0000000000000 -4500.0000000000000 -44205025.638236888 -17975517.434676789 -110229144.46130781 1.1713522294939206e-05 -0.00065721371080755889 -0.0014631410881578875 3.5999999993984977 -0.79999999936252653 -1.2738297684631739 
0.0000000000000000 7000.0000000000000 -4333.3333333330002 -43054872.494593546 -16825364.288556613 -106151328.76280497 -2.0642078366852629e-05 -0.00079787478612870506 -0.0012567954665133674 4.0000000000000000 -1.1999999990685264 -1.6686782298672078 
0.0000000000000000 8000.0000000000000 -4333.3333333330002 -43054872.493248746 -16825364.287627973 -106151328.75762860 -8.3911804922257963e-06 -0.00080717081998117482 -0.0013611133469832726 4.0000000000000000 -0.79999999937942667 -1.6686782297713416 
1000.0000000000000 8000.0000000000000 -4333.3333333330002 -43054872.491771214 -16825364.288357705 -106151328.76242968 2.0985899975199646e-05 -0.00083669503163368930 -0.0019543420396830420 3.5999999994172311 -0.79999999937996791 -1.6686782299148140 
0.0000000000000000 7000.0000000000000 -4166.6666666669998 -41904616.397968374 -15675108.192254424 -102073148.05984624 -5.0814513225271956e-06 -0.00093068374105672994 -0.0015348867141217535 4.0000000000000000 -1.1999999991009120 -2.0486437406448741 
0.0000000000000000 8000.0000000000000 -4166.6666666669998 -41904616.396760412 -15675108.191456381 -102073148.05526185 1.5472861933782474e-06 -0.00096228826215625444 -0.0016545300346067075 4.0000000000000000 -0.79999999940120370 -2.0486437405314391 
1000.0000000000000 8000.0000000000000 -4166.6666666669998 -41904616.395337947 -15675108.192083552 -102073148.05952489 2.9634126327483455e-05 -0.00099746242656821040 -0.0024259985929048853 3.5999999994376815 -0.79999999940135702 -2.0486437406968787 
0.0000000000000000 7000.0000000000000 -4000.0000000000000 -40754257.342170328 -14524749.136772793 -97994602.320057243 8.9115642091323934e-06 -0.0010436396669941811 -0.0017937063653147120 4.0000000000000000 -1.1999999991383710 -2.4137249685897899 
0.0000000000000000 8000.0000000000000 -4000.0000000000000 -40754257.341092110 -14524749.136089209 -97994602.316036209 1.0477415698420131e-05 -0.0011016638261220821 -0.0019236633811380104 4.0000000000000000 -0.79999999942645406 -2.4137249684610902 
1000.0000000000000 8000.0000000000000 -4000.0000000000000 -40754257.339737833 -14524749.136648448 -97994602.319907144 3.7096538664491415e-05 -0.0011409589099658254 -0.0028747271132933475 3.5999999994592540 -0.79999999942625544 -2.4137249686457056 
0.0000000000000000 7000.0000000000000 -3833.3333333330002 -39603795.318008229 -13374287.112916501 -93915691.510797322 2.0913187924564596e-05 -0.0011399887899398384 -0.0020361537999849084 4.0000000000000000 -1.1999999991802670 -2.7639205814113486 
0.0000000000000000 8000.0000000000000 -3833.3333333330002 -39603795.317053415 -13374287.112331990 -93915691.507311165 1.8108564635703465e-05 -0.0012268137355687084 -0.0021718415491278229 4.0000000000000000 -0.79999999945474898 -2.7639205812695629 
1000.0000000000000 8000.0000000000000 -3833.3333333330002 -39603795.315769956 -13374287.112848103 -93915691.510902256 4.3106016988407605e-05 -0.0012686816438038249 -0.0033002672354176515 3.5999999994816401 -0.79999999945424549 -2.7639205814714600 
0.0000000000000000 7000.0000000000000 -3666.6666666669998 -38453230.316279352 -12223722.111483755 -89836415.599412978 3.0785474953994636e-05 -0.0012226753686467857 -0.0022653240904073955 4.0000000000000000 -1.1999999992260180 -3.0992292467002160 
0.0000000000000000 8000.0000000000000 -3666.6666666669998 -38453230.315441988 -12223722.110984012 -89836415.596433267 2.4330757579945387e-05 -0.0013391120723375833 -0.0024027359820573396 4.0000000000000000 -0.79999999948568745 -3.0992292465473992 
1000.0000000000000 8000.0000000000000 -3666.6666666669998 -38453230.314227439 -12223722.111474890 -89836415.599830091 4.7576087566788957e-05 -0.0013821025144574953 -0.0037037322105146356 3.5999999995047181 -0.79999999948493106 -3.0992292467653502 
0.0000000000000000 7000.0000000000000 -3500.0000000000000 -37302562.327767581 -11073054.123262314 -85756774.553221643 3.8558168651078569e-05 -0.0012943404379587766 -0.0024838301527092348 4.0000000000000000 -1.1999999992750909 -3.4196496319339085 
0.0000000000000000 8000.0000000000000 -3500.0000000000000 -37302562.327041857 -11073054.122834392 -85756774.550719827 2.9147854779659625e-05 -0.0014397842153876642 -0.0026195339121634314 4.0000000000000000 -0.79999999951889444 -3.4196496317719935 
1000.0000000000000 8000.0000000000000 -3500.0000000000000 -37302562.325893193 -11073054.123313021 -85756774.553986803 5.0537010998820792e-05 -0.0014826041678268158 -0.0040865277487748611 3.5999999995284817 -0.79999999951793743 -3.4196496320052563 
0.0000000000000000 7000.0000000000000 -3333.3333333330002 -36151791.343255945 -9922283.1390408799 -81676768.339550450 4.4352922387142548e-05 -0.0013573135328817645 -0.0026934969818613232 4.0000000000000000 -1.1999999993269992 -3.7251804044646817 
0.0000000000000000 8000.0000000000000 -3333.3333333330002 -36151791.342636161 -9922283.1386734843 -81676768.337497771 3.2628424246215713e-05 -0.0015299054938741697 -0.0028246571038428011 4.0000000000000000 -0.79999999955401935 -3.7251804042954797 
1000.0000000000000 8000.0000000000000 -3333.3333333330002 -36151791.341551065 -9922283.1391493250 -81676768.340682462 5.2081814240086242e-05 -0.0015714462529906417 -0.0044497869164518179 3.5999999995530034 -0.79999999955291223 -3.7251804045436576 
0.0000000000000000 7000.0000000000000 -3166.6666666669998 -35000917.353522860 -8771409.1496046335 -77596396.925719336 4.8333810609805509e-05 -0.0014135508829503257 -0.0028952952081922833 4.0000000000000000 -1.1999999993812973 -4.0158202315259199 
0.0000000000000000 8000.0000000000000 -3166.6666666669998 -35000917.353003345 -8771409.1492883544 -77596396.924086690 3.4868451475480779e-05 -0.0016103399369464422 -0.0030196946047902832 4.0000000000000000 -0.79999999959073465 -4.0158202313511193 
1000.0000000000000 8000.0000000000000 -3166.6666666669998 -35000917.351981342 -8771409.1497683767 -77596396.927223280 5.2328241813146646e-05 -0.0016496983017885278 -0.0047940372137277492 3.5999999995784147 -0.79999999958952472 -4.0158202316140512 
0.0000000000000000 7000.0000000000000 -3000.0000000000000 -33849940.349338003 -7620432.1457307180 -73515660.279024139 5.0683226589894054e-05 -0.0014646213875837797 -0.0030893703130822530 4.0000000000000000 -1.1999999994375785 -4.2915677802369352 
0.0000000000000000 8000.0000000000000 -3000.0000000000000 -33849940.348913133 -7620432.1454582391 -73515660.277781919 3.5977884121165640e-05 -0.0016817259713883495 -0.0032053134187373768 4.0000000000000000 -0.79999999962873325 -4.2915677800580987 
1000.0000000000000 8000.0000000000000 -3000.0000000000000 -33849940.347956076 -7620432.1459475812 -73515660.280893773 5.1408164424254431e-05 -0.0017182021330550770 -0.0051190444359927390 3.5999999996048833 -0.79999999962746415 -4.2915677803357744 
0.0000000000000000 7000.0000000000000 -2833.3333333330002 -32698860.321473282 -6469352.1181990206 -69434558.366774380 5.1574971768134573e-05 -0.0015116799553770285 -0.0032751070867815908 4.0000000000000000 -1.1999999994954706 -4.5524217175924786 
0.0000000000000000 8000.0000000000000 -2833.3333333330002 -32698860.321137551 -6469352.1179653667 -69434558.365892515 3.6071377118442093e-05 -0.0017444637022382883 -0.0033813440002367699 4.0000000000000000 -0.79999999966772739 -4.5524217174110433 
1000.0000000000000 8000.0000000000000 -2833.3333333330002 -32698860.320249867 -6469352.1184678264 -69434558.368994191 4.9452514621243982e-05 -0.0017775443865351939 -0.0054237044966287213 3.5999999996326144 -0.79999999966643842 -4.5524217177035320 
0.0000000000000000 7000.0000000000000 -2666.6666666669998 -31547677.260698095 -5318169.0577873923 -65353091.156275846 5.1166184642028735e-05 -0.0015554059900684870 -0.0034511382098266381 4.0000000000000000 -1.1999999995546327 -4.7983807104683578 
0.0000000000000000 8000.0000000000000 -2666.6666666669998 -31547677.260446142 -5318169.0575900674 -65353091.155723587 3.5258336575366129e-05 -0.0017986447895697809 -0.0035468852728620165 4.0000000000000000 -0.79999999970744662 -4.7983807102856284 
1000.0000000000000 8000.0000000000000 -2666.6666666669998 -31547677.259635024 -5318169.0581085198 -65353091.158822410 4.6580452408989114e-05 -0.0018280033542094096 -0.0057060649777493809 3.5999999996618368 -0.79999999970617341 -4.7983807105930358 
0.0000000000000000 7000.0000000000000 -2500.0000000000000 -30396391.157774404 -4166882.9552667812 -61271258.614812925 4.9603585898116311e-05 -0.0015959936704898659 -0.0036153952694175590 4.0000000000000000 -1.1999999996147501 -5.0294434256254412 
0.0000000000000000 8000.0000000000000 -2500.0000000000000 -30396391.157601111 -4166882.9551059837 -61271258.614559010 3.3636928056210123e-05 -0.0018440432699869140 -0.0037002763994045547 4.0000000000000000 -0.79999999974763480 -5.0294434254425875 
1000.0000000000000 8000.0000000000000 -2500.0000000000000 -30396391.156876605 -4166882.9556426080 -61271258.617656201 4.2896523002577008e-05 -0.0018695228229444660 -0.0059632668584991199 3.5999999996928156 -0.79999999974640890 -5.0294434257650034 
0.0000000000000000 7000.0000000000000 -2333.3333333330002 -29245002.003467187 -3015493.8014118029 -57189060.709685959 4.7015379527278653e-05 -0.0016330990179498641 -0.0037651965175859873 4.0000000000000000 -1.1999999996755322 -5.2456085297007995 
0.0000000000000000 8000.0000000000000 -2333.3333333330002 -29245002.003367744 -3015493.8012905787 -57189060.709698573 3.1296881510238942e-05 -0.0018800952972625367 -0.0038391748199911443 4.0000000000000000 -0.79999999978804870 -5.2456085295188517 
1000.0000000000000 8000.0000000000000 -2333.3333333330002 -29245002.002742901 -3015493.8018470788 -57189060.712790072 3.8493048653950266e-05 -0.0019016845077366193 -0.0061915035380985155 3.5999999997258412 -0.79999999978689817 -5.2456085298563240 
0.0000000000000000 7000.0000000000000 -2166.6666666669998 -28093509.788539387 -1864001.5869957816 -53106497.408193424 4.3512124157811473e-05 -0.0016658322868234282 -0.0038972045750908114 4.0000000000000000 -1.1999999997367055 -5.4468746892125219 
0.0000000000000000 8000.0000000000000 -2166.6666666669998 -28093509.788509302 -1864001.5869201040 -53106497.408439986 2.8324580412286509e-05 -0.0019058777443420015 -0.0039605497396502194 4.0000000000000000 -0.79999999982845427 -5.4468746890323647 
1000.0000000000000 8000.0000000000000 -2166.6666666669998 -28093509.788000371 -1864001.5874979091 -53106497.411517136 3.3451254268436176e-05 -0.0019236958981774244 -0.0063859963968609127 3.5999999997612373 -0.79999999982740411 -5.4468746893848614 
0.0000000000000000 7000.0000000000000 -2000.0000000000000 -26941914.503746592 -712406.30278570740 -49023568.677613944 3.9193457247305315e-05 -0.0016927202507569202 -0.0040073992291633576 4.0000000000000000 -1.1999999997980113 -5.6332405705629300 
0.0000000000000000 8000.0000000000000 -2000.0000000000000 -26941914.503781766 -712406.30276468012 -49023568.678061277 2.4799097370846911e-05 -0.0019200572841658286 -0.0040606608830592835 4.0000000000000000 -0.79999999986862480 -5.6332405703852979 
1000.0000000000000 8000.0000000000000 -2000.0000000000000 -26941914.503408484 -712406.30336506432 -49023568.681111135 2.7839227062063290e-05 -0.0019343393288620600 -0.0065409188478857986 3.5999999997993695 -0.79999999986769632 -5.6332405707526831 
0.0000000000000000 7000.0000000000000 -1833.3333333329999 -25790216.139847349 439292.06044719357 -44940274.485243693 3.4152167089396092e-05 -0.0017116845130703549 -0.0040910423580119036 4.0000000000000000 -1.1999999998591988 -5.8047048400313370 
0.0000000000000000 8000.0000000000000 -1833.3333333329999 -25790216.139944155 439292.06040121370 -44940274.485858008 2.0797206896827850e-05 -0.0019208866405074788 -0.0041349999798426127 4.0000000000000000 -0.79999999990833670 -5.8047048398568073 
1000.0000000000000 8000.0000000000000 -1833.3333333329999 -25790216.139730185 439292.05977697793 -44940274.488863625 2.1717860545839918e-05 -0.0019319596210397676 -0.0066492857159444578 3.5999999998406449 -0.79999999990754822 -5.8047048402388208 
0.0000000000000000 7000.0000000000000 -1666.6666666670001 -24638414.687597655 1591093.5119326627 -40856614.798377953 2.8479990129428638e-05 -0.0017200234830071434 -0.0041425814801519792 4.0000000000000000 -1.1999999999200213 -5.9612661637780624 
0.0000000000000000 8000.0000000000000 -1666.6666666670001 -24638414.687752925 1591093.5118039344 -40856614.799124777 1.6399269505376810e-05 -0.0019061878417154126 -0.0041781736935093162 4.0000000000000000 -0.79999999994736726 -5.9612661636070516 
1000.0000000000000 8000.0000000000000 -1666.6666666670001 -24638414.687726524 1591093.5111543960 -40856614.802065372 1.5144266957668630e-05 -0.0019144520748803917 -0.0067027661681707106 3.5999999998855250 -0.79999999994673299 -5.9612661640032831 
4000.0000000000000 4000.0000000000000 -4833.3333333330002 -46505023.124190122 -20275514.927342378 -118383681.09163374 0.00036211556211187569 0.00029645136887936129 -0.00028759839661220436 2.3999999984844318 -2.3999999983462170 -0.43948932212554176 
5000.0000000000000 4000.0000000000000 -4833.3333333330002 -46505023.123323709 -20275514.931428976 -118383681.11122255 9.9559988790336081e-05 0.00029852890290489045 -1.2894628160892468e-05 1.9999999985787387 -2.3999999983384619 -0.43948932221437159 
5000.0000000000000 3000.0000000000000 -4833.3333333330002 -46505023.128134191 -20275514.929262273 -118383681.13618973 0.00015279076764104609 0.00046676264332530981 2.9223374362655650e-06 1.9999999985761243 -2.7999999984454336 -0.43948932232750526 
4000.0000000000000 4000.0000000000000 -5000.0000000000000 -47079971.030776143 -20850462.833929114 -120422132.76044275 0.00036833124956536697 0.00013768876728030083 -0.00013556062303617315 2.3999999984776657 -2.3999999983387519 0.0000000000000000 
5000.0000000000000 4000.0000000000000 -5000.0000000000000 -47079971.030102231 -20850462.838240538 -120422132.78086171 9.6239411350308889e-05 0.00013861277608236006 -3.9223006199955724e-07 1.9999999985727213 -2.3999999983308777 0.0000000000000000 
5000.0000000000000 3000.0000000000000 -5000.0000000000000 -47079971.035216108 -20850462.836351801 -120422132.80697456 0.00015139350347983399 0.00022241382797531805 7.0301703825901460e-06 1.9999999985702395 -2.7999999984382828 0.0000000000000000 
4000.0000000000000 4000.0000000000000 -4666.6666666669998 -45355075.847738035 -19125567.650894001 -114306595.29329684 0.00034563654306593626 0.00065052771351727448 -0.00061977233426875622 2.3999999985036786 -2.3999999983674898 -0.86409968933313064 
5000.0000000000000 4000.0000000000000 -4666.6666666669998 -45355075.846536726 -19125567.654557064 -114306595.31129284 0.00010803542823213465 0.00065517236140467613 -6.0149163448664898e-05 1.9999999985960419 -2.3999999983600282 -0.86409968950314409 
5000.0000000000000 3000.0000000000000 -4666.6666666669998 -45355075.850788921 -19125567.651907343 -114306595.33409293 0.00015581473774878106 0.00099265362265419689 -2.6467587383228837e-05 1.9999999985931038 -2.7999999984655335 -0.86409968971997420 
4000.0000000000000 4000.0000000000000 -4500.0000000000000 -44205025.640104659 -17975517.443281226 -110229144.55714723 0.00032328477729530193 0.0010673326018219508 -0.00099948750356560053 2.3999999985334917 -2.3999999984004741 -1.2738297698203926 
5000.0000000000000 4000.0000000000000 -4500.0000000000000 -44205025.638657093 -17975517.446569052 -110229144.57367876 0.00011863982597226632 0.0010747141259839425 -0.00014823243379954830 1.9999999986232484 -2.3999999983933828 -1.2738297700646033 
5000.0000000000000 3000.0000000000000 -4500.0000000000000 -44205025.642439090 -17975517.443571009 -110229144.59455082 0.00015824438927194290 0.0015810627568986801 -9.5883010087688921e-05 1.9999999986199237 -2.7999999984961588 -1.2738297703765780 
4000.0000000000000 4000.0000000000000 -4333.3333333330002 -43054872.492052332 -16825364.295277469 -106151328.85045166 0.00029867336020830899 0.0015276719270068504 -0.0014110250289658898 2.3999999985722771 -2.3999999984433678 -1.6686782316578106 
5000.0000000000000 4000.0000000000000 -4333.3333333330002 -43054872.490428708 -16825364.298231650 -106151328.86563489 0.00012886355530298377 0.0015374408864310550 -0.00027010147221127293 1.9999999986591737 -2.3999999984366696 -1.6686782319698441 
5000.0000000000000 3000.0000000000000 -4333.3333333330002 -43054872.493812881 -16825364.294999246 -106151328.88479808 0.00015854571082858911 0.0022108789509689359 -0.00020030811659724483 1.9999999986554919 -2.7999999985354092 -1.6686782323692948 
4000.0000000000000 4000.0000000000000 -4166.6666666669998 -41904616.394343048 -15675108.197651647 -102073148.14047368 0.00027399192057386081 0.0020151303172619823 -0.0018413570612097895 2.3999999986187075 -2.3999999984946481 -2.0486437427967501 
5000.0000000000000 4000.0000000000000 -4166.6666666669998 -41904616.392602578 -15675108.200308980 -102073148.15441450 0.00013718846240997994 0.0020267624679829793 -0.00041904919756320544 1.9999999987027779 -2.3999999984883407 -2.0486437431707878 
5000.0000000000000 3000.0000000000000 -4166.6666666669998 -41904616.395649426 -15675108.196938535 -102073148.17206667 0.00015611342100608334 0.0028654093794287750 -0.00033396061046161632 1.9999999986988253 -2.7999999985817912 -2.0486437436508815 
4000.0000000000000 4000.0000000000000 -4000.0000000000000 -40754257.337734409 -14524749.141164284 -97994602.394456118 0.00025043355984130915 0.0025157145834833615 -0.0022795164884690773 2.3999999986716847 -2.3999999985530489 -2.4137249710759003 
5000.0000000000000 4000.0000000000000 -4000.0000000000000 -40754257.335929289 -14524749.143557902 -97994602.407251388 0.00014282116208029093 0.0025286860113231486 -0.00058842727602391876 1.9999999987531416 -2.3999999985471185 -2.4137249715066198 
5000.0000000000000 3000.0000000000000 -4000.0000000000000 -40754257.338690087 -14524749.140131110 -97994602.423568845 0.00015091007678242116 0.0035311751861598585 -0.00049046055620736810 1.9999999987490278 -2.7999999986341417 -2.4137249720612917 
4000.0000000000000 4000.0000000000000 -3833.3333333330002 -39603795.312990464 -13374287.116578877 -93915691.579658449 0.00022851950528906149 0.0030175404125473049 -0.0027160397223185443 2.3999999987302978 -2.3999999986175307 -2.7639205842075931 
5000.0000000000000 4000.0000000000000 -3833.3333333330002 -39603795.311167970 -13374287.118738901 -93915691.591396809 0.00014546740409380153 0.0030313840343786157 -0.00077159160371955261 1.9999999988094479 -2.3999999986119644 -2.7639205846901187 
5000.0000000000000 3000.0000000000000 -3833.3333333330002 -39603795.313686676 -13374287.115325555 -93915691.606534868 0.00014320942948610493 0.0041970534052716713 -0.00066300082736131158 1.9999999988052919 -2.7999999986915682 -2.7639205853139859 
4000.0000000000000 4000.0000000000000 -3666.6666666669998 -38453230.310876667 -12223722.114657439 -89836415.663339019 0.00020833384923725823 0.0035103613788058435 -0.0031425535817160930 2.3999999987938110 -2.3999999986872584 -3.0992292497850240 
5000.0000000000000 4000.0000000000000 -3666.6666666669998 -38453230.309080139 -12223722.116611347 -89836415.674101502 0.00014515828566830479 0.0035246939261058315 -0.00096194539432783467 1.9999999988709762 -2.3999999986820484 -3.0992292503148673 
5000.0000000000000 3000.0000000000000 -3666.6666666669998 -38453230.311394908 -12223722.113271749 -89836415.688195571 0.00013342543522708661 0.0048534859573008578 -0.00084459803301823648 1.9999999988668902 -2.7999999987533997 -3.0992292510031452 
4000.0000000000000 4000.0000000000000 -3500.0000000000000 -37302562.322154582 -11073054.126155801 -85756774.612737074 0.00018969668744221697 0.0039852829489663991 -0.0035516822565006797 2.3999999988616350 -2.3999999987615772 -3.4196496352878794 
5000.0000000000000 4000.0000000000000 -3500.0000000000000 -37302562.320423961 -11073054.127928628 -85756774.622597575 0.00014212263067163352 0.0039998106332173339 -0.0011530964581691666 1.9999999989371007 -2.3999999987567189 -3.4196496358609001 
5000.0000000000000 3000.0000000000000 -3500.0000000000000 -37302562.322568104 -11073054.124715636 -85756774.635764435 0.00012201924790200211 0.0054920989773303581 -0.0010284448540396744 1.9999999989331803 -2.7999999988191533 -3.4196496366093134 
4000.0000000000000 4000.0000000000000 -3333.3333333330002 -36151791.337592125 -9922283.1418342926 -81676768.395109937 0.00017228726866120233 0.0044345176895700267 -0.0039367988316658135 2.3999999989333127 -2.3999999988399865 -3.7251804080702722 
5000.0000000000000 4000.0000000000000 -3333.3333333330002 -36151791.335964143 -9922283.1434488054 -81676768.404135495 0.00013669110479774195 0.0044490175328199908 -0.0013389271067248965 1.9999999990072792 -2.3999999988354812 -3.7251804086826250 
5000.0000000000000 3000.0000000000000 -3333.3333333330002 -36151791.337966979 -9922283.1404095646 -81676768.416474566 0.00010944048231930428 0.0061053301829786591 -0.0012079989953991429 1.9999999990036039 -2.7999999988885054 -3.7251804094873218 
4000.0000000000000 4000.0000000000000 -3166.6666666669998 -35000917.347958207 -8771409.1524528097 -77596396.977714941 0.00015571823500738462 0.0048511161812870175 -0.0042919020579515188 2.3999999990085055 -2.3999999989221235 -4.0158202353671593 
5000.0000000000000 4000.0000000000000 -3166.6666666669998 -35000917.346466579 -8771409.1539296471 -77596396.985966161 0.00012923754812076859 0.0048654013780566746 -0.0015137112722995115 1.9999999990810531 -2.3999999989179801 -4.0158202360152622 
5000.0000000000000 3000.0000000000000 -3166.6666666669998 -35000917.348353937 -8771409.1511070170 -77596396.997560769 9.6094138256961793e-05 0.0066860656222374922 -0.0013771742893122585 1.9999999990776849 -2.7999999989612689 -4.0158202368727389 
4000.0000000000000 4000.0000000000000 -3000.0000000000000 -33849940.344017342 -7620432.1487656776 -73515660.327791020 0.00013958977998676685 0.0052288007296864020 -0.0046115183251379237 2.3999999990869791 -2.3999999990077447 -4.2915677842991817 
5000.0000000000000 4000.0000000000000 -3000.0000000000000 -33849940.342692845 -7620432.1501234742 -73515660.335322484 0.00012012994091315140 0.0052427156203144641 -0.0016721886928324516 1.9999999991580422 -2.3999999990039758 -4.2915677849796703 
5000.0000000000000 3000.0000000000000 -3000.0000000000000 -33849940.344487593 -7620432.1475572623 -73515660.346241191 8.2326784105368875e-05 0.0072274713360879076 -0.0015304525660718073 1.9999999991550228 -2.7999999990373805 -4.2915677858866976 
4000.0000000000000 4000.0000000000000 -2833.3333333330002 -32698860.316539932 -6469352.1215321273 -69434558.412595719 0.00012352988950607209 0.0055617858220227152 -0.0048906126472139698 2.3999999991685921 -2.3999999990967127 -4.5524217218621823 
5000.0000000000000 4000.0000000000000 -2833.3333333330002 -32698860.315410454 -6469352.1227875836 -69434558.419456229 0.00010970689500989479 0.0055752031710518749 -0.0018096317441862258 1.9999999992379360 -2.3999999990933341 -4.5524217225718964 
5000.0000000000000 3000.0000000000000 -2833.3333333330002 -32698860.317132846 -6469352.1205155794 -69434558.429754049 6.8426452723950015e-05 0.0077227648540055182 -0.0016629427241814793 1.9999999992352941 -2.7999999991168818 -4.5524217235254474 
4000.0000000000000 4000.0000000000000 -2666.6666666669998 -31547677.256297052 -5318169.0615112120 -65353091.199387230 0.00010721279955381148 0.0058446854951574468 -0.0051245189765602777 2.3999999992532852 -2.3999999991889811 -4.7983807149328603 
5000.0000000000000 4000.0000000000000 -2666.6666666669998 -31547677.255387656 -5318169.0626792088 -65353091.205620199 9.8266694451952958e-05 0.0058574738458514455 -0.0019219053156557333 1.9999999993204904 -2.3999999991860115 -4.7983807156687961 
5000.0000000000000 3000.0000000000000 -2666.6666666669998 -31547677.257055596 -5318169.0607380103 -65353091.215339683 5.4627744467522667e-05 0.0081650772525621758 -0.0017704244844676158 1.9999999993182396 -2.7999999991999127 -4.7983807166659922 
4000.0000000000000 4000.0000000000000 -2500.0000000000000 -30396391.154055111 -4166882.9594564610 -61271258.655405536 9.0364484557208720e-05 0.0060724711644268934 -0.0053088554312254784 2.3999999993410750 -2.3999999992845833 -5.0294434302727753 
5000.0000000000000 4000.0000000000000 -2500.0000000000000 -30396391.153388094 -4166882.9605502100 -61271258.661049604 8.6050795700990954e-05 0.0060844810085276500 -0.0020054855696651783 1.9999999994055206 -2.3999999992820444 -5.0294434310320790 
5000.0000000000000 3000.0000000000000 -2500.0000000000000 -30396391.155017409 -4166882.9589759470 -61271258.670221873 4.1112285417235753e-05 0.0085473649390273767 -0.0018493708433952093 1.9999999994036632 -2.7999999992867015 -5.0294434320701322 
4000.0000000000000 4000.0000000000000 -2333.3333333330002 -29245002.000586309 -3015493.8061262853 -57189060.747909516 7.2768805313960759e-05 0.0062403319048632286 -0.0054395064655769782 2.3999999994320409 -2.3999999993836258 -5.2456085345195094 
5000.0000000000000 4000.0000000000000 -2333.3333333330002 -29245002.000181105 -3015493.8071573605 -57189060.752998702 7.3242414760657081e-05 0.0062513948911010293 -0.0020574942882597906 1.9999999994928905 -2.3999999993815382 -5.2456085352994526 
5000.0000000000000 3000.0000000000000 -2333.3333333330002 -29245002.001785725 -3015493.8059862754 -57189060.761644408 2.8011310136769612e-05 0.0088622103903388746 -0.0018969623545988204 1.9999999994914235 -2.7999999993775551 -5.2456085363756157 
4000.0000000000000 4000.0000000000000 -2166.6666666669998 -28093509.786663532 -1864001.5922787827 -53106497.444158658 5.4267443034754140e-05 0.0063436191579945627 -0.0055125961818202115 2.3999999995263210 -2.3999999994862762 -5.4468746941914894 
5000.0000000000000 4000.0000000000000 -2166.6666666669998 -28093509.786536653 -1864001.5932572696 -53106497.448723145 5.9974959320143924e-05 0.0063535689346528798 -0.0020757609703409103 1.9999999995825102 -2.3999999994846628 -5.4468746949894529 
5000.0000000000000 3000.0000000000000 -2166.6666666669998 -28093509.788128793 -1864001.5925262035 -53106497.456853360 1.5421262352930064e-05 0.0091017174820476453 -0.0019111395754963822 1.9999999995814242 -2.7999999994728633 -5.4468746961009753 
4000.0000000000000 4000.0000000000000 -2000.0000000000000 -26941914.503055122 -712406.30866638327 -49023568.711394481 3.4756844470340509e-05 0.0063779258391679031 -0.0055244528587582685 2.3999999996241033 -2.3999999995927586 -5.6332405756912074 
5000.0000000000000 4000.0000000000000 -2000.0000000000000 -26941914.503220022 -712406.30960097536 -49023568.715461053 4.6333084073925805e-05 0.0063865800303331425 -0.0020588489924868495 1.9999999996743261 -2.3999999995916403 -5.6332405765046722 
5000.0000000000000 3000.0000000000000 -2000.0000000000000 -26941914.504810430 -712406.30934783234 -49023568.723078460 3.4043920444472786e-06 0.0092574651792215190 -0.0018906194178022365 1.9999999996736066 -2.7999999995730853 -5.6332405776487651 
4000.0000000000000 4000.0000000000000 -1833.3333333329999 -25790216.140535414 439292.05395383114 -44940274.516877264 1.4179532880934289e-05 0.0063390078134292075 -0.0054716334116039532 2.3999999997256221 -2.3999999997033465 -5.8047048452979828 
5000.0000000000000 4000.0000000000000 -1833.3333333329999 -25790216.141002186 439292.05305578286 -44940274.520469896 3.2361969898267139e-05 0.0063461718514676519 -0.0020060913509661110 1.9999999997683102 -2.3999999997027444 -5.8047048461245287 
5000.0000000000000 3000.0000000000000 -1833.3333333329999 -25790216.142600320 439292.05279170314 -44940274.527569719 -8.0058082727971326e-06 0.0093204125160114368 -0.0018349153235742231 1.9999999997679441 -2.7999999996787541 -5.8047048472983329 
4000.0000000000000 4000.0000000000000 -1666.6666666670001 -24638414.689879630 1591093.5048254726 -40856614.827867500 -7.4916558023672686e-06 0.0062227534023372869 -0.0053509515731825219 2.3999999998311483 -2.3999999998183559 -5.9612661691719779 
5000.0000000000000 4000.0000000000000 -1666.6666666670001 -24638414.690654725 1591093.5039577950 -40856614.831008345 1.8089652195143461e-05 0.0062282690587172323 -0.0019176914794867893 1.9999999998644571 -2.3999999998182902 -5.9612661700092797 
5000.0000000000000 3000.0000000000000 -1666.6666666670001 -24638414.692268942 1591093.5031355617 -40856614.837579273 -1.8789315295361528e-05 0.0092807732903184073 -0.0017444358056941734 1.9999999998644304 -2.7999999997904750 -5.9612661712098438 
9000.0000000000000 7000.0000000000000 -4833.3333333330002 -46505023.115710214 -20275514.940269545 -118383681.09868744 0.00021089177765167802 -0.00023744104643544963 0.00011478556223232486 0.39999999967519528 -1.1999999989597914 -0.43948932215146691 
9000.0000000000000 6000.0000000000000 -4833.3333333330002 -46505023.118524060 -20275514.941533118 -118383681.11130810 0.00030915012674623266 -0.00013581658493705995 9.7144472997343133e-05 0.39999999966585686 -1.5999999986456519 -0.43948932220233605 
9000.0000000000000 7000.0000000000000 -5000.0000000000000 -47079971.022354111 -20850462.847008180 -120422132.76787314 0.00021462340212948590 -0.00012379943344141027 5.9143860312348209e-05 0.39999999967359651 -1.1999999989551435 0.0000000000000000 
9000.0000000000000 6000.0000000000000 -5000.0000000000000 -47079971.025317997 -20850462.848418564 -120422132.78105217 0.00031518602798522271 -7.4859081283887061e-05 5.0857437661308038e-05 0.39999999966407690 -1.5999999986395830 0.0000000000000000 
9000.0000000000000 7000.0000000000000 -4666.6666666669998 -45355075.839191750 -19125567.663475357 -114306595.29960871 0.00020060335617961400 -0.00044564039447786619 0.00021946630259107283 0.39999999967980482 -1.1999999989732422 -0.86409968938168302 
9000.0000000000000 6000.0000000000000 -4666.6666666669998 -45355075.841717958 -19125567.664462816 -114306595.31113610 0.00029256761520135869 -0.00023226875256505269 0.00018158278006097307 0.39999999967096389 -1.5999999986631428 -0.86409968947916316 
9000.0000000000000 7000.0000000000000 -4500.0000000000000 -44205025.631587580 -17975517.455433618 -110229144.56273746 0.00018569383190606949 -0.00061793781712009613 0.00031167519965520461 0.39999999968706779 -1.1999999989945469 -1.2738297698885350 
9000.0000000000000 6000.0000000000000 -4500.0000000000000 -44205025.633849405 -17975517.456180058 -110229144.57321836 0.00026869796638924470 -0.00028216030362938666 0.00025156839479679544 0.39999999967894917 -1.5999999986906970 -1.2738297700285164 
9000.0000000000000 7000.0000000000000 -4333.3333333330002 -43054872.483654410 -16825364.306921273 -106151328.85533631 0.00016797594386005457 -0.00075886078183703661 0.00039278629360881272 0.39999999969665812 -1.1999999990228201 -1.6686782317427225 
9000.0000000000000 6000.0000000000000 -4333.3333333330002 -43054872.485672325 -16825364.307461683 -106151328.86481738 0.00024059884080595778 -0.00029397315702676236 0.00031037803465396821 0.39999999968940092 -1.5999999987270881 -1.6686782319212516 
9000.0000000000000 7000.0000000000000 -4166.6666666669998 -41904616.386149295 -15675108.208713679 -102073148.14466786 0.00014881753569365020 -0.00087284282570404916 0.00046402376576180958 0.39999999970827471 -1.1999999990572421 -2.0486437428957878 
9000.0000000000000 6000.0000000000000 -4166.6666666669998 -41904616.387941927 -15675108.209082337 -102073148.15319572 0.00021056660378609502 -0.00027562952686240982 0.00036062550271413475 0.39999999970194833 -1.5999999987712104 -2.0486437431090709 
9000.0000000000000 7000.0000000000000 -4000.0000000000000 -40754257.329824485 -14524749.151579579 -97994602.397976384 0.00012922464475410898 -0.00096414073709768567 0.00052649118548673288 0.39999999972164030 -1.1999999990970540 -2.4137249711865647 
9000.0000000000000 6000.0000000000000 -4000.0000000000000 -40754257.331409104 -14524749.151809525 -97994602.405597672 0.00018026228173205239 -0.00023450298074293092 0.00040434027950457676 0.39999999971626055 -1.5999999988220688 -2.4137249714309683 
9000.0000000000000 7000.0000000000000 -3833.3333333330002 -39603795.305437870 -13374287.126291610 -93915691.582524344 0.00010991622670560125 -0.0010367864969902717 0.00058118969191981633 0.39999999973649608 -1.1999999991415580 -2.7639205843275145 
9000.0000000000000 6000.0000000000000 -3833.3333333330002 -39603795.306830749 -13374287.126414094 -93915691.589285806 0.00015083770059423545 -0.00017743578833020888 0.00044307349584567701 0.39999999973204087 -1.5999999988787736 -2.7639205845995667 
9000.0000000000000 7000.0000000000000 -3666.6666666669998 -38453230.303747736 -12223722.123621205 -89836415.665574118 9.1390366428407871e-05 -0.0010945326835107201 0.00062903654537111310 0.39999999975260364 -1.1999999991901131 -3.0992292499119469 
9000.0000000000000 6000.0000000000000 -3666.6666666669998 -38453230.304964304 -12223722.123665186 -89836415.671522647 0.00012304756672864789 -0.00011068896028330606 0.00047800350301058702 0.39999999974902473 -1.5999999989405305 -3.0992292502083392 
9000.0000000000000 7000.0000000000000 -3500.0000000000000 -37302562.315507665 -11073054.134333517 -85756774.614369452 7.3976382695238967e-05 -0.0011407969704578069 0.00067083835032187892 0.39999999976974271 -1.1999999992421346 -3.4196496354196673 
9000.0000000000000 6000.0000000000000 -3500.0000000000000 -37302562.316562615 -11073054.134325262 -85756774.619552106 9.7345535707474377e-05 -3.9899486980413831e-05 0.00050997297728119697 0.39999999976697559 -1.5999999990066365 -3.4196496357372550 
9000.0000000000000 7000.0000000000000 -3333.3333333330002 -36151791.331476890 -9922283.1491979156 -81676768.396172494 5.7876011676847755e-05 -0.0011786112844946570 0.00070727993985286177 0.39999999978771061 -1.1999999992970902 -3.7251804082049067 
9000.0000000000000 6000.0000000000000 -3333.3333333330002 -36151791.332384177 -9922283.1491606459 -81676768.400636479 7.3965392095603680e-05 2.9953959372618311e-05 0.00053955586332254132 0.39999999978568146 -1.5999999990764744 -3.7251804085407132 
9000.0000000000000 7000.0000000000000 -3166.6666666669998 -35000917.342415079 -8771409.1589828618 -77596396.978245050 4.3194757575418515e-05 -0.0012105910550756012 0.00073892022032283594 0.39999999980632173 -1.1999999993544976 -4.0158202355027539 
9000.0000000000000 6000.0000000000000 -3166.6666666669998 -35000917.343187973 -8771409.1589364558 -77596396.982037663 5.2981688678180163e-05 9.4558536952519853e-05 0.00056708855124386109 0.39999999980495243 -1.5999999991495029 -4.0158202358539761 
9000.0000000000000 7000.0000000000000 -3000.0000000000000 -33849940.339077123 -7620432.1544507686 -73515660.327830434 2.9968150645931332e-05 -0.0012388580164187956 0.00076618165288569050 0.39999999982540635 -1.1999999994139221 -4.2915677844339859 
9000.0000000000000 6000.0000000000000 -3000.0000000000000 -33849940.339728147 -7620432.1544115767 -73515660.330998987 3.4357399006780005e-05 0.00015031413356088362 0.00059269566944613759 0.39999999982461848 -1.5999999992252543 -4.2915677847979969 
9000.0000000000000 7000.0000000000000 -2833.3333333330002 -32698860.312223513 -6469352.1263685487 -69434558.412190139 1.8178021337378317e-05 -0.0012650422209451934 0.00078932800498977937 0.39999999984481038 -1.1999999994749702 -4.5524217219946017 
9000.0000000000000 6000.0000000000000 -2833.3333333330002 -32698860.312764507 -6469352.1263492154 -69434558.414781973 1.7980200958282876e-05 0.00019433126987047694 0.00061631767220746798 0.39999999984452744 -1.5999999993033247 -4.5524217223689574 
9000.0000000000000 7000.0000000000000 -2666.6666666669998 -31547677.252615117 -5318169.0655024219 -65353091.198585436 7.7640706239651642e-06 -0.0012902452141740203 0.00080847236594790075 0.39999999986439272 -1.1999999995372883 -4.7983807150614659 
9000.0000000000000 6000.0000000000000 -2666.6666666669998 -31547677.253057130 -5318169.0655117780 -65353091.200647809 3.6895019459144756e-06 0.00022444093056174389 0.00063772382983588803 0.39999999986454254 -1.5999999993833691 -4.7983807154439093 
9000.0000000000000 7000.0000000000000 -2500.0000000000000 -30396391.151007913 -4166882.9626128487 -61271258.654259034 -1.3685153769797706e-06 -0.0013150154846530886 0.00082357293954413234 0.39999999988402513 -1.1999999996005573 -5.0294434303963191 
9000.0000000000000 6000.0000000000000 -2500.0000000000000 -30396391.151361275 -4166882.9626558302 -61271258.655839145 -8.7079152713548256e-06 0.00023917411055999701 0.00065653053360679374 0.39999999988454121 -1.5999999994650924 -5.0294434307847853 
9000.0000000000000 7000.0000000000000 -2333.3333333330002 -29245001.998163383 -3015493.8084649825 -57189060.746471874 -9.3448684261807836e-06 -0.0013393414099794991 0.00083442336564097642 0.39999999990359114 -1.1999999996644883 -5.2456085346369328 
9000.0000000000000 6000.0000000000000 -2333.3333333330002 -29245001.998437669 -3015493.8085425543 -57189060.747616909 -1.9431869629123535e-05 0.00023777388178346953 0.00067221520237764100 0.39999999990441337 -1.5999999995482452 -5.2456085350295547 
9000.0000000000000 7000.0000000000000 -2166.6666666669998 -28093509.784843192 -1864001.5938234790 -53106497.442484543 -1.6316603949749896e-05 -0.0013626203053826007 0.00084065651447038856 0.39999999992298363 -1.1999999997288171 -5.4468746943019344 
9000.0000000000000 6000.0000000000000 -2166.6666666669998 -28093509.785047196 -1864001.5939325492 -53106497.443241507 -2.8722711933344817e-05 0.00022020447444737247 0.00068412118079896357 0.39999999992405988 -1.5999999996326155 -5.4468746946970494 
9000.0000000000000 7000.0000000000000 -2000.0000000000000 -26941914.501803998 -712406.30944743450 -49023568.709539019 -2.2465259506950179e-05 -0.0013836378033317514 0.00084173853657446875 0.39999999994210322 -1.1999999997932991 -5.6332405757940274 
9000.0000000000000 6000.0000000000000 -2000.0000000000000 -26941914.501945753 -712406.30958078022 -49023568.709954888 -3.6844923014629072e-05 0.00018714505623175742 0.00069147536384828070 0.39999999994339058 -1.5999999997180208 -5.6332405761901700 
9000.0000000000000 7000.0000000000000 -1833.3333333329999 -25790216.139807813 439292.05389917322 -44940274.514895603 -2.8005601342991909e-05 -0.0014005692004575620 0.00083697306325573244 0.39999999996085794 -1.1999999998577044 -5.8047048453927426 
9000.0000000000000 6000.0000000000000 -1833.3333333329999 -25790216.139894590 439292.05375301553 -44940274.515017241 -4.4098456679699472e-05 0.00013998982948201918 0.00069340383569660229 0.39999999996232349 -1.5999999998043024 -5.8047048457886712 
9000.0000000000000 7000.0000000000000 -1666.6666666670001 -24638414.689616695 1591093.5054526362 -40856614.825814404 -3.3187577077691716e-05 -0.0014109633361543239 0.00082549750601513595 0.39999999997915947 -1.1999999999218123 -5.9612661692584688 
9000.0000000000000 6000.0000000000000 -1666.6666666670001 -24638414.689654998 1591093.5053095322 -40856614.825688586 -5.0828392068399524e-05 8.0861514307121085e-05 0.00068892311472034317 0.39999999998078284 -1.5999999998913190 -5.9612661696531513 
8000.0000000000000 4000.0000000000000 -4833.3333333330002 -46505023.126322225 -20275514.939409923 -118383681.14440423 0.00039476591722138765 0.00026538440647832758 4.9165643828537048e-05 0.79999999931070864 -2.3999999983299389 -0.43948932233952348 
8000.0000000000000 3000.0000000000000 -4833.3333333330002 -46505023.131236121 -20275514.937180527 -118383681.16877678 0.00019532626107495008 0.00045657798165356123 8.6269186136352510e-06 0.79999999929852528 -2.7999999984332402 -0.43948932244651273 
7000.0000000000000 3000.0000000000000 -4833.3333333330002 -46505023.130345173 -20275514.934944920 -118383681.15859619 0.00015936398978444132 0.00044396343934318143 0.00022667698298476055 1.1999999990293508 -2.7999999984403980 -0.43948932239471145 
8000.0000000000000 4000.0000000000000 -5000.0000000000000 -47079971.033463649 -20850462.846585218 -120422132.81532785 0.00040349724219224987 0.00012299750152715074 2.8580019860474265e-05 0.79999999930651466 -2.3999999983227287 0.0000000000000000 
8000.0000000000000 3000.0000000000000 -5000.0000000000000 -47079971.038654044 -20850462.844601184 -120422132.84069742 0.00019963341493312196 0.00021775233489375025 8.7385438438696760e-06 0.79999999929395715 -2.7999999984263471 0.0000000000000000 
7000.0000000000000 3000.0000000000000 -5000.0000000000000 -47079971.037619375 -20850462.842194080 -120422132.82985973 0.00015973315382013749 0.00021174230287411647 0.00011810347707288257 1.1999999990250183 -2.7999999984337451 0.0000000000000000 
8000.0000000000000 4000.0000000000000 -4666.6666666669998 -45355075.848829456 -19125567.661819622 -114306595.34193432 0.00037178084678620425 0.00058496131787570281 7.8094120546304304e-05 0.79999999932244859 -2.3999999983505886 -0.86409968974512641 
8000.0000000000000 3000.0000000000000 -4666.6666666669998 -45355075.853220306 -19125567.659156993 -114306595.36440049 0.00018481818903244308 0.00097094749386182101 -4.1834809728413450e-06 0.79999999931117849 -2.7999999984527943 -0.86409968995154585 
7000.0000000000000 3000.0000000000000 -4666.6666666669998 -45355075.852572083 -19125567.657236874 -114306595.35546960 0.00015826447506142165 0.00094476658373815643 0.00042518766963208301 1.1999999990419241 -2.7999999984594122 -0.86409968985539021 
8000.0000000000000 4000.0000000000000 -4500.0000000000000 -44205025.640297115 -17975517.453134805 -110229144.60184015 0.00034101659104897227 0.00096632249956880823 8.8677212283510667e-05 0.79999999934025567 -2.3999999983828304 -1.2738297704152062 
8000.0000000000000 3000.0000000000000 -4500.0000000000000 -44205025.644224018 -17975517.450148404 -110229144.62257080 0.00017269928249683472 0.0015485242570027330 -3.4059779747831536e-05 0.79999999933009946 -2.7999999984829347 -1.2738297707140538 
7000.0000000000000 3000.0000000000000 -4500.0000000000000 -44205025.643745214 -17975517.448495351 -110229144.61476780 0.00015643337034467613 0.0015090664803470799 0.00058771423049742348 1.1999999990619019 -2.7999999984889814 -1.2738297705801445 
8000.0000000000000 4000.0000000000000 -4333.3333333330002 -43054872.491489813 -16825364.304128405 -106151328.89138223 0.00030775947048344312 0.0013942827961673145 9.0913030383888251e-05 0.79999999936299737 -2.3999999984250455 -1.6686782324209484 
8000.0000000000000 3000.0000000000000 -4333.3333333330002 -43054872.495009586 -16825364.300916523 -106151328.91053860 0.00016213560482420834 0.0021702517689577748 -6.8245265780783972e-05 0.79999999935395283 -2.7999999985219231 -1.6686782328057623 
7000.0000000000000 3000.0000000000000 -4333.3333333330002 -43054872.494652450 -16825364.299493302 -106151328.90375537 0.00015384235904506233 0.0021190818143248416 0.00071726835718222831 1.1999999990884820 -2.7999999985274937 -1.6686782326399014 
8000.0000000000000 4000.0000000000000 -4166.6666666669998 -41904616.393170014 -15675108.205569489 -102073148.17782065 0.00027519194235182053 0.0018546224407252928 9.1084691677844202e-05 0.79999999938977640 -2.3999999984758280 -2.0486437437143632 
8000.0000000000000 3000.0000000000000 -4166.6666666669998 -41904616.396336198 -15675108.202219358 -102073148.19555321 0.00015440997526311787 0.0028196717039736248 -9.9569094394519079e-05 0.79999999938173183 -2.7999999985683273 -2.0486437441791945 
7000.0000000000000 3000.0000000000000 -4166.6666666669998 -41904616.396068022 -15675108.200996649 -102073148.18969369 0.00015046665156308702 0.0027585156474661436 0.00081756446967542605 1.1999999991208987 -2.7999999985735560 -2.0486437439864660 
8000.0000000000000 4000.0000000000000 -4000.0000000000000 -40754257.336093053 -14524749.148218639 -97994602.428396493 0.00024504469457351923 0.0023341758230997971 9.3082217540046185e-05 0.79999999941986311 -2.3999999985339779 -2.4137249721347369 
8000.0000000000000 3000.0000000000000 -4000.0000000000000 -40754257.338955283 -14524749.144807246 -97994602.444844276 0.00014972095881793404 0.0034825842246787387 -0.00012428755006305158 0.79999999941266076 -2.7999999986209820 -2.4137249726741188 
7000.0000000000000 3000.0000000000000 -4000.0000000000000 -40754257.338752411 -14524749.143761329 -97994602.439822763 0.00014630377275739204 0.0034128115797145597 0.00089272943052522049 1.1999999991584260 -2.7999999986260011 -2.4137249724589762 
8000.0000000000000 4000.0000000000000 -3833.3333333330002 -39603795.311017923 -13374287.122838868 -93915691.610368222 0.00021806714996296193 0.0028209957761567220 9.9219471131200350e-05 0.79999999945265177 -2.3999999985984828 -2.7639205853949709 
8000.0000000000000 3000.0000000000000 -3833.3333333330002 -39603795.313621528 -13374287.119434090 -93915691.625658363 0.00014767595224615801 0.0041468062583203073 -0.00014074353953287587 0.79999999944612643 -2.7999999986789623 -2.7639205860038878 
7000.0000000000000 3000.0000000000000 -3833.3333333330002 -39603795.313466042 -13374287.118545307 -93915691.621398076 0.00014136762924267700 0.0040692816025373222 0.00094701533471248890 1.1999999992003867 -2.7999999986838806 -2.7639205857702369 
8000.0000000000000 4000.0000000000000 -3666.6666666669998 -38453230.308702543 -12223722.120191034 -89836415.690993354 0.00019437673714107806 0.0033042795818885437 0.00011076439481586274 0.79999999948763101 -2.3999999986685077 -3.0992292510888104 
8000.0000000000000 3000.0000000000000 -3666.6666666669998 -38453230.311088413 -12223722.116852906 -89836415.705240890 0.00014759456244712172 0.0048017802335001076 -0.00014850765875709210 0.79999999948163381 -2.7999999987415509 -3.0992292517626576 
7000.0000000000000 3000.0000000000000 -3666.6666666669998 -38453230.310966253 -12223722.116104582 -89836415.701672614 0.00013568954388075782 0.0047168397278920882 0.00098457851042337095 1.1999999992461534 -2.7999999987464466 -3.0992292515139352 
8000.0000000000000 4000.0000000000000 -3500.0000000000000 -37302562.319898978 -11073054.131029151 -85756774.637510151 0.00017370094061432096 0.0037743185069964748 0.00012827128140040217 0.79999999952436440 -2.3999999987433784 -3.4196496366964828 
8000.0000000000000 3000.0000000000000 -3500.0000000000000 -37302562.322103649 -11073054.127811173 -85756774.650817990 0.00014869680572709445 0.0054382580500990131 -0.00014784351549751462 0.79999999951877399 -2.7999999988082176 -3.4196496374310295 
7000.0000000000000 3000.0000000000000 -3500.0000000000000 -37302562.322003588 -11073054.127188858 -85756774.647878870 0.00012931086854240368 0.0053457951420869303 0.0010093245849202984 1.1999999992951500 -2.7999999988131345 -3.4196496371702665 
8000.0000000000000 4000.0000000000000 -3333.3333333330002 -36151791.335364163 -9922283.1461111195 -81676768.417174384 0.00015554918771264705 0.0042224208756359120 0.00015179668769128054 0.79999999956247525 -2.3999999988225684 -3.7251804095726362 
8000.0000000000000 3000.0000000000000 -3333.3333333330002 -36151791.337419987 -9922283.1430615187 -81676768.429633453 0.00015020623232488760 0.0060479888434925343 -0.00013939695501919233 0.79999999955720402 -2.7999999988785920 -3.7251804103639836 
7000.0000000000000 3000.0000000000000 -3333.3333333330002 -36151791.337333061 -9922283.1425524577 -81676768.427266002 0.00012226870604786154 0.0059476293528004922 0.0010247840123561061 1.1999999993468526 -2.7999999988835453 -3.7251804100938664 
8000.0000000000000 4000.0000000000000 -3166.6666666669998 -35000917.345854960 -8771409.1561938804 -77596396.997241169 0.00013932887127461024 0.0046407527161360634 0.00018103125226174557 0.79999999960163604 -2.3999999989056842 -4.0158202369527674 
8000.0000000000000 3000.0000000000000 -3166.6666666669998 -35000917.347790383 -8771409.1533567868 -77596397.008930832 0.00015140202761672737 0.0066234518081420019 -0.00012400647745386981 0.79999999959663082 -2.7999999989524493 -4.0158202377973078 
7000.0000000000000 3000.0000000000000 -3166.6666666669998 -35000917.347709656 -8771409.1529495493 -77596397.007081971 0.00011458935260440781 0.0065146673250687740 0.0010340491433917872 1.1999999994007895 -2.7999999989574276 -4.0158202375202228 
8000.0000000000000 4000.0000000000000 -3000.0000000000000 -33849940.342123210 -7620432.1520284675 -73515660.344946831 0.00012441943031578183 0.0050222566332951222 0.00021539675362466861 0.79999999964155921 -2.3999999989924494 -4.2915677859580521 
8000.0000000000000 3000.0000000000000 -3000.0000000000000 -33849940.343963087 -7620432.1494449656 -73515660.355935127 0.00015164676459533978 0.0071576403291650839 -0.00010260637055670822 0.79999999963679869 -2.7999999990296915 -4.2915677868524247 
7000.0000000000000 3000.0000000000000 -3000.0000000000000 -33849940.343883529 -7620432.1491291821 -73515660.354555368 0.00010629076253336711 0.0070398422074696865 0.0010396829816965518 1.1999999994565365 -2.7999999990346605 -4.2915677865705009 
8000.0000000000000 4000.0000000000000 -2833.3333333330002 -32698860.314926181 -6469352.1243705442 -69434558.427545756 0.00011022625812152886 0.0053604981205005878 0.00025409759872710842 0.79999999968199087 -2.3999999990827003 -4.5524217235848852 
8000.0000000000000 3000.0000000000000 -2833.3333333330002 -32698860.316692118 -6469352.1220795996 -69434558.437889814 0.00015039333808434494 0.0076437846831889644 -7.6162984362789909e-05 0.79999999967748292 -2.7999999991103364 -4.5524217245259324 
7000.0000000000000 3000.0000000000000 -2833.3333333330002 -32698860.316610571 -6469352.1218457893 -69434558.436932623 9.7381440878677053e-05 0.0075164585516998379 0.0010437320074712178 1.1999999995137156 -2.7999999991152431 -4.5524217242410678 
8000.0000000000000 4000.0000000000000 -2666.6666666669998 -31547677.255021565 -5318169.0639753351 -65353091.212292299 9.6211247504812697e-05 0.0056496002548776254 0.00029613742687894569 0.79999999972270530 -2.3999999991763654 -4.7983807167105050 
8000.0000000000000 3000.0000000000000 -2666.6666666669998 -31547677.256732207 -5318169.0620146096 -65353091.222038716 0.00014718209905916694 0.0080752131110611997 -4.5677123013760924e-05 0.79999999971848357 -2.7999999991945006 -4.7983807176952391 
7000.0000000000000 3000.0000000000000 -2666.6666666669998 -31547677.256647415 -5318169.0618540710 -65353091.221459992 8.7857117761136287e-05 0.0079380084786533980 0.0010476881373374059 1.1999999995719921 -2.7999999991992794 -4.7983807174091266 
8000.0000000000000 4000.0000000000000 -2500.0000000000000 -30396391.153162256 -4166882.9615924899 -61271258.666422591 8.1903468975639008e-05 0.0058841040340532526 0.00034033328366896317 0.79999999976350111 -2.3999999992734611 -5.0294434320970334 
8000.0000000000000 3000.0000000000000 -2500.0000000000000 -30396391.154833619 -4166882.9599990547 -61271258.675607845 0.00014163427799162987 0.0084451447807801523 -1.2201634577272393e-05 0.79999999975961888 -2.7999999992823992 -5.0294434331225810 
7000.0000000000000 3000.0000000000000 -2500.0000000000000 -30396391.154746260 -4166882.9599037403 -61271258.675365314 7.7699595858164841e-05 0.0082979526718049874 0.0010524653823312414 1.1999999996310686 -2.7999999992869706 -5.0294434328367288 
8000.0000000000000 4000.0000000000000 -2333.3333333330002 -29245002.000106759 -3015493.8079764564 -57189060.757191420 6.6906216041739836e-05 0.0060588972392745669 0.00038531964437134520 0.79999999980419656 -2.3999999993740779 -5.2456085363826039 
8000.0000000000000 3000.0000000000000 -2333.3333333330002 -29245002.001752552 -3015493.8067874173 -57189060.765842468 0.00013343898601851940 0.0087465764517094986 2.3149039003683965e-05 0.79999999980072412 -2.7999999993743350 -5.2456085374461798 
7000.0000000000000 3000.0000000000000 -2333.3333333330002 -29245002.001665309 -3015493.8067499166 -57189060.765895337 6.6877930695615943e-05 0.0085895830884432905 0.0010584508365096186 1.1999999996906816 -2.7999999993786067 -5.2456085371619201 
8000.0000000000000 4000.0000000000000 -2166.6666666669998 -28093509.786613967 -1864001.5938812657 -53106497.451854065 5.0899825758859052e-05 0.0061691737361699176 0.00042955078147219436 0.79999999984462722 -2.3999999994783785 -5.4468746960862067 
8000.0000000000000 3000.0000000000000 -2166.6666666669998 -28093509.788245838 -1864001.5931342607 -53106497.459988654 0.00012234991706740279 0.0089721292449294783 5.9174391684360882e-05 0.79999999984164649 -2.7999999994706872 -5.4468746971850672 
7000.0000000000000 3000.0000000000000 -2166.6666666669998 -28093509.788163416 -1864001.5931477300 -53106497.460297160 5.5351978466104119e-05 0.0088058461797292271 0.0010654493698644841 1.1999999997505972 -2.7999999994745641 -5.4468746969035697 
8000.0000000000000 4000.0000000000000 -2000.0000000000000 -26941914.503437921 -712406.31005528686 -49023568.717648044 3.3630071949362465e-05 0.0062103753627344100 0.00047129835201421041 0.79999999988464299 -2.3999999995865831 -5.6332405776109091 
8000.0000000000000 3000.0000000000000 -2000.0000000000000 -26941914.505065739 -712406.30978893372 -49023568.725275367 0.00010817825048424915 0.0091139150064322542 9.4554211530174415e-05 0.79999999988224502 -2.7999999995719183 -5.6332405787423170 
7000.0000000000000 3000.0000000000000 -2000.0000000000000 -26941914.504994869 -712406.30984703475 -49023568.725800328 4.3072732759316315e-05 0.0089392459817953206 0.0010727066787276287 1.1999999998106052 -2.7999999995752956 -5.6332405784645809 
8000.0000000000000 4000.0000000000000 -1833.3333333329999 -25790216.141338069 439292.05274851865 -44940274.521830007 1.4888174877537903e-05 0.0061781300681531814 0.00050866462380787442 0.79999999992410686 -2.3999999996989647 -5.8047048472366081 
8000.0000000000000 3000.0000000000000 -1833.3333333329999 -25790216.142970122 439292.05249429331 -44940274.528951161 9.0773349790860929e-05 0.0091634170143341815 0.00012784477601133413 0.79999999992238735 -2.7999999996785623 -5.8047048483977983 
7000.0000000000000 3000.0000000000000 -1833.3333333329999 -25790216.142919648 439292.05239739752 -44940274.529653780 2.9985796008516959e-05 0.0089816747091562357 0.0010789288647289775 1.1999999998705142 -2.7999999996813334 -5.8047048481246657 
8000.0000000000000 4000.0000000000000 -1666.6666666670001 -24638414.691073991 1591093.5037779079 -40856614.831657514 -5.5124175203543765e-06 0.0060683123298563776 0.00053957915325714416 0.79999999996289339 -2.3999999998158468 -5.9612661711240627 
8000.0000000000000 3000.0000000000000 -1666.6666666670001 -24638414.692717191 1591093.5029616009 -40856614.838266037 7.0013264807235813e-05 0.0091114240769353833 0.00015747984830799029 0.79999999996195104 -2.7999999997912308 -5.9612661723122082 
7000.0000000000000 3000.0000000000000 -1666.6666666670001 -24638414.692698006 1591093.5028313261 -40856614.839107543 1.6029136936105713e-05 0.0089243244966528430 0.0010822516361231960 1.1999999999301461 -2.7999999997932852 -5.9612661720443532 
2000.0000000000000 5000.0000000000000 -4833.3333333330002 -46505023.124145932 -20275514.920035955 -118383681.02770153 0.00022505856338104541 -5.2926089990953811e-06 -0.00044087806628966350 3.1999999988907515 -1.9999999984775092 -0.43948932184949585 
2000.0000000000000 4000.0000000000000 -4833.3333333330002 -46505023.128799230 -20275514.919004243 -118383681.04800703 0.00021075436044177201 0.00023137352379024425 -0.00044559340584583419 3.1999999988837287 -2.3999999983772144 -0.43948932193162088 
2000.0000000000000 5000.0000000000000 -5000.0000000000000 -47079971.030050918 -20850462.825926390 -120422132.69389836 0.00022594473341619871 -1.0127945178747626e-05 -0.00021087537333121801 3.1999999988857692 -1.9999999984712522 0.0000000000000000 
2000.0000000000000 4000.0000000000000 -5000.0000000000000 -47079971.034924418 -20850462.825082861 -120422132.71495041 0.00021134544710964883 0.00010664563115235512 -0.00021348295384500084 3.1999999988787078 -2.3999999983704554 0.0000000000000000 
2000.0000000000000 5000.0000000000000 -4666.6666666669998 -45355075.848935716 -19125567.644877624 -114306595.23436877 0.00022237524631885995 3.2561470457471051e-05 -0.00093326533692556011 3.1999999989047136 -1.9999999984956562 -0.86409968879911137 
2000.0000000000000 4000.0000000000000 -4666.6666666669998 -45355075.853155486 -19125567.643503174 -114306595.25321907 0.00020888410822278805 0.00051403262047499873 -0.00094145433256257198 3.1999999988977841 -2.3999999983966789 -0.86409968895860678 
2000.0000000000000 5000.0000000000000 -4500.0000000000000 -44205025.642307594 -17975517.438353721 -110229144.50279042 0.00021786418837159240 0.00012303299012477283 -0.0014797664442955283 3.1999999989258638 -1.9999999985244568 -1.2738297690455511 
2000.0000000000000 4000.0000000000000 -4500.0000000000000 -44205025.646113433 -17975517.436703891 -110229144.52026142 0.00020556228106201902 0.00085691975881590794 -0.0014904432234310152 3.1999999989190648 -2.3999999984272864 -1.2738297692777729 
2000.0000000000000 5000.0000000000000 -4333.3333333330002 -43054872.495037436 -16825364.291248761 -106151328.80025306 0.00021155929862870499 0.00025800577750272118 -0.0020613116539948289 3.1999999989527641 -1.9999999985627226 -1.6686782306583332 
2000.0000000000000 4000.0000000000000 -4333.3333333330002 -43054872.498457767 -16825364.289389983 -106151328.81642035 0.00020072524387357922 0.0012473195180028760 -0.0020743317393645553 3.1999999989461334 -2.3999999984676013 -1.6686782309587522 
2000.0000000000000 5000.0000000000000 -4166.6666666669998 -41904616.397908345 -15675108.194346873 -102073148.09404574 0.00020358166114429709 0.00042854865470942996 -0.0026628614004959735 3.1999999989842967 -1.9999999986093415 -2.0486437415878580 
2000.0000000000000 4000.0000000000000 -4166.6666666669998 -41904616.400976099 -15675108.192342985 -102073148.10898396 0.00019444959759605117 0.0016723042503437146 -0.0026786199381770037 3.1999999989778747 -2.3999999985163378 -2.0486437419520551 
2000.0000000000000 5000.0000000000000 -4000.0000000000000 -40754257.341700405 -14524749.138424674 -97994602.351436809 0.00019411732809381164 0.00062553224162480148 -0.0032726390966032258 3.1999999990196146 -1.9999999986632953 -2.4137249696718368 
2000.0000000000000 4000.0000000000000 -4000.0000000000000 -40754257.344450265 -14524749.136336014 -97994602.365219936 0.00018689889596007795 0.0021193894018424297 -0.0032917933789554593 3.1999999990134418 -2.3999999985723615 -2.4137249700955121 
2000.0000000000000 5000.0000000000000 -3833.3333333330002 -39603795.317199133 -13374287.114261758 -93915691.539712340 0.00018339008280475604 0.00083996349919022789 -0.0038814466796273845 3.1999999990581003 -1.9999999987236676 -2.7639205826216151 
2000.0000000000000 4000.0000000000000 -3833.3333333330002 -39603795.319665693 -13374287.112144586 -93915691.552413344 0.00017827666987425605 0.0025768419519569242 -0.0039047114531861032 3.1999999990522152 -2.3999999986346947 -2.7639205831006026 
2000.0000000000000 5000.0000000000000 -3666.6666666669998 -38453230.315189287 -12223722.112635855 -89836415.626159087 0.00017163693481582232 0.0010632500488169383 -0.0044819754459397955 3.1999999990993229 -1.9999999987896477 -3.0992292480294097 
2000.0000000000000 4000.0000000000000 -3666.6666666669998 -38453230.317405760 -12223722.110541940 -89836415.637848929 0.00016878522135511893 0.0030338544267979619 -0.0045099716205698036 3.1999999990937633 -2.3999999987025151 -3.0992292485596908 
2000.0000000000000 5000.0000000000000 -3500.0000000000000 -37302562.326448850 -11073054.124317547 -85756774.578045726 0.00015908548951711995 0.0012873986419255912 -0.0050682576665679376 3.1999999991430155 -1.9999999988605326 -3.4196496333739712 
2000.0000000000000 4000.0000000000000 -3500.0000000000000 -37302562.328446276 -11073054.122294070 -85756774.588792577 0.00015861314714839798 0.0034806061666885369 -0.0051014377383782851 3.1999999991378125 -2.3999999987751468 -3.4196496339516815 
2000.0000000000000 5000.0000000000000 -3333.3333333330002 -36151791.341758996 -9922283.1400806811 -81676768.362659246 0.00014594321790902863 0.0015051102845234079 -0.0056351209070478287 3.1999999991890382 -1.9999999989357193 -3.7251804060085303 
2000.0000000000000 4000.0000000000000 -3333.3333333330002 -36151791.343565874 -9922283.1381703615 -81676768.372527897 0.00014791472527967456 0.0039082787949295010 -0.0056737369794266131 3.1999999991842163 -2.3999999988520542 -3.7251804066299665 
2000.0000000000000 5000.0000000000000 -3166.6666666669998 -35000917.351898879 -8771409.1506973431 -77596396.947286323 0.00013238012714124469 0.0017098649196702204 -0.0061777405579695188 3.1999999992373631 -1.9999999990147048 -4.0158202331672337 
2000.0000000000000 4000.0000000000000 -3166.6666666669998 -35000917.353540979 -8771409.1489386410 -77596396.956337661 0.00013679823016544409 0.0043090037642428726 -0.0062218475700291289 3.1999999992329431 -2.3999999989328309 -4.0158202338288573 
2000.0000000000000 5000.0000000000000 -3000.0000000000000 -33849940.347640455 -7620432.1469327789 -73515660.299194857 0.00011852388313044113 0.0018958919062973881 -0.0066914094350725394 3.1999999992880599 -1.9999999990970727 -4.2915677819699942 
2000.0000000000000 4000.0000000000000 -3000.0000000000000 -33849940.349140823 -7620432.1453601774 -73515660.307485491 0.00012533023026388909 0.0046756814110941944 -0.0067408633703832654 3.1999999992840560 -2.3999999990171865 -4.2915677826684293 
2000.0000000000000 5000.0000000000000 -2833.3333333330002 -32698860.319758974 -6469352.1195558626 -69434558.385670379 0.00010446292444778294 0.0020581757679232148 -0.0071713034288352351 3.1999999993412804 -1.9999999991824937 -4.5524217194120160 
2000.0000000000000 4000.0000000000000 -2833.3333333330002 -32698860.321138024 -6469352.1182001978 -69434558.393252373 0.00011352986018814590 0.0050018824221549438 -0.0072257932249615358 3.1999999993377051 -2.3999999991049386 -4.5524217201440473 
2000.0000000000000 5000.0000000000000 -2666.6666666669998 -31547677.259028077 -5318169.0593341589 -65353091.173997998 9.0238963994475864e-05 0.0021924708421571975 -0.0076122021224600310 3.1999999993972539 -1.9999999992707098 -4.7983807123694540 
2000.0000000000000 4000.0000000000000 -2666.6666666669998 -31547677.260303799 -5318169.0582229085 -65353091.180918872 0.00010137022317069271 0.0052818188268955292 -0.0076712823164434762 3.1999999993941164 -2.3999999991960013 -4.7983807131320235 
2000.0000000000000 5000.0000000000000 -2500.0000000000000 -30396391.156214707 -4166882.9570287704 -61271258.631443784 7.5850061231923531e-05 0.0022952752309654519 -0.0080083393877587467 3.1999999994562831 -1.9999999993615325 -5.0294434276034243 
2000.0000000000000 4000.0000000000000 -2500.0000000000000 -30396391.157402791 -4166882.9561862969 -61271258.637746312 8.8785556128936126e-05 0.0055101812561731264 -0.0080714338166799834 3.1999999994535950 -2.3999999992903742 -5.0294434283936154 
2000.0000000000000 5000.0000000000000 -2333.3333333330002 -29245002.002089676 -3015493.8034048160 -57189060.725291498 6.1257096429459524e-05 0.0023637356830364738 -0.0083532536755506100 3.1999999995187371 -1.9999999994548292 -5.2456085317511603 
2000.0000000000000 4000.0000000000000 -2333.3333333330002 -29245002.003203772 -3015493.8028525906 -57189060.731013931 7.5674006822415335e-05 0.0056819843795474891 -0.0084196923016338944 3.1999999995165100 -2.3999999993881356 -5.2456085325661945 
2000.0000000000000 5000.0000000000000 -2166.6666666669998 -28093509.787422769 -1864001.5892264196 -53106497.422824621 4.6385211314646984e-05 0.0023956757958125425 -0.0086395570533833801 3.1999999995850561 -1.9999999995505209 -5.4468746913308417 
2000.0000000000000 4000.0000000000000 -2166.6666666669998 -28093509.788474713 -1864001.5889831851 -53106497.428000934 6.1901369129241566e-05 0.0057925700434685876 -0.0087085833373489532 3.1999999995833046 -2.3999999994894314 -5.4468746921680653 
2000.0000000000000 5000.0000000000000 -2000.0000000000000 -26941914.502977617 -712406.30525147635 -49023568.691307656 3.1125923184200273e-05 0.0023896513225754468 -0.0088588195161071193 3.1999999996557515 -1.9999999996485678 -5.6332405727448114 
2000.0000000000000 4000.0000000000000 -2000.0000000000000 -26941914.503977586 -712406.30533328548 -49023568.695967756 4.7305304325048474e-05 0.0058375548802059524 -0.0089295976794372973 3.1999999996544948 -2.3999999995944736 -5.6332405736016877 
2000.0000000000000 5000.0000000000000 -1833.3333333329999 -25790216.139522277 439292.05775784707 -44940274.498023175 1.5339346629748257e-05 0.0023448916438584041 -0.0090013657535099878 3.1999999997314110 -1.9999999997489657 -5.8047048422723426 
2000.0000000000000 4000.0000000000000 -1833.3333333329999 -25790216.140478920 439292.05733775347 -44940274.502193026 3.1694778708658155e-05 0.0058127448547215087 -0.0090729761267108449 3.1999999997306734 -2.3999999997035251 -5.8047048431464336 
2000.0000000000000 5000.0000000000000 -1666.6666666670001 -24638414.687824257 1591093.5090402975 -40856614.810253434 -1.1427203462226621e-06 0.0022613202073230826 -0.0090560171107566395 3.1999999998127029 -1.9999999998517350 -5.9612661660736501 
2000.0000000000000 4000.0000000000000 -1666.6666666670001 -24638414.688744884 1591093.5082715820 -40856614.813955657 1.4855756774349645e-05 0.0057141293909820767 -0.0091274560083859264 3.1999999998125137 -2.3999999998168984 -5.9612661669626199 
6000.0000000000000 3000.0000000000000 -4833.3333333330002 -46505023.128885642 -20275514.932455599 -118383681.14917332 0.00011103278623096120 0.00045247529425881890 0.00032506371832113803 1.5999999987912021 -2.7999999984432309 -0.43948932237156890 
6000.0000000000000 3000.0000000000000 -5000.0000000000000 -47079971.036072299 -20850462.839638960 -120422132.82024834 0.00010692906434516032 0.00021571790755519862 0.00016851080871605733 1.5999999987871316 -2.7999999984363670 0.0000000000000000 
6000.0000000000000 3000.0000000000000 -4666.6666666669998 -45355075.851314411 -19125567.654897649 -114306595.34646542 0.00012055196466478136 0.00096265048677038681 0.00061161506244563160 1.5999999988035629 -2.7999999984627029 -0.86409968980750906 
6000.0000000000000 3000.0000000000000 -4500.0000000000000 -44205025.642722130 -17975517.446334936 -110229144.60625704 0.00013023185024311048 0.0015358569764770476 0.00084220110508555560 1.5999999988242541 -2.7999999984927118 -1.2738297705066435 
6000.0000000000000 3000.0000000000000 -4333.3333333330002 -43054872.493863963 -16825364.297526337 -106151328.89579570 0.00013655269822558200 0.0021529839504797052 0.0010147524397395109 1.5999999988529121 -2.7999999985315216 -1.6686782325405800 
6000.0000000000000 3000.0000000000000 -4166.6666666669998 -41904616.395495474 -15675108.199227920 -102073148.18232663 0.00013819948301869059 0.0027976060374667114 0.0011328693079172873 1.5999999988889484 -2.7999999985776998 -2.0486437438617249 
6000.0000000000000 3000.0000000000000 -4000.0000000000000 -40754257.338367283 -14524749.142188791 -97994602.433074772 0.00013508693201048401 0.0034556546033871847 0.0012032045979881258 1.5999999989316664 -2.7999999986300823 -2.4137249723097214 
6000.0000000000000 3000.0000000000000 -3833.3333333330002 -39603795.313235559 -13374287.117162278 -93915691.615282178 0.00012776271448739916 0.0041151080914798594 0.0012338373744246989 1.5999999989803322 -2.7999999986877460 -2.7639205855977731 
6000.0000000000000 3000.0000000000000 -3666.6666666669998 -38453230.310856909 -12223722.114901327 -89836415.696190044 0.00011705138578056961 0.0047655012847093369 0.0012332341133939285 1.5999999990342220 -2.7999999987499748 -3.0992292513198656 
6000.0000000000000 3000.0000000000000 -3500.0000000000000 -37302562.321983367 -11073054.126153700 -85756774.643020719 0.00010385421671744603 0.0053976680924087261 0.0012095792047911759 1.5999999990926459 -2.7999999988162396 -3.4196496369564073 
6000.0000000000000 3000.0000000000000 -3333.3333333330002 -36151791.337372817 -9922283.1416726224 -81676768.423014686 8.9032084373945165e-05 0.0060034935917986816 0.0011704289809386457 1.5999999991549687 -2.7999999988861743 -3.7251804098621593 
6000.0000000000000 3000.0000000000000 -3166.6666666669998 -35000917.347783916 -8771409.1522117723 -77596397.003412724 7.3348234864473278e-05 0.0065755354042599740 0.0011224749326907164 1.5999999992206144 -2.7999999989595530 -4.0158202372726670 
6000.0000000000000 3000.0000000000000 -3000.0000000000000 -33849940.343970954 -7620432.1485201269 -73515660.351437598 5.7449915918467289e-05 0.0071068024947621910 0.0010714165572913515 1.5999999992890734 -2.7999999990362805 -4.2915677863090886 
6000.0000000000000 3000.0000000000000 -2833.3333333330002 -32698860.316694245 -6469352.1213523597 -69434558.434331089 4.1867397932480435e-05 0.0075905735735541527 0.0010219512495218744 1.5999999993598983 -2.7999999991163715 -4.5524217239677407 
6000.0000000000000 3000.0000000000000 -2666.6666666669998 -31547677.256714866 -5318169.0614636438 -65353091.219335996 2.7019969158296618e-05 0.0080201874069092197 0.00097773809451392156 1.5999999994327039 -2.7999999991999465 -4.7983807171257267 
6000.0000000000000 3000.0000000000000 -2500.0000000000000 -30396391.154789496 -4166882.9596043476 -61271258.673677646 1.3223777700585493e-05 0.0083888952251056793 0.00094145105030990137 1.5999999995071599 -2.7999999992872167 -5.0294434325449693 
6000.0000000000000 3000.0000000000000 -2333.3333333330002 -29245002.001680717 -3015493.8065302861 -57189060.764600895 7.0492928456637339e-07 0.0086897024661234650 0.00091482740925620358 1.5999999995829879 -2.7999999993784823 -5.2456085368633607 
6000.0000000000000 3000.0000000000000 -2166.6666666669998 -28093509.788151778 -1864001.5929974632 -53106497.459351987 -1.0385623709931206e-05 0.0089152206004215404 0.00089863097289867566 1.5999999996599537 -2.7999999994741214 -5.4468746965995969 
6000.0000000000000 3000.0000000000000 -2000.0000000000000 -26941914.504961379 -712406.30975671322 -49023568.725160331 -1.9968704531017994e-05 0.0090575728881081684 0.00089275762561373529 1.5999999997378571 -2.7999999995745934 -5.6332405781564043 
6000.0000000000000 3000.0000000000000 -1833.3333333329999 -25790216.142873894 439292.05243617191 -44940274.529275186 -2.8017281024758456e-05 0.0091082781132545646 0.00089624018769058527 1.5999999998165277 -2.7999999996804297 -5.8047048478132997 
6000.0000000000000 3000.0000000000000 -1666.6666666670001 -24638414.692654155 1591093.5028257768 -40856614.838947639 -3.4545259805852188e-05 0.0090581489815985891 0.00090721512415922918 1.5999999998958128 -2.7999999997922340 -5.9612661717306290 
3000.0000000000000 5000.0000000000000 -4833.3333333330002 -46505023.121666923 -20275514.923960976 -118383681.04802640 0.00049984043937872295 2.1046149532881226e-05 -0.00036318977432918105 2.7999999985962591 -1.9999999984618460 -0.43948932193746509 
3000.0000000000000 4000.0000000000000 -4833.3333333330002 -46505023.126227558 -20275514.922986958 -118383681.06914723 0.00043967685901272229 0.00025809485308431987 -0.00042252975487969878 2.7999999985780266 -2.3999999983630533 -0.43948932202695584 
3000.0000000000000 5000.0000000000000 -5000.0000000000000 -47079971.027791798 -20850462.830084134 -120422132.71506044 0.00050934264243913301 2.5702971783176504e-06 -0.00017193601902519594 2.7999999985905673 -1.9999999984552368 0.0000000000000000 
3000.0000000000000 4000.0000000000000 -5000.0000000000000 -47079971.032585762 -20850462.829318400 -120422132.73701389 0.00044845211687483024 0.00011945118633523380 -0.00020112486638091152 2.7999999985718893 -2.3999999983559608 0.0000000000000000 
3000.0000000000000 5000.0000000000000 -4666.6666666669998 -45355075.846064001 -19125567.648368105 -114306595.25311248 0.00047424889061402212 8.7254589205578521e-05 -0.00078081918411838740 2.7999999986126243 -1.9999999984808901 -0.86409968897004330 
3000.0000000000000 4000.0000000000000 -4666.6666666669998 -45355075.850175016 -19125567.647017654 -114306595.27261846 0.00041648330912194933 0.00056981799688720692 -0.00090083683067999074 2.7999999985955313 -2.3999999983833598 -0.86409968914278401 
3000.0000000000000 5000.0000000000000 -4500.0000000000000 -44205025.639137939 -17975517.441470690 -110229144.52013394 0.00043856051124559913 0.00020689285526442086 -0.0012611728477343385 2.7999999986382629 -1.9999999985108750 -1.2738297692946732 
3000.0000000000000 4000.0000000000000 -4500.0000000000000 -44205025.642834425 -17975517.439822521 -110229144.53812510 0.00038521660142473317 0.00094266854908529115 -0.0014402483304281691 2.7999999986226767 -2.3999999984150509 -1.2738297695447527 
3000.0000000000000 5000.0000000000000 -4333.3333333330002 -43054872.491661184 -16825364.294049952 -106151328.81636420 0.00039792472698999860 0.00036975085595628612 -0.0017888862601066014 2.7999999986718582 -1.9999999985504500 -1.6686782309811574 
3000.0000000000000 4000.0000000000000 -4333.3333333330002 -43054872.494979732 -16825364.292179082 -106151328.83293849 0.00035111223962515939 0.0013615568589887695 -0.0020217373929516959 2.7999999986579245 -2.3999999984565217 -1.6686782313029769 
3000.0000000000000 5000.0000000000000 -4166.6666666669998 -41904616.394407496 -15675108.196884731 -102073148.10907674 0.00035575916304574502 0.00056565241382468441 -0.0023486804430601521 2.7999999987122379 -1.9999999985984029 -2.0486437419801793 
3000.0000000000000 4000.0000000000000 -4166.6666666669998 -41904616.397384912 -15675108.194861474 -102073148.12432951 0.00031736429470971480 0.0018122834085991775 -0.0026281305884029754 2.7999999986999629 -2.3999999985063827 -2.0486437423684376 
3000.0000000000000 5000.0000000000000 -4000.0000000000000 -40754257.338146217 -14524749.140746148 -97994602.365525648 0.00031422237179262817 0.00078477949013472143 -0.0029263969076227703 2.7999999987583957 -1.9999999986536570 -2.4137249701297461 
3000.0000000000000 4000.0000000000000 -4000.0000000000000 -40754257.340818502 -14524749.138635509 -97994602.379548833 0.00028571696720333542 0.0022817965345336539 -0.0032446085129954599 2.7999999987477007 -2.3999999985634468 -2.4137249705794308 
3000.0000000000000 5000.0000000000000 -3833.3333333330002 -39603795.313652635 -13374287.116408423 -93915691.552983344 0.00027457501250043623 0.0010178683354864252 -0.0035093796572056358 2.7999999988095001 -1.9999999987152643 -2.7639205831415277 
3000.0000000000000 4000.0000000000000 -3833.3333333330002 -39603795.316054210 -13374287.114269834 -93915691.565864921 0.00025692888619657556 0.0027583011676152701 -0.0038586313473047934 2.7999999988002617 -2.3999999986267153 -2.7639205836478991 
3000.0000000000000 5000.0000000000000 -3666.6666666669998 -38453230.311702594 -12223722.114644095 -89836415.638722897 0.00023745963603148467 0.0012562879132627441 -0.0040865833891194454 2.7999999988648869 -1.9999999987823982 -3.0992292486080757 
3000.0000000000000 4000.0000000000000 -3666.6666666669998 -38453230.313865751 -12223722.112531379 -89836415.650546074 0.00023112257639383411 0.0032311732513023348 -0.0044596814137959880 2.7999999988569688 -2.3999999986953644 -3.0992292491666555 
3000.0000000000000 5000.0000000000000 -3500.0000000000000 -37302562.323066920 -11073054.126218941 -85756774.589999408 0.00020310166770747782 0.0014921546378794336 -0.0046484958539376019 2.7999999989240538 -1.9999999988543513 -3.4196496340084659 
3000.0000000000000 4000.0000000000000 -3500.0000000000000 -37302562.325021558 -11073054.124180561 -85756774.600842297 0.00020803281928211841 0.0036908942459071849 -0.0050390271358183103 2.7999999989173214 -2.3999999987687315 -3.4196496346150274 
3000.0000000000000 5000.0000000000000 -3333.3333333330002 -36151791.338521607 -9922283.1419025157 -81676768.374086753 0.00017145937726997738 0.0017183887094189424 -0.0051868828465073975 2.7999999989866460 -1.9999999989305246 -3.7251804066962388 
3000.0000000000000 4000.0000000000000 -3333.3333333330002 -36151791.340295009 -9922283.1399818771 -81676768.384021938 0.00018718676913296323 0.0041289877399830009 -0.0055892449291639126 2.7999999989809750 -2.3999999988462979 -3.7251804073467900 
3000.0000000000000 5000.0000000000000 -3166.6666666669998 -35000917.348842390 -8771409.1524631176 -77596396.958259076 0.00014232101342506281 0.0019287163770135352 -0.0056945451908088623 2.7999999990524405 -1.9999999990104198 -4.0158202339058233 
3000.0000000000000 4000.0000000000000 -3166.6666666669998 -35000917.350459196 -8771409.1506989542 -77596396.967353329 0.00016801023828007884 0.0045378861190064363 -0.0061039134301167676 2.7999999990477247 -2.3999999989276772 -4.0158202345965952 
3000.0000000000000 5000.0000000000000 -3000.0000000000000 -33849940.344799362 -7620432.1486626435 -73515660.309771925 0.00011538384173736030 0.0021176310517015393 -0.0061650317520007382 2.7999999991213325 -1.9999999990936315 -4.2915677827573759 
3000.0000000000000 4000.0000000000000 -3000.0000000000000 -33849940.346281707 -7620432.1470894543 -73515660.318086267 0.00014990320802373062 0.0049107617836485389 -0.0065772855340155397 2.7999999991174880 -2.3999999990125995 -4.2915677834848038 
3000.0000000000000 5000.0000000000000 -2833.3333333330002 -32698860.317167472 -6469352.1212671483 -69434558.395899311 9.0312773890068157e-05 0.0022803987079981084 -0.0065924068911619987 2.7999999991933251 -1.9999999991798383 -4.5524217202463149 
3000.0000000000000 4000.0000000000000 -2833.3333333330002 -32698860.318535037 -6469352.1199155580 -69434558.403488889 0.00013229494478690152 0.0052413913606732540 -0.0070040136441484923 2.7999999991902871 -2.3999999991009013 -4.5524217210070299 
3000.0000000000000 5000.0000000000000 -2666.6666666669998 -31547677.256721277 -5318169.0610417221 -65353091.183915041 6.6766587520410053e-05 0.0024130046596774054 -0.0069710068183474307 2.7999999992685187 -1.9999999992687931 -4.7983807132489611 
3000.0000000000000 4000.0000000000000 -2666.6666666669998 -31547677.257991470 -5318169.0599388843 -65353091.190829352 0.00011466971659100182 0.0055240830663907566 -0.0073789188622182533 2.7999999992662414 -2.3999999991925143 -4.7983807140397667 
3000.0000000000000 5000.0000000000000 -2500.0000000000000 -30396391.154229760 -4166882.9587453282 -61271258.641073972 4.4420674608583369e-05 0.0025121850805068695 -0.0072951991046595532 2.7999999993471025 -1.9999999993603166 -5.0294434285265517 
3000.0000000000000 4000.0000000000000 -2500.0000000000000 -30396391.155417956 -4166882.9579152302 -61271258.647357196 9.6579151405427514e-05 0.0057536102631713295 -0.0076967480218009194 2.7999999993455558 -2.3999999992874539 -5.0294434293444139 
3000.0000000000000 5000.0000000000000 -2333.3333333330002 -29245002.000466950 -3015493.8051413442 -57189060.734649196 2.2983617634821024e-05 0.0025753313867246776 -0.0075592404015421494 2.7999999994293465 -1.9999999994542856 -5.2456085327163953 
3000.0000000000000 4000.0000000000000 -2333.3333333330002 -29245002.001586597 -3015493.8046049988 -57189060.740340307 7.7653654735115825e-05 0.0059250316107448426 -0.0079520524307196278 2.7999999994285139 -2.3999999993858094 -5.2456085335584257 
3000.0000000000000 5000.0000000000000 -2166.6666666669998 -28093509.786206827 -1864001.5909923601 -53106497.431913316 2.1937493759050394e-06 0.0026004635207874417 -0.0077570639257681182 2.7999999995155984 -1.9999999995506264 -5.4468746923366984 
3000.0000000000000 4000.0000000000000 -2166.6666666669998 -28093509.787269682 -1864001.5907680148 -53106497.437046684 5.7600430896037178e-05 0.0060336493671853224 -0.0081389901096800606 2.7999999995154727 -2.3999999994877399 -5.4468746932001375 
3000.0000000000000 5000.0000000000000 -2000.0000000000000 -26941914.502218217 -712406.30705500045 -49023568.700119875 -1.8183204207010488e-05 0.0025863206949818525 -0.0078821033321295926 2.7999999996062792 -1.9999999996493076 -5.6332405737897764 
3000.0000000000000 4000.0000000000000 -2000.0000000000000 -26941914.503234573 -712406.30715821858 -49023568.704725802 3.6199730381523162e-05 0.0060750443255485785 -0.0082511778947635325 2.7999999996068614 -2.3999999995934616 -5.6332405746719880 
3000.0000000000000 5000.0000000000000 -1833.3333333329999 -25790216.139275480 439292.05590964161 -44940274.506540164 -3.8364531365021835e-05 0.0025322984471566490 -0.0079271845362219404 2.7999999997018827 -1.9999999997503299 -5.8047048433548127 
3000.0000000000000 4000.0000000000000 -1833.3333333329999 -25790216.140254248 439292.05546604260 -44940274.510645323 1.3294744481490079e-05 0.0060449723786521435 -0.0082816069354761657 2.7999999997031786 -2.3999999997032435 -5.8047048442532736 
3000.0000000000000 5000.0000000000000 -1666.6666666670001 -24638414.688153509 1591093.5071411806 -40856614.818444818 -5.8574529199719140e-05 0.0024384493350119198 -0.0078843799345192367 2.7999999998029712 -1.9999999998537219 -5.9612661671918792 
3000.0000000000000 4000.0000000000000 -1666.6666666670001 -24638414.689102389 1591093.5063472607 -40856614.822072841 -1.1232201897693332e-05 0.0059393434543378735 -0.0082224645123426723 2.7999999998049905 -2.3999999998174011 -5.9612661681041654 
9000.0000000000000 3000.0000000000000 -4833.3333333330002 -46505023.131624788 -20275514.938842285 -118383681.17735085 0.00013368632484628740 0.00047390332547166787 2.2892799387076787e-05 0.39999999963227506 -2.7999999984265491 -0.43948932249044098 
9000.0000000000000 3000.0000000000000 -5000.0000000000000 -47079971.039189301 -20850462.846441738 -120422132.84997569 0.00013697560719607072 0.00022592482119904522 1.6245678826203373e-05 0.39999999962972743 -2.7999999984194308 0.0000000000000000 
9000.0000000000000 3000.0000000000000 -4666.6666666669998 -45355075.853374563 -19125567.660498012 -114306595.37164684 0.00012559932464690479 0.0010074351980881781 2.0986168144442169e-05 0.39999999963941540 -2.7999999984466153 -0.86409969003297438 
9000.0000000000000 3000.0000000000000 -4500.0000000000000 -44205025.644242674 -17975517.451234356 -110229144.62864508 0.00011617490281688899 0.0016044000628606771 -4.3293884730372606e-06 0.39999999965020189 -2.7999999984773072 -1.2738297708270483 
9000.0000000000000 3000.0000000000000 -4333.3333333330002 -43054872.494959146 -16825364.301798519 -106151328.91558383 0.00010794157767586818 0.0022437510325739010 -4.0950916962167552e-05 0.39999999966382183 -2.7999999985167543 -1.6686782329449410 
9000.0000000000000 3000.0000000000000 -4166.6666666669998 -41904616.396259919 -15675108.202936830 -102073148.19969851 0.00010205027259815674 0.0029085775665526428 -8.0291554862674600e-05 0.39999999967961125 -2.7999999985634711 -2.0486437443397469 
9000.0000000000000 3000.0000000000000 -4000.0000000000000 -40754257.338880070 -14524749.145390486 -97994602.448204637 9.8776708958148689e-05 0.0035850484533868471 -0.00011673488011690995 0.39999999969704392 -2.7999999986162831 -2.4137249728517962 
9000.0000000000000 3000.0000000000000 -3833.3333333330002 -39603795.313562967 -13374287.119906399 -93915691.628335148 9.7882085950755420e-05 0.0042616525049089882 -0.00014696828746174555 0.39999999971570677 -2.7999999986742838 -2.7639205861949723 
9000.0000000000000 3000.0000000000000 -3666.6666666669998 -38453230.311054453 -12223722.117232291 -89836415.707322955 9.8848887273883556e-05 0.0049285582374718586 -0.00016933919825985578 0.39999999973527883 -2.7999999987367876 -3.0992292519639149 
9000.0000000000000 3000.0000000000000 -3500.0000000000000 -37302562.322097160 -11073054.128111674 -85756774.652382880 0.00010103896038793967 0.0055771357530928593 -0.00018335799969615557 0.39999999975551009 -2.7999999988033011 -3.4196496376396626 
9000.0000000000000 3000.0000000000000 -3333.3333333330002 -36151791.337440513 -9922283.1432942189 -81676768.430748656 0.00010379356707555474 0.0061996021867366463 -0.00018931115900769563 0.39999999977620315 -2.7999999988734916 -3.7251804105775861 
9000.0000000000000 3000.0000000000000 -3166.6666666669998 -35000917.347835399 -8771409.1535306126 -77596397.009655207 0.00010648883979950393 0.0067887161426508531 -0.00018797792914871731 0.39999999979720025 -2.7999999989471687 -4.0158202380138119 
9000.0000000000000 3000.0000000000000 -3000.0000000000000 -33849940.344028719 -7620432.1495672259 -73515660.356320202 0.00010856555629938117 0.0073375328254725175 -0.00018042031933419893 0.39999999981837175 -2.7999999990242652 -4.2915677870700648 
9000.0000000000000 3000.0000000000000 -2833.3333333330002 -32698860.316773620 -6469352.1221564226 -69434558.437981009 0.00010953898808533415 0.0078392032656479961 -0.00016785705723159304 0.39999999983960921 -2.7999999991048230 -4.5524217247432013 
9000.0000000000000 3000.0000000000000 -2666.6666666669998 -31547677.256824248 -5318169.0620512497 -65353091.221876562 0.00010900119506420427 0.0082868219507029779 -0.00015157908353855232 0.39999999986081836 -2.7999999991889841 -4.7983807179108569 
9000.0000000000000 3000.0000000000000 -2500.0000000000000 -30396391.154930465 -4166882.9600001518 -61271258.675229117 0.00010662416025572082 0.0086732609734142454 -0.00013289033257699820 0.39999999988191576 -2.7999999992769804 -5.0294434333354721 
9000.0000000000000 3000.0000000000000 -2333.3333333330002 -29245002.001848113 -3015493.8067571437 -57189060.765281007 0.00010214570613402955 0.0089910564460800261 -0.00011309645356342560 0.39999999990282664 -2.7999999993691258 -5.2456085376554489 
9000.0000000000000 3000.0000000000000 -2166.6666666669998 -28093509.788333729 -1864001.5930764643 -53106497.459276281 9.5360607724639569e-05 0.0092323209784107019 -9.3467975090036917e-05 0.39999999992348251 -2.7999999994658147 -5.4468746973899904 
9000.0000000000000 3000.0000000000000 -2000.0000000000000 -26941914.505139433 -712406.30970731378 -49023568.724442825 8.6114132242477232e-05 0.0093885639121429991 -7.5218636355657009e-05 0.39999999994382046 -2.7999999995675142 -5.6332405789423268 
9000.0000000000000 3000.0000000000000 -1833.3333333329999 -25790216.143023096 439292.05259606312 -44940274.528028712 7.4288188020330673e-05 0.0094506531073568472 -5.9491147292169005e-05 0.39999999996378482 -2.7999999996747671 -5.8047048485924808 
9000.0000000000000 3000.0000000000000 -1666.6666666670001 -24638414.692743152 1591093.5030797382 -40856614.837284006 5.9781808036597887e-05 0.0094087581912679213 -4.7300982374149568e-05 0.39999999998332786 -2.7999999997881853 -5.9612661725013103 
7.2332027070000006e-30 3000.0000000000000 -4833.3333333330002 -46505023.136622727 -20275514.912801303 -118383681.05114114 3.9839986387315695e-06 0.00044658234718691057 -8.5619353914992549e-05 4.0000000000000000 -2.7999999984708355 -0.43948932194352935 
1000.0000000000000 3000.0000000000000 -4833.3333333330002 -46505023.135844916 -20275514.913870815 -118383681.05634877 5.2188133364337547e-05 0.00043777381551005074 -0.00023080020138199590 3.5999999993863954 -2.7999999984717334 -0.43948932196353324 
0.0000000000000000 3000.0000000000000 -5000.0000000000000 -47079971.042743549 -20850462.818807974 -120422132.71794239 -7.3822392799716960e-07 0.00021256177947901302 -3.9325524958146879e-05 4.0000000000000000 -2.7999999984637611 0.0000000000000000 
1000.0000000000000 3000.0000000000000 -5000.0000000000000 -47079971.042040542 -20850462.819961712 -120422132.72343862 4.8160883973598435e-05 0.00020839396080494125 -0.00010957641201438280 3.5999999993837104 -2.7999999984649628 0.0000000000000000 
0.0000000000000000 3000.0000000000000 -4666.6666666669998 -45355075.860926360 -19125567.637432221 -114306595.25648624 1.5167610699692448e-05 0.00095094894183375201 -0.00019111100682010884 4.0000000000000000 -2.7999999984906991 -0.86409968898456635 
1000.0000000000000 3000.0000000000000 -4666.6666666669998 -45355075.860022664 -19125567.638351999 -114306595.26119074 6.1635574356128971e-05 0.00093285407205451144 -0.00049364949292447389 3.5999999993937983 -2.7999999984909256 -0.86409968902233569 
0.0000000000000000 3000.0000000000000 -4500.0000000000000 -44205025.653736614 -17975517.430750426 -110229144.52340223 2.7242384735880979e-05 0.0015164687464019400 -0.00032068120283078604 4.0000000000000000 -2.7999999985209363 -1.2738297693179585 
1000.0000000000000 3000.0000000000000 -4500.0000000000000 -44205025.652746268 -17975517.431553721 -110229144.52773397 7.1582653700512280e-05 0.0014902078715080295 -0.00079237693306216314 3.5999999994048077 -2.7999999985204838 -1.2738297693722418 
0.0000000000000000 3000.0000000000000 -4333.3333333330002 -43054872.505881026 -16825364.283552654 -106151328.81924611 3.6564287807707006e-05 0.0021226125704935229 -0.00047125754863198901 4.0000000000000000 -2.7999999985596649 -1.6686782310119250 
1000.0000000000000 3000.0000000000000 -4333.3333333330002 -43054872.504830688 -16825364.284266155 -106151328.82330585 7.8808056498828275e-05 0.0020906266242092463 -0.0011183604579993660 3.5999999994186389 -2.7999999985586892 -1.6686782310821369 
0.0000000000000000 3000.0000000000000 -4166.6666666669998 -41904616.408171907 -15675108.186627138 -102073148.11135837 4.1865519879921156e-05 0.0027531737716982472 -0.00064032356835201578 4.0000000000000000 -2.7999999986054194 -2.0486437420159334 
1000.0000000000000 3000.0000000000000 -4166.6666666669998 -41904616.407080993 -15675108.187272929 -102073148.11522499 8.2199045288319214e-05 0.0027178734722775270 -0.0014649723299967703 3.5999999994347363 -2.7999999986041280 -2.0486437421019605 
0.0000000000000000 3000.0000000000000 -4000.0000000000000 -40754257.351406440 -14524749.130752373 -97994602.367053509 4.3163688129197497e-05 0.0033950661283832940 -0.00082543541225149847 4.0000000000000000 -2.7999999986570616 -2.4137249701671011 
1000.0000000000000 3000.0000000000000 -4000.0000000000000 -40754257.350289620 -14524749.131348306 -97994602.370786592 8.1796617852210774e-05 0.0033582506605922611 -0.0018267662382898192 3.5999999994527130 -2.7999999986556565 -2.4137249702691399 
5.6604683390000002e-31 3000.0000000000000 -3833.3333333330002 -39603795.326378457 -13374287.106707819 -93915691.553654864 4.1103370742610551e-05 0.0040373978729953894 -0.0010241353725766208 4.0000000000000000 -2.7999999987137167 -2.7639205831764944 
1000.0000000000000 3000.0000000000000 -3833.3333333330002 -39603795.325247526 -13374287.107268166 -93915691.557298183 7.8205330070819744e-05 0.0040000658470214986 -0.0021991169264912887 3.5999999994723066 -2.7999999987123632 -2.7639205832949085 
6.4691066730000002e-31 3000.0000000000000 -3666.6666666669998 -38453230.323874332 -12223722.105268857 -89836415.638474613 3.6561357906856663e-05 0.0046708083611197108 -0.0012338467612160488 4.0000000000000000 -2.7999999987747248 -3.0992292486362807 
1000.0000000000000 3000.0000000000000 -3666.6666666669998 -38453230.322739676 -12223722.105805200 -89836415.642060354 7.2235108599706947e-05 0.0046331998622032569 -0.0025778293007719167 3.5999999994933498 -2.7999999987735467 -3.0992292487715152 
0.0000000000000000 3000.0000000000000 -3500.0000000000000 -37302562.334669434 -11073054.117202710 -85756774.588797927 3.0417008679046011e-05 0.0052870466309312657 -0.0014519174485829994 4.0000000000000000 -2.7999999988396076 -3.4196496340253155 
1000.0000000000000 3000.0000000000000 -3500.0000000000000 -37302562.333540887 -11073054.117724517 -85756774.592349544 6.4705527244271013e-05 0.0052487945813759034 -0.0029589978761985773 3.5999999995157519 -2.7999999988386821 -3.4196496341778380 
0.0000000000000000 3000.0000000000000 -3333.3333333330002 -36151791.349539824 -9922283.1332796235 -81676768.371922016 2.3448065934190284e-05 0.0058786461842005120 -0.0016756916670147520 4.0000000000000000 -2.7999999989080377 -3.7251804066970453 
1000.0000000000000 3000.0000000000000 -3333.3333333330002 -36151791.348427236 -9922283.1337947007 -81676768.375456393 5.6341319891390153e-05 0.0058389664675554450 -0.0033388979364720084 3.5999999995394782 -2.7999999989074063 -3.7251804068673100 
-3.2380848400000000e-29 3000.0000000000000 -3166.6666666669998 -35000917.359257802 -8771409.1442681458 -77596396.955139071 1.6297066648818968e-05 0.0064385999478141810 -0.0019023694588465485 4.0000000000000000 -2.7999999989798221 -4.0158202338859041 
1000.0000000000000 3000.0000000000000 -3166.6666666669998 -35000917.358171396 -8771409.1447829865 -77596396.958667934 4.7733840510322053e-05 0.0063964808873673111 -0.0037137467643647399 3.5999999995645564 -2.7999999989794939 -4.0158202340743321 
0.0000000000000000 3000.0000000000000 -3000.0000000000000 -33849940.354587339 -7620432.1409303294 -73515660.305719197 9.4675788529677484e-06 0.0069601496264013480 -0.0021290921989676930 4.0000000000000000 -2.7999999990548852 -4.2915677827121330 
1000.0000000000000 3000.0000000000000 -3000.0000000000000 -33849940.353538081 -7620432.1414503539 -73515660.309250057 3.9345683648002246e-05 0.0069145214334260770 -0.0040796781196463863 3.5999999995910583 -2.7999999990548443 -4.2915677829190964 
0.0000000000000000 3000.0000000000000 -2833.3333333330002 -32698860.326294962 -6469352.1140324157 -69434558.390948489 3.3286034243470509e-06 0.0074366700892790280 -0.0023529672837490989 4.0000000000000000 -2.7999999991332545 -4.5524217201713020 
1000.0000000000000 3000.0000000000000 -2833.3333333330002 -32698860.325294815 -6469352.1145621901 -69434558.394485146 3.1509448594088213e-05 0.0073865074651071703 -0.0044326856475627252 3.5999999996191043 -2.7999999991334685 -4.5524217203971213 
-6.3602258699999998e-29 3000.0000000000000 -2666.6666666669998 -31547677.265144847 -5318169.0543397944 -65353091.178111404 -1.8716095545675118e-06 0.0078615701981684105 -0.0025709307589621847 4.0000000000000000 -2.7999999992150535 -4.7983807131399434 
1000.0000000000000 3000.0000000000000 -2666.6666666669998 -31547677.264207087 -5318169.0548831895 -65353091.181654267 2.4437115757969884e-05 0.0078059757044494577 -0.0047684729540040252 3.5999999996488614 -2.7999999992154767 -4.7983807133848737 
-6.8145277199999996e-29 3000.0000000000000 -2500.0000000000000 -30396391.161893800 -4166882.9526118962 -61271258.634472944 -5.9761229301715413e-06 0.0082280034274141989 -0.0027796567983398076 4.0000000000000000 -2.7999999993004909 -5.0294434283795688 
1000.0000000000000 3000.0000000000000 -2500.0000000000000 -30396391.161033344 -4166882.9531722204 -61271258.638019070 1.8246797635538163e-05 0.0081663263762152272 -0.0050822972098971053 3.5999999996805405 -2.7999999993010714 -5.0294434286437903 
0.0000000000000000 3000.0000000000000 -2333.3333333330002 -29245002.007301830 -3015493.7996127158 -57189060.727316588 -8.9110226634775890e-06 0.0085288000180341085 -0.0029755562039113729 4.0000000000000000 -2.7999999993898577 -5.2456085325278234 
1000.0000000000000 3000.0000000000000 -2333.3333333330002 -29245002.006535605 -3015493.8001928078 -57189060.730859563 1.2969476886851420e-05 0.0084606901265169617 -0.0053689118723379906 3.5999999997143983 -2.7999999993905367 -5.2456085328114277 
-4.8621958700000000e-29 3000.0000000000000 -2166.6666666669998 -28093509.792126894 -1864001.5861054412 -53106497.423925757 -1.0683612677932469e-05 0.0087564928052808640 -0.0031546607512910677 4.0000000000000000 -2.7999999994835214 -5.4468746921033180 
1000.0000000000000 3000.0000000000000 -2166.6666666669998 -28093509.791474283 -1864001.5867078025 -53106497.427455582 8.5545051073996556e-06 0.0086818956411643441 -0.0056223861207734035 3.5999999997507421 -2.7999999994842417 -5.4468746924062952 
0.0000000000000000 3000.0000000000000 -2000.0000000000000 -26941914.507119760 -712406.30284731346 -49023568.691566378 -1.1371847776255618e-05 0.0089030855759598074 -0.0033124458959619524 4.0000000000000000 -2.7999999995819209 -5.6332405735088527 
1000.0000000000000 3000.0000000000000 -2000.0000000000000 -26941914.506603077 -712406.30347418948 -49023568.695069127 4.8774239970805721e-06 0.0088222492504685286 -0.0058359487599372066 3.5999999997899290 -2.7999999995826270 -5.6332405738310687 
0.0000000000000000 3000.0000000000000 -1833.3333333329999 -25790216.143034257 439292.05940012529 -44940274.497523971 -1.1114794105442970e-05 0.0089599721698395453 -0.0034437463615827404 4.0000000000000000 -2.7999999996855669 -5.8047048430241928 
1000.0000000000000 3000.0000000000000 -1833.3333333329999 -25790216.142679289 439292.05874672718 -44940274.500981204 1.7407221355376911e-06 0.0088734680275251113 -0.0060017912638614902 3.5999999998323697 -2.7999999996862077 -5.8047048433653705 
0.0000000000000000 3000.0000000000000 -1666.6666666670001 -24638414.690621763 1591093.5098764929 -40856614.809085198 -1.0106894327140458e-05 0.0089179221772923423 -0.0035426534546001759 4.0000000000000000 -2.7999999997950393 -5.9612661668100966 
1000.0000000000000 3000.0000000000000 -1666.6666666670001 -24638414.690458510 1591093.5091946551 -40856614.812473819 -1.1140809125552503e-06 0.0088266041384518698 -0.0061109037986294542 3.5999999998785381 -2.7999999997955736 -5.9612661671697760 
3000.0000000000000 8000.0000000000000 -4833.3333333330002 -46505023.113093518 -20275514.921167016 -118383681.01343076 0.00025554236876588170 -0.00023832368774523042 -0.00024462910341226330 2.7999999986400068 -0.79999999933353094 -0.43948932180133843 
2000.0000000000000 8000.0000000000000 -4833.3333333330002 -46505023.115348428 -20275514.917466704 -118383680.99487159 0.00012559976985991909 -0.00024425662067370827 -0.00043786506248143833 3.1999999989085408 -0.79999999934094279 -0.43948932172792776 
3000.0000000000000 8000.0000000000000 -5000.0000000000000 -47079971.018817119 -20850462.826919127 -120422132.67905416 0.00025977237406478497 -0.00012195889680451025 -0.00011345066607902412 2.7999999986352861 -0.79999999933068888 0.0000000000000000 
2000.0000000000000 8000.0000000000000 -5000.0000000000000 -47079971.020877130 -20850462.823028550 -120422132.65983200 0.00012622457034839216 -0.00012471874190490156 -0.00020902453170536746 3.1999999989036527 -0.79999999933824262 0.0000000000000000 
3000.0000000000000 8000.0000000000000 -4666.6666666669998 -45355075.838279709 -19125567.646273546 -114306595.22128846 0.00024393864832390012 -0.00045999417661612599 -0.00054180335589751566 2.7999999986538460 -0.79999999934181032 -0.86409968870814180 
2000.0000000000000 8000.0000000000000 -4666.6666666669998 -45355075.840898469 -19125567.642933764 -114306595.20398489 0.00012373616459313081 -0.00047281622464135059 -0.00092879078731332551 3.1999999989222419 -0.79999999934885069 -0.86409968856346275 
3000.0000000000000 8000.0000000000000 -4500.0000000000000 -44205025.632112488 -17975517.439988349 -110229144.49098155 0.00022722671864972970 -0.00065988583592621174 -0.00090551873239556218 2.7999999986760611 -0.79999999935503852 -1.2738297689169922 
2000.0000000000000 8000.0000000000000 -4500.0000000000000 -44205025.635032773 -17975517.436966944 -110229144.47479545 0.00012067484692817033 -0.00068021432464446913 -0.0014747613474388813 3.1999999989429990 -0.79999999936156962 -1.2738297687033280 
3000.0000000000000 8000.0000000000000 -4333.3333333330002 -43054872.485358194 -16825364.293090254 -106151328.78978160 0.00020743172356610569 -0.00083887189936523998 -0.0013273615279335285 2.7999999987057773 -0.79999999937273847 -1.6686782304973578 
2000.0000000000000 8000.0000000000000 -4333.3333333330002 -43054872.488505706 -16825364.290343672 -106151328.77458362 0.00011649117589363281 -0.00086659857866016004 -0.0020552681850024576 3.1999999989693788 -0.79999999937868282 -1.6686782302170609 
3000.0000000000000 8000.0000000000000 -4166.6666666669998 -41904616.388786040 -15675108.196357965 -102073148.08495985 0.00018600712648171190 -0.00099817217422052567 -0.0017957748926722837 2.7999999987421180 -0.79999999939444644 -2.0486437413995957 
2000.0000000000000 8000.0000000000000 -4166.6666666669998 -41904616.392087042 -15675108.193844855 -102073148.07063243 0.00011128869779587362 -0.0010327748413372336 -0.0026542537197710085 3.1999999990002674 -0.79999999939976896 -2.0486437410550646 
3000.0000000000000 8000.0000000000000 -4000.0000000000000 -40754257.333162509 -14524749.140564609 -97994602.343768016 0.00016399404023928883 -0.0011392281578246504 -0.0022981936760423233 2.7999999987842688 -0.79999999941971689 -2.4137249694613945 
2000.0000000000000 8000.0000000000000 -4000.0000000000000 -40754257.336548701 -14524749.138246654 -97994602.330203578 0.00010519826360373432 -0.0011799541024888824 -0.0032594047136335672 3.1999999990348256 -0.79999999942440969 -2.4137249690550227 
3000.0000000000000 8000.0000000000000 -3833.3333333330002 -39603795.309261434 -13374287.116488278 -93915691.533476263 0.00014213399445176813 -0.0012636018101753691 -0.0028222056238640146 2.7999999988315150 -0.79999999944812350 -2.7639205823941015 
2000.0000000000000 8000.0000000000000 -3833.3333333330002 -39603795.312671728 -13374287.114330549 -93915691.520576686 9.8370075864599293e-05 -0.0013096027323618970 -0.0038614060397818865 3.1999999990724430 -0.79999999945219724 -2.7639205819282049 
3000.0000000000000 8000.0000000000000 -3666.6666666669998 -38453230.307858385 -12223722.114906918 -89836415.621355608 0.00012094555726953419 -0.0013728942318297827 -0.0033561167068824073 2.7999999988832660 -0.79999999947926081 -3.0992292477899452 
2000.0000000000000 8000.0000000000000 -3666.6666666669998 -38453230.311239019 -12223722.112878174 -89836415.609033078 9.0956098884954303e-05 -0.0014232977813319900 -0.0044531125136034917 3.1999999991127086 -0.79999999948273826 -3.0992292472667131 
3000.0000000000000 8000.0000000000000 -3500.0000000000000 -37302562.319724917 -11073054.126593053 -85756774.574659646 0.00010078394098477903 -0.0014686622658734978 -0.0038892480058152429 2.7999999989390565 -0.79999999951274603 -3.4196496331276625 
2000.0000000000000 8000.0000000000000 -3500.0000000000000 -37302562.323028475 -11073054.124665653 -85756774.562836930 8.3109673399824421e-05 -0.0015226086417638844 -0.0050288567695632707 3.1999999991553691 -0.79999999951565826 -3.4196496325491355 
3000.0000000000000 8000.0000000000000 -3333.3333333330002 -36151791.335638382 -9922283.1423240080 -81676768.360661060 8.1881947743030388e-05 -0.0015523398106426960 -0.0044119977426305586 2.7999999989985445 -0.79999999954821832 -3.7251804057604438 
2000.0000000000000 8000.0000000000000 -3333.3333333330002 -36151791.338822395 -9922283.1404736638 -81676768.349271625 7.4972975104412593e-05 -0.0016090132715928050 -0.0055839065456712005 3.1999999992003016 -0.79999999955060119 -3.7251804051285018 
3000.0000000000000 8000.0000000000000 -3166.6666666669998 -35000917.346376397 -8771409.1528766397 -77596396.946633160 6.4377159647903266e-05 -0.0016251730980754895 -0.0049155991540958434 2.7999999990615092 -0.79999999958533974 -4.0158202329223522 
2000.0000000000000 8000.0000000000000 -3166.6666666669998 -35000917.349401817 -8771409.1510821078 -77596396.935621127 6.6664649361648231e-05 -0.0016838196181328325 -0.0061139112307660379 3.1999999992474986 -0.79999999958723222 -4.0158202322387240 
3000.0000000000000 8000.0000000000000 -3000.0000000000000 -33849940.342711352 -7620432.1490220763 -73515660.299831077 4.8337923406052470e-05 -0.0016881863992918996 -0.0053920577419110148 2.7999999991278375 -0.79999999962379365 -4.2915677817331632 
2000.0000000000000 8000.0000000000000 -3000.0000000000000 -33849940.345541075 -7620432.1472648075 -73515660.289151073 5.8289676185293315e-05 -0.0017481214786345927 -0.0066146647924905802 3.1999999992970385 -0.79999999962523549 -4.2915677809994426 
3000.0000000000000 8000.0000000000000 -2833.3333333330002 -32698860.315420635 -6469352.1215360789 -69434558.387528628 3.3771209682060336e-05 -0.0017421243812246368 -0.0058339771588375045 2.7999999991975173 -0.79999999966328328 -4.5524217191878966 
2000.0000000000000 8000.0000000000000 -2833.3333333330002 -32698860.318018116 -6469352.1197998850 -69434558.377145499 4.9927787758677901e-05 -0.0018027340598237808 -0.0070817751983838816 3.1999999993490880 -0.79999999966431456 -4.5524217184055624 
3000.0000000000000 8000.0000000000000 -2666.6666666669998 -31547677.255281430 -5318169.0611938667 -65353091.176999591 2.0630830880175972e-05 -0.0017874192493779308 -0.0062342116058168064 2.7999999992706304 -0.79999999970353108 -4.7983807121624524 
2000.0000000000000 8000.0000000000000 -2666.6666666669998 -31547677.257609461 -5318169.0594646595 -65353091.166888326 4.1627774394570102e-05 -0.0018481599820255367 -0.0075104193456437748 3.1999999994038828 -0.79999999970419033 -4.7983807113329142 
3000.0000000000000 8000.0000000000000 -2500.0000000000000 -30396391.153065458 -4166882.9587648883 -61271258.635499075 8.8336571388024019e-06 -0.0018241611225030552 -0.0065857939035988871 2.7999999993473454 -0.79999999974427549 -5.0294434274176405 
2000.0000000000000 8000.0000000000000 -2500.0000000000000 -30396391.155085023 -4166882.9570304342 -61271258.625644848 3.3417419815073813e-05 -0.0018845579215881643 -0.0078952231712503679 3.1999999994617281 -0.79999999974459890 -5.0294434265422572 
3000.0000000000000 8000.0000000000000 -2333.3333333330002 -29245001.999549437 -3015493.8050232544 -57189060.730300069 -1.7401641005119894e-06 -0.0018520691814064222 -0.0068817639407988008 2.7999999994279103 -0.79999999978526926 -5.2456085315903165 
2000.0000000000000 8000.0000000000000 -2333.3333333330002 -29245002.001218654 -3015493.8032729351 -57189060.720698148 2.5301032085301938e-05 -0.0019116999954058324 -0.0082300392711029246 3.1999999995229973 -0.79999999978529002 -5.2456085306704514 
3000.0000000000000 8000.0000000000000 -2166.6666666669998 -28093509.785510041 -1864001.5907426425 -53106497.428675100 -1.1249998268201934e-05 -0.0018704488868428561 -0.0071149243743203333 2.7999999995126470 -0.79999999982627656 -5.4468746911982189 
2000.0000000000000 8000.0000000000000 -2166.6666666669998 -28093509.786783125 -1864001.5889672607 -53106497.419330917 1.7254809232291956e-05 -0.0019289522132033084 -0.0085077813050786801 3.1999999995881252 -0.79999999982602343 -5.4468746902352754 
3000.0000000000000 8000.0000000000000 -2000.0000000000000 -26941914.501718812 -712406.30669110909 -49023568.697877392 -1.9887425818269881e-05 -0.0018781924169178506 -0.0072777417347879630 2.7999999996019538 -0.79999999986706982 -5.6332405726431753 
2000.0000000000000 8000.0000000000000 -2000.0000000000000 -26941914.502545070 -712406.30488272896 -49023568.688806742 9.2311021813143201e-06 -0.0019352458138021612 -0.0087202880551876943 3.1999999996576176 -0.79999999986656600 -5.6332405716386527 
3000.0000000000000 8000.0000000000000 -1833.3333333329999 -25790216.138952862 439292.05635836674 -44940274.505177818 -2.7875586992758128e-05 -0.0018737617090713908 -0.0073622141991494805 2.7999999996962903 -0.79999999990742676 -5.8047048422038676 
2000.0000000000000 8000.0000000000000 -1833.3333333329999 -25790216.139275685 439292.05820655590 -44940274.496407233 1.1626204133133778e-06 -0.0019290548083333214 -0.0088581308019491777 3.1999999997320541 -0.79999999990668857 -5.8047048411594062 
3000.0000000000000 8000.0000000000000 -1666.6666666670001 -24638414.687989827 1591093.5076330211 -40856614.817846157 -3.5474356012764766e-05 -0.0018551405506447385 -0.0073596877636977554 2.7999999997961882 -0.79999999994712578 -5.9612661660398327 
2000.0000000000000 8000.0000000000000 -1666.6666666670001 -24638414.687745675 1591093.5095268232 -40856614.809413314 -7.0414925053666599e-06 -0.0019083734366634770 -0.0089103285685775656 3.1999999998120887 -0.79999999994616289 -5.9612661649572836 
3000.0000000000000 9000.0000000000000 -4833.3333333330002 -46505023.111996427 -20275514.920105390 -118383681.00979140 0.00013151860090483141 -0.00014058768026341132 -0.00023130133679589310 2.7999999986467081 -0.39999999966858463 -0.43948932178856431 
3000.0000000000000 10000.000000000000 -4833.3333333330002 -46505023.111641876 -20275514.919710390 -118383681.00867695 6.7210632392945371e-05 -7.5854376239929412e-05 -0.00022699595163971562 2.7999999986490107 0.0000000000000000 -0.43948932178478434 
4000.0000000000000 10000.000000000000 -4833.3333333330002 -46505023.110122114 -20275514.923537701 -118383681.02682057 6.8926561457543351e-05 -7.3207148335611351e-05 -0.00019641188133333291 2.3999999985428202 0.0000000000000000 -0.43948932185722606 
3000.0000000000000 9000.0000000000000 -5000.0000000000000 -47079971.017671369 -20850462.825809877 -120422132.67524710 0.00013371765117954978 -7.1647222605507893e-05 -0.00010683266053998932 2.7999999986421322 -0.39999999966717253 0.0000000000000000 
3000.0000000000000 10000.000000000000 -5000.0000000000000 -47079971.017301217 -20850462.825399421 -120422132.67407928 6.8376988082698273e-05 -3.8600436983725168e-05 -0.00010469571617897116 2.7999999986444863 0.0000000000000000 0.0000000000000000 
4000.0000000000000 10000.000000000000 -5000.0000000000000 -47079971.015935168 -20850462.829371922 -120422132.69271690 6.9915790060817967e-05 -3.7322590582289913e-05 -9.2102308034914599e-05 2.3999999985370635 0.0000000000000000 0.0000000000000000 
3000.0000000000000 9000.0000000000000 -4666.6666666669998 -45355075.837280102 -19125567.645305991 -114306595.21798123 0.00012549259502410426 -0.00027302829562428485 -0.00051514192380930129 2.7999999986601760 -0.39999999967270444 -0.86409968868378262 
3000.0000000000000 10000.000000000000 -4666.6666666669998 -45355075.836956933 -19125567.644941840 -114306595.21697266 6.4028018915648755e-05 -0.00014765117653245082 -0.00050654837621091995 2.7999999986623436 0.0000000000000000 -0.86409968867660114 
4000.0000000000000 10000.000000000000 -4666.6666666669998 -45355075.835134648 -19125567.648483224 -114306595.23415303 6.6150537680714807e-05 -0.00014215309608616266 -0.00042793442737914991 2.3999999985593647 0.0000000000000000 -0.86409968881866717 
3000.0000000000000 9000.0000000000000 -4500.0000000000000 -44205025.631210119 -17975517.439111803 -110229144.48799975 0.00011682656275483397 -0.00039460461819524955 -0.00086617521319445597 2.7999999986818844 -0.39999999967929967 -1.2738297688822107 
3000.0000000000000 10000.000000000000 -4500.0000000000000 -44205025.630918510 -17975517.438778095 -110229144.48709515 5.9482921699675042e-05 -0.00021399558408613821 -0.00085354916824608123 2.7999999986838713 0.0000000000000000 -1.2738297688719959 
4000.0000000000000 10000.000000000000 -4500.0000000000000 -44205025.628815942 -17975517.442045860 -110229144.50336161 6.2012116951371820e-05 -0.00020556205888944270 -0.00070195964953933447 2.3999999985853639 0.0000000000000000 -1.2738297690810603 
3000.0000000000000 9000.0000000000000 -4333.3333333330002 -43054872.484551728 -16825364.292300358 -106151328.78711782 0.00010657102976695964 -0.00050545310185980629 -0.0012766935514081316 2.7999999987110247 -0.39999999968814015 -1.6686782304532888 
3000.0000000000000 10000.000000000000 -4333.3333333330002 -43054872.484291494 -16825364.291996207 -106151328.78631505 5.4139591395693055e-05 -0.00027488553339032106 -0.0012605238347743537 2.7999999987128064 0.0000000000000000 -1.6686782304403984 
4000.0000000000000 10000.000000000000 -4333.3333333330002 -43054872.481950313 -16825364.295007948 -106151328.80171597 5.6938906842847819e-05 -0.00026365906285080769 -0.0010117357301621416 2.3999999986196876 0.0000000000000000 -1.6686782307139512 
3000.0000000000000 9000.0000000000000 -4166.6666666669998 -41904616.388073198 -15675108.195649460 -102073148.08260579 9.5470855658473064e-05 -0.00060590243011595486 -0.0017354980806641787 2.7999999987467588 -0.39999999969899969 -2.0486437413473451 
3000.0000000000000 10000.000000000000 -4166.6666666669998 -41904616.387843758 -15675108.195373617 -102073148.08190241 4.8383070435713456e-05 -0.00033042225529653579 -0.0017163797277832738 2.7999999987483251 0.0000000000000000 -2.0486437413321283 
4000.0000000000000 10000.000000000000 -4166.6666666669998 -41904616.385316342 -15675108.198150024 -102073148.09648515 5.1287765112978276e-05 -0.00031668236722969147 -0.0013500843288495254 2.3999999986613525 0.0000000000000000 -2.0486437416677363 
3000.0000000000000 9000.0000000000000 -4000.0000000000000 -40754257.332540140 -14524749.139931671 -97994602.341714427 8.4061485016943377e-05 -0.00069642257780590071 -0.0022301601181623789 2.7999999987882984 -0.39999999971165728 -2.4137249694020357 
3000.0000000000000 10000.000000000000 -4000.0000000000000 -40754257.332340635 -14524749.139682667 -97994602.341107607 4.2488568155770780e-05 -0.00038078098148146879 -0.0022087170312860369 2.7999999987896502 0.0000000000000000 -2.4137249693848317 
4000.0000000000000 10000.000000000000 -4000.0000000000000 -40754257.329684332 -14524749.142246284 -97994602.354919702 4.5351876247801308e-05 -0.00036488904652558576 -0.0017093637955385241 2.3999999987095011 0.0000000000000000 -2.4137249697801182 
3000.0000000000000 9000.0000000000000 -3833.3333333330002 -39603795.308725715 -13374287.115924887 -93915691.531712815 7.2730662795485504e-05 -0.00077757141679735923 -0.0027482521145297980 2.7999999988349495 -0.39999999972589950 -2.7639205823286761 
3000.0000000000000 10000.000000000000 -3833.3333333330002 -39603795.308555037 -13374287.115701126 -93915691.531199366 3.6656003424372815e-05 -0.00042618797388543217 -0.0027250923938852180 2.7999999988360940 0.0000000000000000 -2.7639205823098147 
4000.0000000000000 10000.000000000000 -3833.3333333330002 -39603795.305828273 -13374287.118075268 -93915691.544288367 3.9366720613823389e-05 -0.00040854758935409102 -0.0020816086011501405 2.3999999987633900 0.0000000000000000 -2.7639205827624393 
3000.0000000000000 9000.0000000000000 -3666.6666666669998 -38453230.307405077 -12223722.114407189 -89836415.619871020 6.1752756504356501e-05 -0.00084995246500814219 -0.0032779781674423464 2.7999999988861326 -0.39999999974152056 -3.0992292477194572 
3000.0000000000000 10000.000000000000 -3666.6666666669998 -38453230.307261914 -12223722.114207096 -89836415.619447425 3.1024518760338620e-05 -0.00046689287116950362 -0.0032536587684353657 2.7999999988870803 0.0000000000000000 -3.0992292476992551 
4000.0000000000000 10000.000000000000 -3666.6666666669998 -38453230.304521590 -12223722.116414933 -89836415.631859899 3.3506644668872193e-05 -0.00044791730582624832 -0.0024586867850455800 2.3999999988223828 0.0000000000000000 -3.0992292482069117 
3000.0000000000000 9000.0000000000000 -3500.0000000000000 -37302562.319349423 -11073054.126151498 -85756774.573441565 5.1320044358306324e-05 -0.00091416842109468617 -0.0038085264532883157 2.7999999989413911 -0.39999999975832395 -3.4196496330530799 
3000.0000000000000 10000.000000000000 -3500.0000000000000 -37302562.319232374 -11073054.125973586 -85756774.573103875 2.5689283869606618e-05 -0.00050314772117863549 -0.0037835595809078762 2.7999999989421553 0.0000000000000000 -3.4196496330318418 
4000.0000000000000 10000.000000000000 -3500.0000000000000 -37302562.316532508 -11073054.128037479 -85756774.584884256 2.7898536725603614e-05 -0.00048323939898812791 -0.0028325902339115666 2.3999999988859484 0.0000000000000000 -3.4196496335922539 
3000.0000000000000 9000.0000000000000 -3333.3333333330002 -36151791.335335925 -9922283.1419357881 -81676768.359696060 4.1563812992712880e-05 -0.00097078043744165416 -0.0043301189903540357 2.7999999990003879 -0.39999999977612205 -3.7251804056826887 
3000.0000000000000 10000.000000000000 -3333.3333333330002 -36151791.335243471 -9922283.1417787634 -81676768.359439999 2.0718304389212509e-05 -0.00053519604588516323 -0.0043049440741845428 2.7999999990009852 0.0000000000000000 -3.7251804056607054 
4000.0000000000000 10000.000000000000 -3333.3333333330002 -36151791.332634673 -9922283.1437198315 -81676768.370629609 2.2637899748820574e-05 -0.00051472966089738219 -0.0031955863423152571 2.3999999989536560 0.0000000000000000 -3.7251804062716261 
3000.0000000000000 9000.0000000000000 -3166.6666666669998 -35000917.346142143 -8771409.1525378134 -77596396.945906848 3.2562131768030289e-05 -0.0010202805395194523 -0.0048337888518015090 2.7999999990629045 -0.39999999979473677 -4.0158202328422989 
3000.0000000000000 10000.000000000000 -3166.6666666669998 -35000917.346072733 -8771409.1524006501 -77596396.945727721 1.6153303634701579e-05 -0.00056325101987607438 -0.0048087826548750589 2.7999999990633513 0.0000000000000000 -4.0158202328198467 
4000.0000000000000 10000.000000000000 -3166.6666666669998 -35000917.343602136 -8771409.1542385034 -77596396.956363916 1.7783921901435724e-05 -0.00054255922692382171 -0.0035402869972891932 2.3999999990251699 0.0000000000000000 -4.0158202334790598 
3000.0000000000000 9000.0000000000000 -3000.0000000000000 -33849940.342540480 -7620432.1487297863 -73515660.299328089 2.4353269910531224e-05 -0.0010630523777100424 -0.0053113641275855617 2.7999999991288296 -0.39999999981399970 -4.2915677816516329 
3000.0000000000000 10000.000000000000 -3000.0000000000000 -33849940.342492566 -7620432.1486117849 -73515660.299220875 1.2007280437512329e-05 -0.00058747030236584686 -0.0052868496888281366 2.7999999991291418 0.0000000000000000 -4.2915677816289683 
4000.0000000000000 10000.000000000000 -3000.0000000000000 -33849940.340204194 -7620432.1503644101 -73515660.309336439 1.3358794405233174e-05 -0.00056684224517142843 -0.0038597326706514422 2.3999999991002450 0.0000000000000000 -4.2915677823342806 
3000.0000000000000 9000.0000000000000 -2833.3333333330002 -32698860.315308440 -6469352.1212887196 -69434558.387232691 1.6945781064404341e-05 -0.0010993572130774019 -0.0057552421693447160 2.7999999991981523 -0.39999999983375029 -4.5524217191056513 
3000.0000000000000 10000.000000000000 -2833.3333333330002 -32698860.315280475 -6469352.1211895868 -69434558.387192011 8.2837340157219408e-06 -0.00060795566228022489 -0.0057314475905632760 2.7999999991983446 0.0000000000000000 -4.5524217190830134 
4000.0000000000000 10000.000000000000 -2833.3333333330002 -32698860.313215751 -6469352.1228732606 -69434558.396814510 9.3674953145012930e-06 -0.00058762969730357674 -0.0041474209126385079 2.3999999991787195 0.0000000000000000 -4.5524217198322487 
3000.0000000000000 9000.0000000000000 -2666.6666666669998 -31547677.255223360 -5318169.0609912369 -65353091.176893555 1.0319860627337822e-05 -0.0011293073885733297 -0.0061580905530563505 2.7999999992709492 -0.39999999985383722 -4.7983807120801947 
3000.0000000000000 10000.000000000000 -2666.6666666669998 -31547677.255213857 -5318169.0609111385 -65353091.176913723 4.9787763492446538e-06 -0.00062473383670019127 -0.0061351955093791079 2.7999999992710403 0.0000000000000000 -4.7983807120578001 
4000.0000000000000 10000.000000000000 -2666.6666666669998 -31547677.253412131 -5318169.0625404036 -65353091.186065018 5.8067545266322377e-06 -0.00060489069438926415 -0.0043972417830003378 2.3999999992605101 0.0000000000000000 -4.7983807128487843 
3000.0000000000000 9000.0000000000000 -2500.0000000000000 -30396391.153057192 -4166882.9586083395 -61271258.635564938 4.4286449393738853e-06 -0.0011528484302592672 -0.0065127880713890017 2.7999999993473890 -0.39999999987411566 -5.0294434273359991 
3000.0000000000000 10000.000000000000 -2500.0000000000000 -30396391.153064732 -4166882.9585479400 -61271258.635639958 2.0655071991121369e-06 -0.00063775199020993769 -0.0064909282408311640 2.7999999993473916 0.0000000000000000 -5.0294434273140434 
4000.0000000000000 10000.000000000000 -2500.0000000000000 -30396391.151563939 -4166882.9601356643 -61271258.644336022 2.6492795292025967e-06 -0.00061852239135432919 -0.0046034934169664555 2.3999999993456038 0.0000000000000000 -5.0294434281445906 
3000.0000000000000 9000.0000000000000 -2333.3333333330002 -29245001.999586903 -3015493.8049157942 -57189060.730519041 -7.9659890456599162e-07 -0.0011697533020623315 -0.0068122109203692166 2.7999999994277149 -0.39999999989444707 -5.2456085315098520 
3000.0000000000000 10000.000000000000 -2333.3333333330002 -29245001.999610133 -3015493.8048762986 -57189060.730642632 -4.9586836168729004e-07 -0.00064688038096778115 -0.0067914564469788666 2.7999999994276425 0.0000000000000000 -5.2456085314885019 
4000.0000000000000 10000.000000000000 -2333.3333333330002 -29245001.998447374 -3015493.8064337289 -57189060.738893352 -1.4710601710183711e-07 -0.00062834529358577699 -0.0047608946613112296 2.3999999994340504 0.0000000000000000 -5.2456085323563970 
3000.0000000000000 9000.0000000000000 -2166.6666666669998 -28093509.785589468 -1864001.5906890475 -53106497.429027647 -5.4459636199064721e-06 -0.0011795801443855627 -0.0070490175252413863 2.7999999995122451 -0.39999999991469798 -5.4468746911194055 
3000.0000000000000 10000.000000000000 -2166.6666666669998 -28093509.785627145 -1864001.5906722425 -53106497.429193199 -2.7535270677519683e-06 -0.00065187492462705221 -0.0070293856551647627 2.7999999995121088 0.0000000000000000 -5.4468746910988060 
4000.0000000000000 10000.000000000000 -2166.6666666669998 -28093509.784839120 -1864001.5922090276 -53106497.437002152 -2.6309016914043828e-06 -0.00063408063698635209 -0.0048644936503387240 2.3999999995259578 0.0000000000000000 -5.4468746920017832 
3000.0000000000000 9000.0000000000000 -2000.0000000000000 -26941914.501836807 -712406.30669804872 -49023568.698343381 -9.6297787194739362e-06 -0.0011816834209226509 -0.0072155613030170668 2.7999999996013689 -0.39999999993473828 -5.6332405725664065 
3000.0000000000000 10000.000000000000 -2000.0000000000000 -26941914.501887791 -712406.30670634145 -49023568.698544040 -4.7680560749361161e-06 -0.00065238575492317661 -0.0071970381365823620 2.7999999996011780 0.0000000000000000 -5.6332405725466712 
4000.0000000000000 10000.000000000000 -2000.0000000000000 -26941914.501511186 -712406.30823056039 -49023568.705908328 -4.8647428029972918e-06 -0.00063535043657478839 -0.0049097115183370874 2.3999999996214822 0.0000000000000000 -5.6332405734823912 
3000.0000000000000 9000.0000000000000 -1833.3333333329999 -25790216.139106382 439292.05628225731 -44940274.505736418 -1.3473515297888555e-05 -0.0011752049553830600 -0.0073037503882645970 2.7999999996955434 -0.39999999995443941 -5.8047048421294445 
3000.0000000000000 10000.000000000000 -1833.3333333329999 -25790216.139169682 439292.05624578020 -44940274.505965225 -6.6078741224095496e-06 -0.00064796728392564769 -0.0072862884985696562 2.7999999996953040 0.0000000000000000 -5.8047048421106551 
4000.0000000000000 10000.000000000000 -1833.3333333329999 -25790216.139241446 439292.05472757621 -44940274.512875572 -6.9191066588279279e-06 -0.00063167688245411853 -0.0048923213070695857 2.3999999997208237 0.0000000000000000 -5.8047048430766806 
3000.0000000000000 9000.0000000000000 -1666.6666666670001 -24638414.688176211 1591093.5074770895 -40856614.818475835 -1.7128022459446333e-05 -0.0011590514573473541 -0.0073048934106266653 2.7999999997952894 -0.39999999997367347 -5.9612661659679631 
3000.0000000000000 10000.000000000000 -1666.6666666670001 -24638414.688250948 1591093.5074086906 -40856614.818725467 -8.3555061722157230e-06 -0.00063805306182243560 -0.0072884537369554145 2.7999999997950065 0.0000000000000000 -5.9612661659501720 
4000.0000000000000 10000.000000000000 -1666.6666666670001 -24638414.688808430 1591093.5058913897 -40856614.825166598 -8.8726735939353014e-06 -0.00062247741730052885 -0.0048085220047856666 2.3999999998242183 0.0000000000000000 -5.9612661669439451 
10000.000000000000 8000.0000000000000 -4833.3333333330002 -46505023.114099078 -20275514.939219981 -118383681.09206712 6.4530937785187986e-05 -0.00022740226883163304 6.7712421306647167e-05 0.0000000000000000 -0.79999999930185584 -0.43948932212587583 
10000.000000000000 7000.0000000000000 -4833.3333333330002 -46505023.115997113 -20275514.940730020 -118383681.10017607 0.00012112298637185841 -0.00023169048421339610 6.8652858729292040e-05 0.0000000000000000 -1.1999999989560002 -0.43948932215674374 
10000.000000000000 8000.0000000000000 -5000.0000000000000 -47079971.020660698 -20850462.845879704 -120422132.76095667 6.5381681708756275e-05 -0.00011706400796006231 3.4773208869165738e-05 0.0000000000000000 -0.79999999929872168 0.0000000000000000 
10000.000000000000 7000.0000000000000 -5000.0000000000000 -47079971.022662163 -20850462.847493887 -120422132.76944828 0.00012299988293945326 -0.00012108760191763153 3.5602592982387906e-05 0.0000000000000000 -1.1999999989513024 0.0000000000000000 
10000.000000000000 8000.0000000000000 -4666.6666666669998 -45355075.837741323 -19125567.662575968 -114306595.29357183 6.2131435774923259e-05 -0.00043518281809622292 0.00013011550124204419 0.0000000000000000 -0.79999999931095167 -0.86409968933270820 
10000.000000000000 7000.0000000000000 -4666.6666666669998 -45355075.839439973 -19125567.663885847 -114306595.30092813 0.00011580535865780049 -0.00043333181851955640 0.00013006937439660713 0.0000000000000000 -1.1999999989695973 -0.86409968939171811 
10000.000000000000 8000.0000000000000 -4500.0000000000000 -44205025.630290136 -17975517.454668559 -110229144.55726564 5.8526199721474563e-05 -0.00061825985279803848 0.00018594336295230552 0.0000000000000000 -0.79999999932540700 -1.2738297698183092 
10000.000000000000 7000.0000000000000 -4500.0000000000000 -44205025.631803639 -17975517.455795404 -110229144.56389552 0.00010778943458988739 -0.00059843205428066404 0.00018293114369099048 0.0000000000000000 -1.1999999989911301 -1.2738297699027930 
10000.000000000000 8000.0000000000000 -4333.3333333330002 -43054872.482502036 -16825364.306273956 -106151328.85040995 5.4069962857416194e-05 -0.00077883904673172973 0.00023584539257791529 0.0000000000000000 -0.79999999934464561 -1.6686782316533122 
10000.000000000000 7000.0000000000000 -4333.3333333330002 -43054872.483843476 -16825364.307236187 -106151328.85634112 9.7912870738362998e-05 -0.00073206999757700940 0.00022868428096887446 0.0000000000000000 -1.1999999990196939 -1.6686782317606685 
10000.000000000000 8000.0000000000000 -4166.6666666669998 -41904616.385134056 -15675108.208167464 -102073148.14026630 4.9067920873694088e-05 -0.00091918525491196663 0.00028032500540526293 0.0000000000000000 -0.79999999936811939 -2.0486437427891957 
10000.000000000000 7000.0000000000000 -4166.6666666669998 -41904616.386315517 -15675108.208983958 -102073148.14552763 8.6932331355059833e-05 -0.00083909305480774294 0.00026846237146500352 0.0000000000000000 -1.1999999990544465 -2.0486437429169002 
10000.000000000000 8000.0000000000000 -4000.0000000000000 -40754257.328938484 -14524749.151118312 -97994602.394077808 4.3771302353885267e-05 -0.0010415637142125347 0.00031980609282419815 0.0000000000000000 -0.79999999939531119 -2.4137249710647266 
10000.000000000000 7000.0000000000000 -4000.0000000000000 -40754257.329971246 -14524749.151807763 -97994602.398699358 7.5473023955553714e-05 -0.00092405806882808858 0.00030314214288003691 0.0000000000000000 -1.1999999990946104 -2.4137249712103412 
10000.000000000000 8000.0000000000000 -3833.3333333330002 -39603795.304673269 -13374287.125900052 -93915691.579106033 3.8379132269022456e-05 -0.0011481362887731893 0.00035467101731002980 0.0000000000000000 -0.79999999942573663 -2.7639205841922951 
10000.000000000000 7000.0000000000000 -3833.3333333330002 -39603795.305567928 -13374287.126480451 -93915691.583118990 6.4019788115985069e-05 -0.00099118326371537275 0.00033341446166874867 0.0000000000000000 -1.1999999991394716 -2.7639205843534773 
10000.000000000000 8000.0000000000000 -3666.6666666669998 -38453230.303096719 -12223722.123285376 -89836415.662612379 3.3047823584287761e-05 -0.0012409202222722813 0.00038528555129521827 0.0000000000000000 -0.79999999945894318 -3.0992292497651373 
10000.000000000000 7000.0000000000000 -3666.6666666669998 -38453230.303863324 -12223722.123773567 -89836415.666048974 5.2930384170280687e-05 -0.0010443237780140560 0.00035984394471941391 0.0000000000000000 -1.1999999991883772 -3.0992292499396483 
10000.000000000000 8000.0000000000000 -3500.0000000000000 -37302562.314962462 -11073054.134041037 -85756774.611839935 2.7894548033569210e-05 -0.0013217599081237780 0.00041198942442054274 0.0000000000000000 -0.79999999949451084 -3.4196496352629757 
10000.000000000000 7000.0000000000000 -3500.0000000000000 -37302562.315610565 -11073054.134452317 -85756774.614733219 4.2456776648676694e-05 -0.0010869315903572782 0.00038287851277459082 0.0000000000000000 -1.1999999992407329 -3.4196496354486876 
10000.000000000000 8000.0000000000000 -3333.3333333330002 -36151791.331029721 -9922283.1489382591 -81676768.394050077 2.3003252136254095e-05 -0.0013922678054577450 0.00043508134771487765 0.0000000000000000 -0.79999999953205092 -3.7251804080399560 
10000.000000000000 7000.0000000000000 -3333.3333333330002 -36151791.331568457 -9922283.1492860932 -81676768.396434098 3.2762640782443961e-05 -0.0011220256650269142 0.00040286576871573226 0.0000000000000000 -1.1999999992960004 -3.7251804082348592 
10000.000000000000 8000.0000000000000 -3166.6666666669998 -35000917.342058130 -8771409.1587475128 -77596396.976503909 1.8431662576276410e-05 -0.0014537959871447910 0.00045483550296609185 0.0000000000000000 -0.79999999957120471 -4.0158202353310752 
10000.000000000000 7000.0000000000000 -3166.6666666669998 -35000917.342496246 -8771409.1590433028 -77596396.978413567 2.3944159939900408e-05 -0.0011521700957263766 0.00042007318749605929 0.0000000000000000 -1.1999999993536938 -4.0158202355332850 
10000.000000000000 8000.0000000000000 -3000.0000000000000 -33849940.338802561 -7620432.1542334836 -73515660.326444030 1.4213973101711787e-05 -0.0015073973151383526 0.00047148478952021541 0.0000000000000000 -0.79999999961164203 -4.2915677842570119 
10000.000000000000 7000.0000000000000 -3000.0000000000000 -33849940.339148372 -7620432.1544862725 -73515660.327914953 1.6047129443341853e-05 -0.0011794097033050533 0.00043469943305616811 0.0000000000000000 -1.1999999994133752 -4.2915677844647773 
10000.000000000000 8000.0000000000000 -2833.3333333330002 -32698860.312023506 -6469352.1261655036 -69434558.411131501 1.0364826273918907e-05 -0.0015538112630871694 0.00048517875034979668 0.0000000000000000 -0.79999999965305879 -4.5524217218136664 
10000.000000000000 7000.0000000000000 -2833.3333333330002 -32698860.312284954 -6469352.1263818145 -69434558.412199929 9.0725421264687697e-06 -0.0012052845880620574 0.00044684845439020853 0.0000000000000000 -1.1999999994746513 -4.5524217220253718 
10000.000000000000 8000.0000000000000 -2666.6666666669998 -31547677.252481792 -5318169.0653123418 -65353091.197827056 6.8832223163042903e-06 -0.0015934514330136495 0.00049600415078878519 0.0000000000000000 -0.79999999969517466 -4.7983807148777924 
10000.000000000000 7000.0000000000000 -2666.6666666669998 -31547677.252666395 -5318169.0654960265 -65353091.198529817 2.9887626972798095e-06 -0.0012307939433878561 0.00045654741903852997 0.0000000000000000 -1.1999999995371688 -4.7983807150919677 
10000.000000000000 8000.0000000000000 -2500.0000000000000 -30396391.150933389 -4166882.9624371277 -61271258.653772876 3.7512589792409270e-06 -0.0016263727987446480 0.00050398538122032590 0.0000000000000000 -0.79999999973773095 -5.0294434302110194 
10000.000000000000 7000.0000000000000 -2500.0000000000000 -30396391.151048262 -4166882.9625892229 -61271258.654147342 -2.2616022692945182e-06 -0.0012563940839826573 0.00046375728017084250 0.0000000000000000 -1.1999999996006103 -5.0294434304263440 
10000.000000000000 8000.0000000000000 -2333.3333333330002 -29245001.998139761 -3015493.8083077618 -57189060.746229410 9.3622829375738231e-07 -0.0016522491692807560 0.00050906830790761780 0.0000000000000000 -0.79999999978048741 -5.2456085344510015 
10000.000000000000 7000.0000000000000 -2333.3333333330002 -29245001.998191584 -3015493.8084263736 -57189060.746313334 -6.7596770066328417e-06 -0.0012819765340860683 0.00046836574343559785 0.0000000000000000 -1.1999999996646888 -5.2456085346663093 
10000.000000000000 8000.0000000000000 -2166.6666666669998 -28093509.784862585 -1864001.5936917895 -53106497.442456931 -1.6068249723879127e-06 -0.0016703708420984628 0.00051111162214922262 0.0000000000000000 -0.79999999982321923 -5.4468746941162420 
10000.000000000000 7000.0000000000000 -2166.6666666669998 -28093509.784857586 -1864001.5937719571 -53106497.442288272 -1.0604845556730831e-05 -0.0013068505036151379 0.00047018958588625464 0.0000000000000000 -1.1999999997291433 -5.4468746943305275 
10000.000000000000 8000.0000000000000 -2000.0000000000000 -26941914.501858577 -712406.30935128219 -49023568.709697142 -3.9350929003671506e-06 -0.0016796131796163909 0.00050988042504592347 0.0000000000000000 -0.79999999986571335 -5.6332405756093165 
10000.000000000000 7000.0000000000000 -2000.0000000000000 -26941914.501802512 -712406.30938487593 -49023568.709314026 -1.3919195221727776e-05 -0.0013297374727078094 0.00046895954824608814 0.0000000000000000 -1.1999999997937336 -5.6332405758217377 
10000.000000000000 8000.0000000000000 -1833.3333333329999 -25790216.139889773 439292.05394671834 -44940274.515210047 -6.1198061010193092e-06 -0.0016784484398849860 0.00050504519300966638 0.0000000000000000 -0.79999999990776482 -5.8047048452096268 
10000.000000000000 7000.0000000000000 -1833.3333333329999 -25790216.139787924 439292.05397111678 -44940274.514650650 -1.6849849375958037e-05 -0.0013487646376319170 0.00046433842808737513 0.0000000000000000 -1.1999999998582349 -5.8047048454195078 
10000.000000000000 8000.0000000000000 -1666.6666666670001 -24638414.689718265 1591093.5054353429 -40856614.826255426 -8.2469974330812892e-06 -0.0016649242397323992 0.00049618402726089546 0.0000000000000000 -0.79999999994917426 -5.9612661690774242 
10000.000000000000 7000.0000000000000 -1666.6666666670001 -24638414.689575449 1591093.5055325560 -40856614.825557940 -1.9564006768895202e-05 -0.0013614540798720918 0.00045591608789131912 0.0000000000000000 -1.1999999999224318 -5.9612661692842606 
8000.0000000000000 10000.000000000000 -4833.3333333330002 -46505023.111320987 -20275514.936124694 -118383681.08106524 2.0927974550953240e-05 -7.3278035273246332e-05 0.00021380889663598476 0.79999999936634059 0.0000000000000000 -0.43948932208569830 
8000.0000000000000 10000.000000000000 -5000.0000000000000 -47079971.017726727 -20850462.842627004 -120422132.74939114 2.0783074638105416e-05 -3.7543464837625988e-05 0.00011023022945633075 0.79999999936339106 0.0000000000000000 0.0000000000000000 
8000.0000000000000 10000.000000000000 -4666.6666666669998 -45355075.835266791 -19125567.659788668 -114306595.28368026 2.1308530138356025e-05 -0.00014130399068534481 0.00040821831223873895 0.79999999937488930 0.0000000000000000 -0.86409968925640968 
8000.0000000000000 10000.000000000000 -4500.0000000000000 -44205025.628102027 -17975517.452174734 -110229144.54844908 2.1792399445198297e-05 -0.00020277670907157809 0.00057816605854239236 0.79999999938844690 0.0000000000000000 -1.2738297697098331 
8000.0000000000000 10000.000000000000 -4333.3333333330002 -43054872.480582036 -16825364.304057632 -106151328.84263036 2.2232834013368248e-05 -0.00025832966346165081 0.00072577068297720922 0.79999999940644628 0.0000000000000000 -1.6686782315164774 
8000.0000000000000 10000.000000000000 -4166.6666666669998 -41904616.383463085 -15675108.206211664 -102073148.13348280 2.2514418660909473e-05 -0.00030853238978353589 0.00085326104860049409 0.79999999942834943 0.0000000000000000 -2.0486437426276862 
8000.0000000000000 10000.000000000000 -4000.0000000000000 -40754257.327497207 -14524749.149405541 -97994602.388246849 2.2564277311339557e-05 -0.00035388031205376780 0.00096286324478379371 0.79999999945365052 0.0000000000000000 -2.4137249708820816 
8000.0000000000000 10000.000000000000 -3833.3333333330002 -39603795.303442493 -13374287.124412736 -93915691.574181363 2.2346954345778242e-05 -0.00039479968224581988 0.0010567454884139681 0.79999999948187572 0.0000000000000000 -2.7639205839918981 
8000.0000000000000 10000.000000000000 -3666.6666666669998 -38453230.302057900 -12223722.122006282 -89836415.658545196 2.1854817789083974e-05 -0.00043165440515393293 0.0011369999022704841 0.79999999951258494 0.0000000000000000 -3.0992292495502056 
8000.0000000000000 10000.000000000000 -3500.0000000000000 -37302562.314098023 -11073054.132953649 -85756774.608578905 2.1098698554352797e-05 -0.00046474677433977474 0.0012055396282938970 0.79999999954537160 0.0000000000000000 -3.4196496350365480 
8000.0000000000000 10000.000000000000 -3333.3333333330002 -36151791.330323443 -9922283.1480271630 -81676768.391541600 2.0100963171417339e-05 -0.00049431556977975468 0.0012640600931857452 0.79999999957986201 0.0000000000000000 -3.7251804078048805 
8000.0000000000000 10000.000000000000 -3166.6666666669998 -35000917.341495417 -8771409.1579987295 -77596396.974692360 1.8890632933060564e-05 -0.00052053765473041675 0.0013140084596793057 0.79999999961571422 0.0000000000000000 -4.0158202350899979 
8000.0000000000000 10000.000000000000 -3000.0000000000000 -33849940.338370703 -7620432.1536347680 -73515660.325272009 1.7496814182504822e-05 -0.00054352697595184583 0.0013565402612298514 0.79999999965261648 0.0000000000000000 -4.2915677840123676 
8000.0000000000000 10000.000000000000 -2833.3333333330002 -32698860.311711863 -6469352.1257066457 -69434558.410540193 1.5944296519243328e-05 -0.00056331688710206294 0.0013924930745643567 0.79999999969028546 0.0000000000000000 -4.5524217215676641 
8000.0000000000000 10000.000000000000 -2666.6666666669998 -31547677.252281893 -5318169.0649853330 -65353091.197756246 1.4255088914118671e-05 -0.00057986374515560575 0.0014223910186761681 0.79999999972846292 0.0000000000000000 -4.7983807146324091 
8000.0000000000000 10000.000000000000 -2500.0000000000000 -30396391.150839154 -4166882.9622364682 -61271258.654161520 1.2448023964421241e-05 -0.00059305715117071779 0.0014464089433828564 0.79999999976691427 0.0000000000000000 -5.0294434299679889 
8000.0000000000000 10000.000000000000 -2333.3333333330002 -29245001.998147581 -3015493.8082306664 -57189060.747015916 1.0536767019318518e-05 -0.00060269440044307082 0.0014643858152239408 0.79999999980542524 0.0000000000000000 -5.2456085342118071 
8000.0000000000000 10000.000000000000 -2166.6666666669998 -28093509.784971401 -1864001.5937383331 -53106497.443579257 8.5297606367110121e-06 -0.00060848907780731163 0.0014757988204699615 0.79999999984379866 0.0000000000000000 -5.4468746938821111 
8000.0000000000000 10000.000000000000 -2000.0000000000000 -26941914.502069965 -712406.30952459399 -49023568.711093113 6.4305213919084224e-06 -0.00061005864374435981 0.0014797742099213601 0.79999999988185100 0.0000000000000000 -5.6332405753812118 
8000.0000000000000 10000.000000000000 -1833.3333333329999 -25790216.140208069 439292.05364025320 -44940274.516817681 4.2367164728592997e-06 -0.00060691817189191240 0.0014750665952015251 0.79999999991940940 0.0000000000000000 -5.8047048449882412 
8000.0000000000000 10000.000000000000 -1666.6666666670001 -24638414.690150663 1591093.5049859642 -40856614.828013062 1.9422309265448374e-06 -0.00059849584558164257 0.0014600277057382433 0.79999999995630666 0.0000000000000000 -5.9612661688631770 
1.4466405410000000e-29 6000.0000000000000 -4833.3333333330002 -46505023.123813659 -20275514.915463299 -118383680.98863825 -9.5964549158924895e-05 -0.00014874801129876854 -0.00027120813984981651 4.0000000000000000 -1.5999999987040756 -0.43948932166517596 
0.0000000000000000 6000.0000000000000 -5000.0000000000000 -47079971.029206052 -20850462.820776917 -120422132.65264395 -0.00010218393023149766 -8.0832159755473595e-05 -0.00013354749475765382 4.0000000000000000 -1.5999999986982807 0.0000000000000000 
0.0000000000000000 6000.0000000000000 -4666.6666666669998 -45355075.849466674 -19125567.641327616 -114306595.19933301 -7.9783199707908270e-05 -0.00026115385876590797 -0.00054950968248031423 4.0000000000000000 -1.5999999987207385 -0.86409968845146967 
0.0000000000000000 6000.0000000000000 -4500.0000000000000 -44205025.643435873 -17975517.435591064 -110229144.47113124 -5.8563094254931200e-05 -0.00033119076412384371 -0.00082665423364800678 4.0000000000000000 -1.5999999987469198 -1.2738297685518860 
0.0000000000000000 6000.0000000000000 -4333.3333333330002 -43054872.496589608 -16825364.289083190 -106151328.77142245 -3.6192697230903751e-05 -0.00036718113156664187 -0.0010931836932846085 4.0000000000000000 -1.5999999987814384 -1.6686782300328233 
0.0000000000000000 6000.0000000000000 -4166.6666666669998 -41904616.399767593 -15675108.192621658 -102073148.06758156 -1.4914299248212342e-05 -0.00037641018038734843 -0.0013468376099053415 4.0000000000000000 -1.5999999988232516 -2.0486437408419969 
0.0000000000000000 6000.0000000000000 -4000.0000000000000 -40754257.343785934 -14524749.137011312 -97994602.326958328 4.0831709224904282e-06 -0.00036538283896226308 -0.0015887200527710400 4.0000000000000000 -1.5999999988714351 -2.4137249688148961 
1.1320936680000000e-30 6000.0000000000000 -3833.3333333330002 -39603795.319451973 -13374287.113054970 -93915691.516910657 2.0272289470785543e-05 -0.00033995963105293590 -0.0018210597877385067 4.0000000000000000 -1.5999999989251681 -2.7639205816611168 
1.2938213350000000e-30 6000.0000000000000 -3666.6666666669998 -38453230.317562066 -12223722.111548524 -89836415.604783714 3.3528757783109938e-05 -0.00030542391772497265 -0.0020460970503237965 4.0000000000000000 -1.5999999989837217 -3.0992292469715168 
0.0000000000000000 6000.0000000000000 -3500.0000000000000 -37302562.328899562 -11073054.123277165 -85756774.557893991 4.3960398987913278e-05 -0.00026650378134680309 -0.0022655764784541054 4.0000000000000000 -1.5999999990464497 -3.4196496322237966 
0.0000000000000000 6000.0000000000000 -3333.3333333330002 -36151791.344247095 -9922283.1390267462 -81676768.343567878 5.1795988352777361e-05 -0.00022739135460382088 -0.0024804643492641388 4.0000000000000000 -1.5999999991127829 -3.7251804047703931 
-6.4761696799999999e-29 6000.0000000000000 -3166.6666666669998 -35000917.354382716 -8771409.1495793387 -77596396.929124594 5.7313901172949372e-05 -0.00019167836267967658 -0.0026908968823147589 4.0000000000000000 -1.5999999991822194 -4.0158202318448666 
-1.0097419600000000e-28 6000.0000000000000 -3000.0000000000000 -33849940.350075759 -7620432.1457088143 -73515660.281859607 6.0798914091032037e-05 -0.00016237707690738270 -0.0028962921381996297 4.0000000000000000 -1.5999999992543206 -4.2915677805667034 
-1.0097419600000000e-28 6000.0000000000000 -2833.3333333330002 -32698860.322097726 -6469352.1181916147 -69434558.369082093 6.2518259058991069e-05 -0.00014189748653709613 -0.0030953617242628329 4.0000000000000000 -1.5999999993287037 -4.5524217179308319 
-1.2720451700000000e-28 6000.0000000000000 -2666.6666666669998 -31547677.261217546 -5318169.0578019964 -65353091.158097520 6.2703252443250019e-05 -0.00013201341741822764 -0.0032861256940472693 4.0000000000000000 -1.5999999994050349 -4.7983807108132375 
-1.3629055399999999e-28 6000.0000000000000 -2500.0000000000000 -30396391.158196665 -4166882.9553072155 -61271258.616190240 6.1552141610824422e-05 -0.00013386697545096854 -0.0034659811014202402 4.0000000000000000 -1.5999999994830238 -5.0294434259749696 
-2.0194839200000000e-28 6000.0000000000000 -2333.3333333330002 -29245002.003799498 -3015493.8014780823 -57189060.710660644 5.9225876707478651e-05 -0.00014794130267411799 -0.0036317482957840411 4.0000000000000000 -1.5999999995624181 -5.2456085300532820 
-9.7243917399999999e-29 6000.0000000000000 -2166.6666666669998 -28093509.788788334 -1864001.5870840021 -53106497.408807322 5.5846013904036702e-05 -0.00017405038509814465 -0.0037796556338255531 4.0000000000000000 -1.5999999996429939 -5.4468746895664539 
0.0000000000000000 6000.0000000000000 -2000.0000000000000 -26941914.503918059 -712406.30288791144 -49023568.677909113 5.1506323913495409e-05 -0.00021130664328061440 -0.0039053039457898151 4.0000000000000000 -1.5999999997245529 -5.6332405709170006 
0.0000000000000000 6000.0000000000000 -1833.3333333329999 -25790216.139946513 439292.06034316041 -44940274.485262521 4.6282560641489974e-05 -0.00025810443601239740 -0.0040036372225857363 4.0000000000000000 -1.5999999998069130 -5.8047048403844324 
0.0000000000000000 6000.0000000000000 -1666.6666666670001 -24638414.687628917 1591093.5118433395 -40856614.798163213 4.0239362421946104e-05 -0.00031209864843562493 -0.0040688338206526240 4.0000000000000000 -1.5999999998899037 -5.9612661641292748 
0.0000000000000000 9000.0000000000000 -4833.3333333330002 -46505023.118263073 -20275514.911747135 -118383680.96621303 -1.6119009214677296e-05 -0.00013606822662277107 -0.00036506704841658330 4.0000000000000000 -0.39999999967188493 -0.43948932157519849 
0.0000000000000000 9000.0000000000000 -5000.0000000000000 -47079971.023376599 -20850462.816773079 -120422132.62914535 -1.7544044947930509e-05 -6.9441378709978932e-05 -0.00018091157761492731 4.0000000000000000 -0.39999999967043126 0.0000000000000000 
0.0000000000000000 9000.0000000000000 -4666.6666666669998 -45355075.844444424 -19125567.638157722 -114306595.17900497 -1.2401607253201005e-05 -0.00026390026242543139 -0.00073255923721159512 4.0000000000000000 -0.39999999967609828 -0.86409968828030526 
0.0000000000000000 9000.0000000000000 -4500.0000000000000 -44205025.638891689 -17975517.432909504 -110229144.45280230 -7.5035541852636362e-06 -0.00038128413988081685 -0.0010882836423992074 4.0000000000000000 -0.39999999968279015 -1.2738297683079183 
0.0000000000000000 9000.0000000000000 -4333.3333333330002 -43054872.492486984 -16825364.286832750 -106151328.75499666 -2.3157724562839838e-06 -0.00048893912534756011 -0.0014186194621492118 4.0000000000000000 -0.39999999969170141 -1.6686782297240117 
0.0000000000000000 9000.0000000000000 -4166.6666666669998 -41904616.396078214 -15675108.190746460 -102073148.05296510 2.6324603708851907e-06 -0.00058747035096609786 -0.0017201391724333734 4.0000000000000000 -0.39999999970259031 -2.0486437404758755 
0.0000000000000000 9000.0000000000000 -4000.0000000000000 -40754257.340486206 -14524749.135457575 -97994602.314059317 7.0513409991017421e-06 -0.00067742558322336907 -0.0019944210490480227 4.0000000000000000 -0.39999999971522970 -2.4137249683985833 
0.0000000000000000 9000.0000000000000 -3833.3333333330002 -39603795.316520900 -13374287.111771801 -93915691.505638659 1.0796684633497910e-05 -0.00075932421300258001 -0.0022450678251336779 4.0000000000000000 -0.39999999972940498 -2.7639205812013299 
0.0000000000000000 9000.0000000000000 -3666.6666666669998 -38453230.314980105 -12223722.110488813 -89836415.595049366 1.3810972876930019e-05 -0.00083363883608804736 -0.0024760915902741899 4.0000000000000000 -0.39999999974491313 -3.0992292464745832 
0.0000000000000000 9000.0000000000000 -3500.0000000000000 -37302562.326647818 -11073054.122398335 -85756774.549608439 1.6096066424724821e-05 -0.00090078658149182885 -0.0026910486678417495 4.0000000000000000 -0.39999999976156198 -3.4196496316956666 
0.0000000000000000 9000.0000000000000 -3333.3333333330002 -36151791.342307135 -9922283.1382915135 -81676768.336642444 1.7688868488955219e-05 -0.00096113508928460467 -0.0028927553174139036 4.0000000000000000 -0.39999999977916945 -3.7251804042166401 
0.0000000000000000 9000.0000000000000 -3166.6666666669998 -35000917.352736436 -8771409.1489563845 -77596396.923470438 1.8637559275666053e-05 -0.0010149628597336967 -0.0030831290827253765 4.0000000000000000 -0.39999999979756296 -4.0158202312706912 
0.0000000000000000 9000.0000000000000 -3000.0000000000000 -33849940.348705426 -7620432.1451733392 -73515660.277387291 1.8995967034366043e-05 -0.0010624438678521564 -0.0032631874447468243 4.0000000000000000 -0.39999999981657886 -4.2915677799769298 
0.0000000000000000 9000.0000000000000 -2833.3333333330002 -32698860.320986129 -6469352.1177259106 -69434558.365701556 1.8823807587836607e-05 -0.0011036454319306112 -0.0034330686781354389 4.0000000000000000 -0.39999999983606188 -4.5524217173299037 
0.0000000000000000 9000.0000000000000 -2666.6666666669998 -31547677.260348093 -5318169.0573958494 -65353091.155717716 1.8178312938884747e-05 -0.0011384946099350954 -0.0035921297599121817 4.0000000000000000 -0.39999999985586393 -4.7983807102052065 
0.0000000000000000 9000.0000000000000 -2500.0000000000000 -30396391.157553591 -4166882.9549583388 -61271258.614719048 1.7107977459464027e-05 -0.0011667640984913455 -0.0037389719887369862 4.0000000000000000 -0.39999999987584339 -5.0294434253634863 
0.0000000000000000 9000.0000000000000 -2333.3333333330002 -29245002.003368102 -3015493.8011925761 -57189060.710004956 1.5663078109308395e-05 -0.0011880629849513105 -0.0038714669513286205 4.0000000000000000 -0.39999999989586360 -5.2456085294415873 
0.0000000000000000 9000.0000000000000 -2166.6666666669998 -28093509.788554970 -1864001.5868765658 -53106497.408872455 1.3894690280847989e-05 -0.0012018202857938245 -0.0039867883903436045 4.0000000000000000 -0.39999999991579233 -5.4468746889573625 
0.0000000000000000 9000.0000000000000 -2000.0000000000000 -26941914.503870375 -712406.30278229283 -49023568.678598993 1.1843589584732184e-05 -0.0012072693112295482 -0.0040813533841866229 4.0000000000000000 -0.39999999993549967 -5.6332405703128883 
0.0000000000000000 9000.0000000000000 -1833.3333333329999 -25790216.140073586 439292.06031375361 -44940274.486479722 9.5539171989970993e-06 -0.0012034428121187549 -0.0041507751214522760 4.0000000000000000 -0.39999999995485702 -5.8047048397872230 
0.0000000000000000 9000.0000000000000 -1666.6666666670001 -24638414.687921297 1591093.5116358884 -40856614.799808726 7.0772501400928585e-06 -0.0011891579069506037 -0.0041897561608879317 4.0000000000000000 -0.39999999997373548 -5.9612661635404232 
3000.0000000000000 1000.0000000000000 -4833.3333333330002 -46505023.138637602 -20275514.915601432 -118383681.13290429 -0.00011757698361012691 0.00031662361646903845 -0.00038119032056756891 2.7999999985678552 -3.5999999993312497 -0.43948932231524435 
3000.0000000000000 1000.0000000000000 -5000.0000000000000 -47079971.045782261 -20850462.822631605 -120422132.80364554 -0.00012595332713998979 0.00015266469858976541 -0.00017926168587719670 2.7999999985617623 -3.5999999993280909 0.0000000000000000 
3000.0000000000000 1000.0000000000000 -4666.6666666669998 -45355075.861134134 -19125567.638427343 -114306595.33098535 -9.5929952723054646e-05 0.00066305940802108591 -0.00082492508531511728 2.7999999985851796 -3.5999999993399987 -0.86409968969668349 
3000.0000000000000 1000.0000000000000 -4500.0000000000000 -44205025.652571052 -17975517.430378363 -110229144.59178014 -6.7786186073434904e-05 0.0010395841079571925 -0.0013381870637589307 2.7999999986119444 -3.5999999993530527 -1.2738297703441999 
3000.0000000000000 1000.0000000000000 -4333.3333333330002 -43054872.503692418 -16825364.282169767 -106151328.88248377 -3.8220556592667636e-05 0.0014344033691613017 -0.0019017203157073196 2.7999999986465971 -3.5999999993694596 -1.6686782323302667 
3000.0000000000000 1000.0000000000000 -4166.6666666669998 -41904616.405245468 -15675108.184525771 -102073148.17029721 -9.9337108038920025e-06 0.0018391912361495717 -0.0024986422213293174 2.7999999986878490 -3.5999999993885123 -2.0486437436080078 
3000.0000000000000 1000.0000000000000 -4000.0000000000000 -40754257.347975388 -14524749.128172798 -97994602.422407568 1.5722736653222488e-05 0.0022478491203020241 -0.0031145444933050872 2.7999999987346680 -3.5999999994096941 -2.4137249720176333 
3000.0000000000000 1000.0000000000000 -3833.3333333330002 -39603795.322635584 -13374287.103848895 -93915691.606025219 3.8162798665715104e-05 0.0026557850130103375 -0.0037372531019999656 2.7999999987862449 -3.5999999994326433 -2.7639205852727660 
3000.0000000000000 1000.0000000000000 -3666.6666666669998 -38453230.319982313 -12223722.102297766 -89836415.688365668 5.7240854995588205e-05 0.0030593576446063392 -0.0043564126009884895 2.7999999988419755 -3.5999999994571104 -3.0992292509676842 
3000.0000000000000 1000.0000000000000 -3500.0000000000000 -37302562.330768973 -11073054.114262735 -85756774.636630610 7.3054432460957204e-05 0.0034554396236480146 -0.0049631260408513145 2.7999999989014204 -3.5999999994829439 -3.4196496365829785 
3000.0000000000000 1000.0000000000000 -3333.3333333330002 -36151791.345755920 -9922283.1304962970 -81676768.418043777 8.5821968361711595e-05 0.0038412460932629004 -0.0055494595486301227 2.7999999989642941 -3.5999999995100778 -3.7251804094735030 
3000.0000000000000 1000.0000000000000 -3166.6666666669998 -35000917.355705097 -8771409.1417544801 -77596396.999832377 9.5809493529326270e-05 0.0042140543840712315 -0.0061082279937775055 2.7999999990304376 -3.5999999995385044 -4.0158202368748155 
3000.0000000000000 1000.0000000000000 -3000.0000000000000 -33849940.351374522 -7620432.1387911066 -73515660.349207789 0.00010328800990667160 0.0045710330732171255 -0.0066326105740567645 2.7999999990998066 -3.5999999995682819 -4.2915677859080139 
3000.0000000000000 1000.0000000000000 -2833.3333333330002 -32698860.323528368 -6469352.1123677967 -69434558.433401927 0.00010850353890756682 0.0049091891767243526 -0.0071160086528646417 2.7999999991724533 -3.5999999995995213 -4.5524217235692879 
3000.0000000000000 1000.0000000000000 -2666.6666666669998 -31547677.262931839 -5318169.0532485899 -65353091.219648540 0.00011165767437345853 0.0052251460324631484 -0.0075518358686327220 2.7999999992485241 -3.5999999996323870 -4.7983807167355517 
3000.0000000000000 1000.0000000000000 -2500.0000000000000 -30396391.160345852 -4166882.9521945254 -61271258.675164498 0.00011289893172872961 0.0055150819110902187 -0.0079332647539470183 2.7999999993282474 -3.5999999996670913 -5.0294434321684838 
3000.0000000000000 1000.0000000000000 -2333.3333333330002 -29245002.006537307 -3015493.7999737705 -57189060.767185599 0.00011232283129541549 0.0057745946018634645 -0.0082532095102304161 2.7999999994119253 -3.5999999997039001 -5.2456085365056540 
3000.0000000000000 1000.0000000000000 -2166.6666666669998 -28093509.792273995 -1864001.5873564323 -53106497.462948255 0.00010996457354107837 0.0059985262295655451 -0.0085040712938268120 2.7999999994999332 -3.5999999997431265 -5.4468746962653753 
3000.0000000000000 1000.0000000000000 -2000.0000000000000 -26941914.508319557 -712406.30510936782 -49023568.729670830 0.00010579511634425617 0.0061808335196050961 -0.0086776798887569263 2.7999999995927172 -3.5999999997851435 -5.6332405778499028 
3000.0000000000000 1000.0000000000000 -1833.3333333329999 -25790216.145443913 439292.05599349819 -44940274.534589760 9.9724597840716828e-05 0.0063143966462863629 -0.0087651686721580829 2.7999999996907907 -3.5999999998303802 -5.8047048475381970 
3000.0000000000000 1000.0000000000000 -1666.6666666670001 -24638414.694418218 1591093.5051762981 -40856614.844940834 9.1606432730334330e-05 0.0063908465630600347 -0.0087568284663863388 2.7999999997947360 -3.5999999998793339 -5.9612661714899353 
10000.000000000000 6000.0000000000000 -4833.3333333330002 -46505023.118774869 -20275514.942039140 -118383681.11312664 0.00017509850158420925 -0.00012492564705950097 7.0324490400761177e-05 0.0000000000000000 -1.5999999986400668 -0.43948932220847103 
10000.000000000000 6000.0000000000000 -5000.0000000000000 -47079971.025595918 -20850462.848956697 -120422132.78298435 0.00017803708452225728 -6.9677187128180129e-05 3.7004186037391913e-05 0.0000000000000000 -1.5999999986339144 0.0000000000000000 
10000.000000000000 6000.0000000000000 -4666.6666666669998 -45355075.841920465 -19125567.664906207 -114306595.31273250 0.00016679871386412429 -0.00020917742809523990 0.00013024006194981840 0.0000000000000000 -1.5999999986577977 -0.86409968949092042 
10000.000000000000 6000.0000000000000 -4500.0000000000000 -44205025.634014711 -17975517.456564348 -110229144.57460362 0.00015435803895195448 -0.00024581161347832789 0.00017805163682600684 0.0000000000000000 -1.5999999986857194 -1.2738297700453229 
10000.000000000000 6000.0000000000000 -4333.3333333330002 -43054872.485809781 -16825364.307790842 -106151328.86600339 0.00013914675398378083 -0.00024423929815564762 0.00021633760241372430 0.0000000000000000 -1.5999999987225697 -1.6686782319425018 
10000.000000000000 6000.0000000000000 -4166.6666666669998 -41904616.388058901 -15675108.209360521 -102073148.15419489 0.00012239058506321050 -0.00021313737308113745 0.00024735893438617118 0.0000000000000000 -1.5999999987672087 -2.0486437431341478 
10000.000000000000 6000.0000000000000 -4000.0000000000000 -40754257.331511237 -14524749.152040904 -97994602.406422585 0.00010508908661114767 -0.00016043113674024719 0.00027292515200572412 0.0000000000000000 -1.5999999988186115 -2.4137249714592635 
10000.000000000000 6000.0000000000000 -3833.3333333330002 -39603795.306922138 -13374287.126602763 -93915691.589949280 8.8003616275099709e-05 -9.3330727981009759e-05 0.00029442200117409101 0.0000000000000000 -1.5999999988758622 -2.7639205846304904 
10000.000000000000 6000.0000000000000 -3666.6666666669998 -38453230.305047832 -12223722.123815104 -89836415.672037423 7.1674803247991225e-05 -1.8323016715005025e-05 0.00031287780071791762 0.0000000000000000 -1.5999999989381486 -3.0992292502413328 
10000.000000000000 6000.0000000000000 -3500.0000000000000 -37302562.316640176 -11073054.134440206 -85756774.619930983 5.6459116485649091e-05 5.8886035980411377e-05 0.00032900645361098619 0.0000000000000000 -1.5999999990047546 -3.4196496357717971 
10000.000000000000 6000.0000000000000 -3333.3333333330002 -36151791.332456887 -9922283.1492442023 -81676768.400892198 4.2568480854319107e-05 0.00013334223159725136 0.00034328534623379064 0.0000000000000000 -1.5999999990750526 -3.7251804085763256 
10000.000000000000 6000.0000000000000 -3166.6666666669998 -35000917.343256250 -8771409.1589920074 -77596396.982182980 3.0105102682005633e-05 0.00020082334695181446 0.00035598977123708155 0.0000000000000000 -1.5999999991484974 -4.0158202358902244 
10000.000000000000 6000.0000000000000 -3000.0000000000000 -33849940.339791872 -7620432.1544422600 -73515660.331046402 1.9089262159191694e-05 0.00025789228897357523 0.00036724147224979420 0.0000000000000000 -1.5999999992246179 -4.2915677848344957 
10000.000000000000 6000.0000000000000 -2833.3333333330002 -32698860.312823057 -6469352.1263579540 -69434558.414743915 9.4797879303263265e-06 0.00030184321785542260 0.00037703360357942064 0.0000000000000000 -1.5999999993030107 -4.5524217224053718 
10000.000000000000 6000.0000000000000 -2666.6666666669998 -31547677.253109489 -5318169.0655013081 -65353091.200536631 1.1937887957597820e-06 0.00033071668256042289 0.00038524444242570433 0.0000000000000000 -1.5999999993833323 -4.7983807154799525 
10000.000000000000 6000.0000000000000 -2500.0000000000000 -30396391.151405990 -4166882.9626286654 -61271258.655666940 -5.8805019361874443e-06 0.00034324010634293573 0.00039168001130083125 0.0000000000000000 -1.5999999994652911 -5.0294434308202218 
10000.000000000000 6000.0000000000000 -2333.3333333330002 -29245001.998472944 -3015493.8085010080 -57189060.747395463 -1.1877741675449753e-05 0.00033885541946279468 0.00039608333290581173 0.0000000000000000 -1.5999999995486420 -5.2456085350641981 
10000.000000000000 6000.0000000000000 -2166.6666666669998 -28093509.785070896 -1864001.5938787411 -53106497.442982301 -1.6952597249617187e-05 0.00031771942021574409 0.00039812782743922826 0.0000000000000000 -1.5999999996331775 -5.4468746947307576 
10000.000000000000 6000.0000000000000 -2000.0000000000000 -26941914.501955464 -712406.30951666622 -49023568.709669076 -2.1282653976106708e-05 0.00028065336953018397 0.00039743752335878805 0.0000000000000000 -1.5999999997187215 -5.6332405762228577 
10000.000000000000 6000.0000000000000 -1833.3333333329999 -25790216.139887605 439292.05382568412 -44940274.514715530 -2.5072692484256559e-05 0.00022917170677266122 0.00039361777968289374 0.0000000000000000 -1.5999999998051229 -5.8047048458202877 
10000.000000000000 6000.0000000000000 -1666.6666666670001 -24638414.689628348 1591093.5053892245 -40856614.825381018 -2.8558535078053954e-05 0.00016547974470738924 0.00038624122663229741 0.0000000000000000 -1.5999999998922485 -5.9612661696836904 
10000.000000000000 9000.0000000000000 -4833.3333333330002 -46505023.112996712 -20275514.938077785 -118383681.08775058 2.4524818382475757e-05 -0.00013591157065633361 6.8028892255841795e-05 0.0000000000000000 -0.39999999965216765 -0.43948932211007763 
10000.000000000000 9000.0000000000000 -5000.0000000000000 -47079971.019499309 -20850462.844677776 -120422132.75642550 2.4745276064231213e-05 -6.9577827386309993e-05 3.4796488389429210e-05 0.0000000000000000 -0.39999999965060140 0.0000000000000000 
10000.000000000000 9000.0000000000000 -4666.6666666669998 -45355075.836753994 -19125567.661550179 -114306595.28967823 2.3900048269159589e-05 -0.00026223696743274438 0.00013140963914192805 0.0000000000000000 -0.39999999965671673 -0.86409968930264525 
10000.000000000000 9000.0000000000000 -4500.0000000000000 -44205025.629411876 -17975517.453752480 -110229144.55378199 2.2948731333167614e-05 -0.00037624408555786350 0.00018876825254586364 0.0000000000000000 -0.39999999966395516 -1.2738297697754799 
10000.000000000000 9000.0000000000000 -4333.3333333330002 -43054872.481727049 -16825364.305459894 -106151328.84732230 2.1744111624311791e-05 -0.00047869211649657916 0.00024040159668698222 0.0000000000000000 -0.39999999967360050 -1.6686782315991731 
10000.000000000000 9000.0000000000000 -4166.6666666669998 -41904616.384456575 -15675108.207447156 -102073148.13755965 2.0347366444352215e-05 -0.00057039633293207029 0.00028662380623098032 0.0000000000000000 -0.39999999968538219 -2.0486437427251549 
10000.000000000000 9000.0000000000000 -4000.0000000000000 -40754257.328352809 -14524749.150483312 -97994602.391736239 1.8810442518791814e-05 -0.00065220920409681817 0.00032776387710604319 0.0000000000000000 -0.39999999969904271 -2.4137249709921433 
10000.000000000000 9000.0000000000000 -3833.3333333330002 -39603795.304173708 -13374287.125342071 -93915691.577112585 1.7179369492565494e-05 -0.00072497741579342651 0.00036416275048778028 0.0000000000000000 -0.39999999971433775 -2.7639205841124710 
10000.000000000000 9000.0000000000000 -3666.6666666669998 -38453230.302677661 -12223722.122796565 -89836415.660949141 1.5496568441966073e-05 -0.00078950603812379561 0.00039616537012962126 0.0000000000000000 -0.39999999973103673 -3.0992292496793152 
10000.000000000000 9000.0000000000000 -3500.0000000000000 -37302562.314618349 -11073054.133614248 -85756774.610488057 1.3796673988775343e-05 -0.00084654625045427971 0.00042410506432498987 0.0000000000000000 -0.39999999974892342 -3.4196496351723331 
10000.000000000000 9000.0000000000000 -3333.3333333330002 -36151791.330755137 -9922283.1485672463 -81676768.392989859 1.2108504346155723e-05 -0.00089675040701212494 0.00044828602204534531 0.0000000000000000 -0.39999999976779527 -3.7251804079456017 
10000.000000000000 9000.0000000000000 -3166.6666666669998 -35000917.341847755 -8771409.1584271211 -77596396.975714833 1.0456526269075445e-05 -0.00094065984516534260 0.00046899062463520198 0.0000000000000000 -0.39999999978746326 -4.0158202352340435 
10000.000000000000 9000.0000000000000 -3000.0000000000000 -33849940.338651277 -7620432.1539598247 -73515660.325904950 8.8584319846479621e-06 -0.00097868845853784801 0.00048645754792757433 0.0000000000000000 -0.39999999980775125 -4.2915677841582580 
10000.000000000000 9000.0000000000000 -2833.3333333330002 -32698860.311926372 -6469352.1259360751 -69434558.410820588 7.3257501667168424e-06 -0.0010110926065111528 0.00050084320835909100 0.0000000000000000 -0.39999999982849516 -4.5524217217140635 
10000.000000000000 9000.0000000000000 -2666.6666666669998 -31547677.252434082 -5318169.0651261527 -65353091.197721928 5.8650123418815084e-06 -0.0010379798344979860 0.00051224815290632658 0.0000000000000000 -0.39999999984954199 -4.7983807147781254 
10000.000000000000 9000.0000000000000 -2500.0000000000000 -30396391.150930610 -4166882.9622948007 -61271258.653850697 4.4762775247325463e-06 -0.0010592888089814945 0.00052071249760509471 0.0000000000000000 -0.39999999987074852 -5.0294434301119821 
10000.000000000000 9000.0000000000000 -2333.3333333330002 -29245001.998177689 -3015493.8082116549 -57189060.746467009 3.1532502470328852e-06 -0.0010747675307169777 0.00052618215037595218 0.0000000000000000 -0.39999999989198032 -5.2456085343531917 
10000.000000000000 9000.0000000000000 -2166.6666666669998 -28093509.784937292 -1864001.5936460751 -53106497.442830831 1.8840303901629035e-06 -0.0010839773616098316 0.00052851292815975465 0.0000000000000000 -0.39999999991310980 -5.4468746940201633 
10000.000000000000 9000.0000000000000 -2000.0000000000000 -26941914.501966413 -712406.30936202174 -49023568.710183680 6.5096912009046587e-07 -0.0010862786806985914 0.00052746782141781007 0.0000000000000000 -0.39999999993401525 -5.6332405755153667 
10000.000000000000 9000.0000000000000 -1833.3333333329999 -25790216.140027426 439292.05387146352 -44940274.515785493 -5.6898396797856080e-07 -0.0010808260796729672 0.00052270471215414374 0.0000000000000000 -0.39999999995457830 -5.8047048451181036 
10000.000000000000 9000.0000000000000 -1666.6666666670001 -24638414.689882707 1591093.5052855066 -40856614.826895848 -1.8050983752522693e-06 -0.0010665673630972504 0.00051378657996822364 0.0000000000000000 -0.39999999997468277 -5.9612661689885158 
4000.0000000000000 5000.0000000000000 -4833.3333333330002 -46505023.119769543 -20275514.928216226 -118383681.06928831 0.00040518665287699507 5.9749080974670667e-05 -0.00025572258717547285 2.3999999984985134 -1.9999999984428405 -0.43948932202826146 
4000.0000000000000 5000.0000000000000 -5000.0000000000000 -47079971.026098914 -20850462.834561720 -120422132.73712595 0.00041168997744500928 2.1120801254251043e-05 -0.00012009873260907020 2.3999999984920346 -1.9999999984358434 0.0000000000000000 
4000.0000000000000 5000.0000000000000 -4666.6666666669998 -45355075.843797743 -19125567.652200084 -114306595.27282466 0.00038756488224181445 0.00016817120751879891 -0.00055421516139268702 2.3999999985170146 -1.9999999984629111 -0.86409968914598179 
4000.0000000000000 5000.0000000000000 -4500.0000000000000 -44205025.636583440 -17975517.444922574 -110229144.53841047 0.00036273369134802761 0.00033164157310989432 -0.00090021974287779038 2.3999999985458191 -1.9999999984943175 -1.2738297695504242 
4000.0000000000000 5000.0000000000000 -4333.3333333330002 -43054872.488897644 -16825364.297164693 -106151328.83331586 0.00033410631054288365 0.00053636188606511013 -0.0012806719783752224 2.3999999985834752 -1.9999999985355283 -1.6686782313116875 
4000.0000000000000 5000.0000000000000 -4166.6666666669998 -41904616.391509384 -15675108.199703630 -102073148.12480988 0.00030399487594245261 0.00076992235172466267 -0.0016840355907057031 2.3999999986287537 -1.9999999985851977 -2.0486437423807407 
4000.0000000000000 5000.0000000000000 -4000.0000000000000 -40754257.335182086 -14524749.143308314 -97994602.380142465 0.00027389012387654400 0.0010212387420695873 -0.0020999539010802619 2.3999999986806131 -1.9999999986421577 -2.4137249705958701 
4000.0000000000000 5000.0000000000000 -3833.3333333330002 -39603795.310684547 -13374287.118750323 -93915691.566581324 0.00024468671900990916 0.0012805114725746105 -0.0025190211605796340 2.3999999987381795 -1.9999999987053998 -2.7639205836690151 
4000.0000000000000 5000.0000000000000 -3666.6666666669998 -38453230.308786258 -12223722.116799172 -89836415.651393861 0.00021685718075504170 0.0015390573516103876 -0.0029326011497171345 2.3999999988007268 -1.9999999987740651 -3.0992292491929874 
4000.0000000000000 5000.0000000000000 -3500.0000000000000 -37302562.320252180 -11073054.128217461 -85756774.601828545 0.00019058475983005507 0.0017892565818697069 -0.0033328282927729881 2.3999999988676675 -1.9999999988474302 -3.4196496346471190 
4000.0000000000000 5000.0000000000000 -3333.3333333330002 -36151791.335853145 -9922283.1437715553 -81676768.385151967 0.00016586107963453232 0.0020244871153140779 -0.0037125512329028339 2.3999999989385388 -1.9999999989248924 -3.7251804073851895 
4000.0000000000000 5000.0000000000000 -3166.6666666669998 -35000917.346360669 -8771409.1542267054 -77596396.968630508 0.00014255539160730390 0.0022390071516524271 -0.0040652559465405294 2.3999999990129877 -1.9999999990059609 -4.0158202346418586 
4000.0000000000000 5000.0000000000000 -3000.0000000000000 -33849940.342541561 -7620432.1503419336 -73515660.319511741 0.00012047488466658120 0.0024278930827633682 -0.0043849828626128387 2.3999999990907681 -1.9999999990902393 -4.2915677835374924 
4000.0000000000000 5000.0000000000000 -2833.3333333330002 -32698860.315168314 -6469352.1228806423 -69434558.405061424 9.9402940550443540e-05 0.0025870028064485409 -0.0046662701252177547 2.3999999991717242 -1.9999999991774209 -4.5524217210676943 
4000.0000000000000 5000.0000000000000 -2666.6666666669998 -31547677.255013879 -5318169.0626055216 -65353091.192545183 7.9117126324073958e-05 0.0027128600717208403 -0.0049041185528434748 2.3999999992557863 -1.9999999992672708 -4.7983807141089487 
4000.0000000000000 5000.0000000000000 -2500.0000000000000 -30396391.152846366 -4166882.9602733608 -61271258.649209626 5.9408887895783153e-05 0.0028026886517238175 -0.0050938524541922266 2.3999999993429566 -1.9999999993596231 -5.0294434294226287 
4000.0000000000000 5000.0000000000000 -2333.3333333330002 -29245001.999439582 -3015493.8066455945 -57189060.742319733 4.0092898622447730e-05 0.0028543563840140161 -0.0052311282512533825 2.3999999994333101 -1.9999999994543651 -5.2456085336461484 
4000.0000000000000 5000.0000000000000 -2166.6666666669998 -28093509.785567816 -1864001.5924830895 -53106497.439140029 2.1004952141481484e-05 0.0028663073384962599 -0.0053118962031342976 2.3999999995269765 -1.9999999995514348 -5.4468746932977847 
4000.0000000000000 5000.0000000000000 -2000.0000000000000 -26941914.502000671 -712406.30854094017 -49023568.706916139 2.0029135471779468e-06 0.0028376514085150573 -0.0053323125992924053 2.3999999996241423 -1.9999999996508104 -5.6332405747798910 
4000.0000000000000 5000.0000000000000 -1833.3333333329999 -25790216.139513578 439292.05442115851 -44940274.512911454 -1.7041025406442631e-05 0.0027681209455448631 -0.0052887864088333545 2.3999999997250350 -1.9999999997524986 -5.8047048443716625 
4000.0000000000000 5000.0000000000000 -1666.6666666670001 -24638414.688882738 1591093.5056440756 -40856614.824388854 -3.6256075429748093e-05 0.0026580485141608698 -0.0051780234234247739 2.3999999998299271 -1.9999999998565374 -5.9612661682331316 
2000.0000000000000 3000.0000000000000 -4833.3333333330002 -46505023.133719414 -20275514.916772094 -118383681.07137156 0.00016892521437833174 0.00043219983882882067 -0.00045343209434456577 3.1999999988775234 -2.7999999984692923 -0.43948932203091445 
2000.0000000000000 3000.0000000000000 -5000.0000000000000 -47079971.040105417 -20850462.823076565 -120422132.73922247 0.00016929685702683257 0.00020584883508523234 -0.00021772278073392873 3.1999999988724803 -2.7999999984627286 0.0000000000000000 
2000.0000000000000 3000.0000000000000 -4666.6666666669998 -45355075.857574187 -19125567.640868366 -114306595.27483803 0.00016773453947008710 0.00092120141202756177 -0.00095546854908590013 3.1999999988916388 -2.7999999984880386 -0.86409968915109459 
2000.0000000000000 3000.0000000000000 -4500.0000000000000 -44205025.650075182 -17975517.433762126 -110229144.54027215 0.00016561479091933211 0.0014735323304039874 -0.0015091745308552758 3.1999999989130079 -2.7999999985171651 -1.2738297695576879 
2000.0000000000000 3000.0000000000000 -4333.3333333330002 -43054872.502012469 -16825364.286230713 -106151328.83495504 0.00016257458832773914 0.0020712727788117719 -0.0020972452546086516 3.1999999989401955 -2.7999999985550694 -1.6686782313206281 
2000.0000000000000 3000.0000000000000 -4166.6666666669998 -41904616.404174231 -15675108.189047683 -102073148.12616786 0.00015873341888401508 0.0026981628975657384 -0.0027057206115236520 3.1999999989720864 -2.7999999986003767 -2.0486437423907051 
2000.0000000000000 3000.0000000000000 -4000.0000000000000 -40754257.347340442 -14524749.132978121 -97994602.381171778 0.00015424394291967000 0.0033398813694953421 -0.0033233444120072328 3.1999999990078369 -2.7999999986519346 -2.4137249706060229 
2000.0000000000000 3000.0000000000000 -3833.3333333330002 -39603795.322293229 -13374287.108789962 -93915691.567244917 0.00014924440732032459 0.0039839203714986653 -0.0039410474239571676 3.1999999990468235 -2.7999999987088064 -2.7639205836783365 
2000.0000000000000 3000.0000000000000 -3666.6666666669998 -38453230.319811851 -12223722.107249498 -89836415.651664138 0.00014383745581624289 0.0046194082079261288 -0.0045513586918066000 3.1999999990886110 -2.7999999987702542 -3.0992292492002922 
2000.0000000000000 3000.0000000000000 -3500.0000000000000 -37302562.330667660 -11073054.119116684 -85756774.601686656 0.00013809207299237503 0.0052368750226558531 -0.0051480095468854755 3.1999999991329200 -2.7999999988357200 -3.4196496346510719 
2000.0000000000000 3000.0000000000000 -3333.3333333330002 -36151791.345634952 -9922283.1351558678 -81676768.384587020 0.00013203527364542402 0.0058280003069035666 -0.0057254774732355580 3.1999999991796013 -2.7999999989048097 -3.7251804073843315 
2000.0000000000000 3000.0000000000000 -3166.6666666669998 -35000917.355485976 -8771409.1461308338 -77596396.967638671 0.00012565097803517804 0.0063853040654557134 -0.0062786130381974111 3.1999999992286203 -2.7999999989772744 -4.0158202346346377 
2000.0000000000000 3000.0000000000000 -3000.0000000000000 -33849940.350986145 -7620432.1427997537 -73515660.318095639 0.00011889539733542128 0.0069019077520344309 -0.0068023940306831156 3.1999999992800383 -2.7999999990529933 -4.2915677835222921 
2000.0000000000000 3000.0000000000000 -2833.3333333330002 -32698860.322904646 -6469352.1159256808 -69434558.403229535 0.00011168947976633863 0.0073712672734039478 -0.0072917011918462579 3.1999999993340049 -2.7999999991319635 -4.5524217210428723 
2000.0000000000000 3000.0000000000000 -2666.6666666669998 -31547677.262009598 -5318169.0562714469 -65353091.190311536 0.00010392032694468993 0.0077870232589399265 -0.0077411180445335461 3.1999999993907511 -2.7999999992142861 -4.7983807140728620 
2000.0000000000000 3000.0000000000000 -2500.0000000000000 -30396391.159062978 -4166882.9545943867 -61271258.646593861 9.5452080340050022e-05 0.0081428010775391919 -0.0081446609466616776 3.1999999994505783 -2.7999999993001570 -5.0294434293736714 
2000.0000000000000 3000.0000000000000 -2333.3333333330002 -29245002.004831202 -3015493.8016566979 -57189060.739346825 8.6124907612429187e-05 0.0084320090077199192 -0.0084956944642944413 3.1999999995138642 -2.7999999993898617 -5.2456085335827884 
2000.0000000000000 3000.0000000000000 -2166.6666666669998 -28093509.790080182 -1864001.5882202645 -53106497.435840867 7.5751079877722452e-05 0.0086477242492042014 -0.0087866978474363065 3.1999999995810571 -2.7999999994837697 -5.4468746932185965 
2000.0000000000000 3000.0000000000000 -2000.0000000000000 -26941914.505570184 -712406.30504127615 -49023568.703328080 6.4115915941158902e-05 0.0087825112274079620 -0.0090090745725913777 3.1999999996526807 -2.7999999995823250 -5.6332405746836098 
2000.0000000000000 3000.0000000000000 -1833.3333333329999 -25790216.142066263 439292.05711960938 -44940274.509078883 5.0982517350334746e-05 0.0088283641340584033 -0.0091529499088318835 3.1999999997293327 -2.7999999996860536 -5.8047048442572127 
2000.0000000000000 3000.0000000000000 -1666.6666666670001 -24638414.690333329 1591093.5075024713 -40856614.820364326 3.6091261564023537e-05 0.0087765379094065666 -0.0092069566462341032 3.1999999998116966 -2.7999999997955536 -5.9612661680996961 
10000.000000000000 3000.0000000000000 -4833.3333333330002 -46505023.131797194 -20275514.939433742 -118383681.18047689 7.7592526033606795e-05 0.00048006593450809559 6.3099042473640599e-05 0.0000000000000000 -2.7999999984239454 -0.43948932250146483 
10000.000000000000 3000.0000000000000 -5000.0000000000000 -47079971.039420784 -20850462.847097777 -120422132.85335192 7.9597928607928932e-05 0.00022878244653314682 3.5212207994205817e-05 0.0000000000000000 -2.7999999984167365 0.0000000000000000 
10000.000000000000 3000.0000000000000 -4666.6666666669998 -45355075.853446260 -19125567.660971608 -114306595.37429455 7.2624632669155740e-05 0.0010207289323787352 0.00010577396134925384 0.0000000000000000 -2.7999999984442239 -0.86409969005384812 
10000.000000000000 3000.0000000000000 -4500.0000000000000 -44205025.644246817 -17975517.451611526 -110229144.63085958 6.6750007891901511e-05 0.0016252913320720084 0.00012565151958083287 0.0000000000000000 -2.7999999984751476 -1.2738297708565562 
10000.000000000000 3000.0000000000000 -4333.3333333330002 -43054872.494923845 -16825364.302097924 -106151328.91741113 6.1513959170714390e-05 0.0022718832497209984 0.00012954668390349788 0.0000000000000000 -2.7999999985147941 -1.6686782329818599 
10000.000000000000 3000.0000000000000 -4166.6666666669998 -41904616.396206506 -15675108.203173859 -102073148.20118327 5.7662184457917112e-05 0.0029432980510922884 0.00012372422802432286 0.0000000000000000 -2.7999999985616508 -2.0486437443828867 
10000.000000000000 3000.0000000000000 -4000.0000000000000 -40754257.338823393 -14524749.145577434 -97994602.449388817 5.5402213768480018e-05 0.0036257223228820558 0.00011313331685386369 0.0000000000000000 -2.7999999986145405 -2.4137249729000279 
10000.000000000000 3000.0000000000000 -3833.3333333330002 -39603795.313512497 -13374287.120052904 -93915691.629257336 5.4616955211784691e-05 0.0043078337617985657 0.00010130611249663580 0.0000000000000000 -2.7999999986725630 -2.7639205862472482 
10000.000000000000 3000.0000000000000 -3666.6666666669998 -38453230.311015502 -12223722.117345812 -89836415.708017856 5.5013259016258044e-05 0.0049800227373978604 9.0543378609958154e-05 0.0000000000000000 -2.7999999987350459 -3.0992292520192879 
10000.000000000000 3000.0000000000000 -3500.0000000000000 -37302562.322072037 -11073054.128197983 -85756774.652881444 5.6214046248172190e-05 0.0056338657430778571 8.2153371466651056e-05 0.0000000000000000 -2.7999999988015087 -3.4196496376972885 
10000.000000000000 3000.0000000000000 -3333.3333333330002 -36151791.337429419 -9922283.1433577947 -81676768.431078345 5.7823325533239232e-05 0.0062617616579135442 7.6700589925808487e-05 0.0000000000000000 -2.7999999988716353 -3.7251804106367228 
10000.000000000000 3000.0000000000000 -3166.6666666669998 -35000917.347837113 -8771409.1535749491 -77596397.009840161 5.9464750412943886e-05 0.0068565793809509164 7.4216631093520225e-05 0.0000000000000000 -2.7999999989452480 -4.0158202380738199 
10000.000000000000 3000.0000000000000 -3000.0000000000000 -33849940.344041117 -7620432.1495950986 -73515660.356381729 6.0803583186581445e-05 0.0074114024854878471 7.4370346744767862e-05 0.0000000000000000 -2.7999999990222904 -4.2915677871304005 
10000.000000000000 3000.0000000000000 -2833.3333333330002 -32698860.316794060 -6469352.1221700870 -69434558.437937975 6.1551211263161053e-05 0.0079193581184187449 7.6582456601238569e-05 0.0000000000000000 -2.7999999991028157 -4.5524217248034144 
10000.000000000000 3000.0000000000000 -2666.6666666669998 -31547677.256849743 -5318169.0620525908 -65353091.221745834 6.1463074707842036e-05 0.0083734635345274477 8.0120582650849862e-05 0.0000000000000000 -2.7999999991869733 -4.7983807179705833 
10000.000000000000 3000.0000000000000 -2500.0000000000000 -30396391.154957891 -4166882.9599907873 -61271258.675025940 6.0348959080821745e-05 0.0087664748525058921 8.4172274496431681e-05 0.0000000000000000 -2.7999999992750007 -5.0294434333944329 
10000.000000000000 3000.0000000000000 -2333.3333333330002 -29245002.001874335 -3015493.8067385484 -57189060.765019484 5.8063320515925625e-05 0.0090907570839969636 8.7881154056737874e-05 0.0000000000000000 -2.7999999993672167 -5.2456085377134434 
10000.000000000000 3000.0000000000000 -2166.6666666669998 -28093509.788355671 -1864001.5930499984 -53106497.458969563 5.4494045176823691e-05 0.0093382354500286969 9.0389322756953018e-05 0.0000000000000000 -2.7999999994640188 -5.4468746974468942 
10000.000000000000 3000.0000000000000 -2000.0000000000000 -26941914.505154222 -712406.30967433518 -49023568.724103540 4.9559307597943249e-05 0.0095002151435117435 9.0885427177002614e-05 0.0000000000000000 -2.7999999995658764 -5.6332405789980857 
10000.000000000000 3000.0000000000000 -1833.3333333329999 -25790216.143028244 439292.05263411335 -44940274.527669311 4.3201787254591420e-05 0.0095673497251903793 8.8640928724638919e-05 0.0000000000000000 -2.7999999996733314 -5.8047048486471180 
10000.000000000000 3000.0000000000000 -1666.6666666670001 -24638414.692736674 1591093.5031213225 -40856614.836916715 3.5365104384078229e-05 0.0095295742774685992 8.3062341962450095e-05 0.0000000000000000 -2.7999999997869978 -5.9612661725549092 
10000.000000000000 2000.0000000000000 -4833.3333333330002 -46505023.136231102 -20275514.936661743 -118383681.20355217 -3.1346731482052753e-05 0.00044522985774272180 5.6479486933741252e-05 0.0000000000000000 -3.1999999987768670 -0.43948932260741230 
10000.000000000000 2000.0000000000000 -5000.0000000000000 -47079971.044156358 -20850462.844594292 -120422132.87753087 -3.2225778108977469e-05 0.00021323961412360673 3.1665930988200434e-05 0.0000000000000000 -3.1999999987715202 0.0000000000000000 
10000.000000000000 2000.0000000000000 -4666.6666666669998 -45355075.857331820 -19125567.657743186 -114306595.39533557 -2.8421985729774245e-05 0.00094165921907102875 9.3973035842069821e-05 0.0000000000000000 -3.1999999987918160 -0.86409969025638711 
10000.000000000000 2000.0000000000000 -4500.0000000000000 -44205025.647683293 -17975517.448069490 -110229144.65018651 -2.3083119705997870e-05 0.0014938136560500260 0.00011053588684966187 0.0000000000000000 -3.1999999988144499 -1.2738297711478652 
10000.000000000000 2000.0000000000000 -4333.3333333330002 -43054872.497991815 -16825364.298353359 -106151328.93529530 -1.5461860919807683e-05 0.0020854635383507039 0.00011270872076037344 0.0000000000000000 -3.1999999988433170 -1.6686782333554280 
10000.000000000000 2000.0000000000000 -4166.6666666669998 -41904616.398972176 -15675108.199314903 -102073148.21785344 -6.0959607349754997e-06 0.0027038244241278280 0.00010627656431716109 0.0000000000000000 -3.1999999988773129 -2.0486437448333001 
10000.000000000000 2000.0000000000000 -4000.0000000000000 -40754257.341341898 -14524749.141675627 -97994602.465037003 4.3475250453033839e-06 0.0033384092887190518 9.5671142500310379e-05 0.0000000000000000 -3.1999999989156058 -2.4137249734227826 
10000.000000000000 2000.0000000000000 -3833.3333333330002 -39603795.315830335 -13374287.116167815 -93915691.644043952 1.5225649813811894e-05 0.0039803766564201820 8.3961814580611044e-05 0.0000000000000000 -3.1999999989575802 -2.7639205868385823 
10000.000000000000 2000.0000000000000 -3666.6666666669998 -38453230.313172281 -12223722.113528538 -89836415.722076133 2.5985575300266873e-05 0.0046220130147541540 7.3074837623514439e-05 0.0000000000000000 -3.1999999990027956 -3.0992292526760394 
10000.000000000000 2000.0000000000000 -3500.0000000000000 -37302562.324101917 -11073054.124493815 -85756774.666321248 3.6178603158092873e-05 0.0052563178585844864 6.4053534047461532e-05 0.0000000000000000 -3.1999999990509598 -3.4196496384167743 
10000.000000000000 2000.0000000000000 -3333.3333333330002 -36151791.339362085 -9922283.1398082729 -81676768.443989113 4.5465725807383893e-05 0.0058767880716299563 5.7302452342375404e-05 0.0000000000000000 -3.1999999991019061 -3.7251804114166340 
10000.000000000000 2000.0000000000000 -3166.6666666669998 -35000917.349698558 -8771409.1502195559 -77596397.022293270 5.3597019928448847e-05 0.0064771333650516776 5.2789634371729746e-05 0.0000000000000000 -3.1999999991555805 -4.0158202389121325 
10000.000000000000 2000.0000000000000 -3000.0000000000000 -33849940.345854223 -7620432.1464726534 -73515660.368432403 6.0395688222227438e-05 0.0070510419548140040 5.0202962380247377e-05 0.0000000000000000 -3.1999999992120278 -4.2915677880252909 
10000.000000000000 2000.0000000000000 -2833.3333333330002 -32698860.318579067 -6469352.1193199577 -69434558.449626833 6.5742111585045506e-05 0.0075920485634026159 4.9052330607439500e-05 0.0000000000000000 -3.1999999992713835 -4.5524217257531925 
10000.000000000000 2000.0000000000000 -2666.6666666669998 -31547677.258624628 -5318169.0595157333 -65353091.233099729 6.9552600384557148e-05 0.0080933621527631526 4.8734901539009446e-05 0.0000000000000000 -3.1999999993338699 -4.7983807189736227 
10000.000000000000 2000.0000000000000 -2500.0000000000000 -30396391.156738661 -4166882.9578107465 -61271258.686058909 7.1772031521707218e-05 0.0085476426130904320 4.8602285339620048e-05 0.0000000000000000 -3.1999999993997919 -5.0294434344491066 
10000.000000000000 2000.0000000000000 -2333.3333333330002 -29245002.003675256 -3015493.8049623729 -57189060.775733113 7.2361955255004784e-05 0.0089468558785370991 4.7985201008866272e-05 0.0000000000000000 -3.1999999994695347 -5.2456085388180664 
10000.000000000000 2000.0000000000000 -2166.6666666669998 -28093509.790189497 -1864001.5917291427 -53106497.469353311 7.1296092734405932e-05 0.0092821424010484620 4.6206765078496749e-05 0.0000000000000000 -3.1999999995435644 -5.4468746985996601 
10000.000000000000 2000.0000000000000 -2000.0000000000000 -26941914.507032417 -712406.30886562471 -49023568.734135009 6.8549793218277680e-05 0.0095434853078481471 4.2640638341374935e-05 0.0000000000000000 -3.1999999996224275 -5.6332405801970102 
10000.000000000000 2000.0000000000000 -1833.3333333329999 -25790216.144961234 439292.05286748731 -44940274.537314475 6.4095903052056774e-05 0.0097196423055434713 3.6728320597967883e-05 0.0000000000000000 -3.1999999997067601 -5.8047048498899754 
10000.000000000000 2000.0000000000000 -1666.6666666670001 -24638414.694734063 1591093.5027088132 -40856614.846129782 5.7904873283091491e-05 0.0097978511070607958 2.8030708579840332e-05 0.0000000000000000 -3.1999999997972837 -5.9612661738391788 
0.0000000000000000 1000.0000000000000 -4833.3333333330002 -46505023.144446619 -20275514.907580778 -118383681.08976811 0.00016060465352236002 0.00026387110921768117 -0.00016932055832784642 4.0000000000000000 -3.5999999993425766 -0.43948932211549729 
0.0000000000000000 2000.0000000000000 -4833.3333333330002 -46505023.141137958 -20275514.909974262 -118383681.07377818 0.00013476870450935773 0.00044722381495791637 -9.5288865075441036e-05 4.0000000000000000 -3.1999999988031251 -0.43948932204765412 
0.0000000000000000 1000.0000000000000 -5000.0000000000000 -47079971.051077306 -20850462.814033642 -120422132.75839157 0.00016819577668143910 0.00012597909915884392 -8.0965633402149749e-05 4.0000000000000000 -3.5999999993399481 0.0000000000000000 
0.0000000000000000 2000.0000000000000 -5000.0000000000000 -47079971.047551900 -20850462.816241436 -120422132.74165745 0.00013781895346713660 0.00021420574545755942 -4.3724239953615066e-05 4.0000000000000000 -3.1999999987977588 0.0000000000000000 
0.0000000000000000 1000.0000000000000 -4666.6666666669998 -45355075.867814809 -19125567.631453048 -114306595.29175505 0.00014133683404072992 0.00056069260893059031 -0.00035811620926525189 4.0000000000000000 -3.5999999993500795 -0.86409968931415637 
0.0000000000000000 2000.0000000000000 -4666.6666666669998 -45355075.864906609 -19125567.634162344 -114306595.27712622 0.00012620765919674239 0.00094547049936034334 -0.00021308589847235910 4.0000000000000000 -3.1999999988181407 -0.86409968918317437 
0.0000000000000000 1000.0000000000000 -4500.0000000000000 -44205025.659844816 -17975517.424251370 -110229144.55583951 0.00011703827759856623 0.00089444778265947915 -0.00056654234343640275 4.0000000000000000 -3.5999999993617031 -1.2738297697933774 
0.0000000000000000 2000.0000000000000 -4500.0000000000000 -44205025.657273911 -17975517.427177072 -110229144.54234022 0.00011349191727784472 0.0014986969537345934 -0.00035807625291597774 4.0000000000000000 -3.1999999988408967 -1.2738297696030501 
0.0000000000000000 1000.0000000000000 -4333.3333333330002 -43054872.511339933 -16825364.276722059 -106151328.84929413 9.2357306609396221e-05 0.0012553283985058299 -0.00078678744075077838 4.0000000000000000 -3.5999999993767444 -1.6686782316234328 
0.0000000000000000 2000.0000000000000 -4333.3333333330002 -43054872.509049602 -16825364.279785670 -106151328.83673412 9.8078611480304439e-05 0.0020898729835873197 -0.00052578168083567279 4.0000000000000000 -3.1999999988699277 -1.6686782313768804 
0.0000000000000000 1000.0000000000000 -4166.6666666669998 -41904616.413092636 -15675108.179615261 -102073148.13938874 6.9464630458670375e-05 0.0016348201055839686 -0.0010132156043358364 4.0000000000000000 -3.5999999993946061 -2.0486437427554769 
0.0000000000000000 2000.0000000000000 -4166.6666666669998 -41904616.411033079 -15675108.182754535 -102073148.12761059 8.1238346768147099e-05 0.0027053536657422727 -0.00071160450127953374 4.0000000000000000 -3.1999999989041030 -2.0486437424552810 
0.0000000000000000 1000.0000000000000 -4000.0000000000000 -40754257.355884045 -14524749.123680968 -97994602.393379048 4.9276905424750061e-05 0.0020257578174786056 -0.0012417357205994827 4.0000000000000000 -3.5999999994148064 -2.4137249710279960 
0.0000000000000000 2000.0000000000000 -4000.0000000000000 -40754257.354011916 -14524749.126845915 -97994602.382251605 6.4033607944522024e-05 0.0033340611214561448 -0.00091117536421807949 4.0000000000000000 -3.1999999989425580 -2.4137249706763084 
0.0000000000000000 1000.0000000000000 -3833.3333333330002 -39603795.330494992 -13374287.099677619 -93915691.578539133 3.2070889108811101e-05 0.0024221321478591577 -0.0014693747143111945 4.0000000000000000 -3.5999999994369767 -2.7639205841531447 
0.0000000000000000 2000.0000000000000 -3833.3333333330002 -39603795.328772604 -13374287.102827225 -93915691.567952290 4.7304207347952847e-05 0.0039667546447908660 -0.0011206006223507680 4.0000000000000000 -3.1999999989846426 -2.7639205837517746 
0.0000000000000000 1000.0000000000000 -3666.6666666669998 -38453230.327701084 -12223722.098365486 -89836415.662139729 1.7776860979244273e-05 0.0028188851852818482 -0.0016939933273908575 4.0000000000000000 -3.5999999994608456 -3.0992292497239591 
0.0000000000000000 2000.0000000000000 -3666.6666666669998 -38453230.326095715 -12223722.101465141 -89836415.652000874 3.1656759426533855e-05 0.0045954797493387711 -0.0013364568045631598 4.0000000000000000 -3.1999999990298824 -3.0992292492744360 
0.0000000000000000 1000.0000000000000 -3500.0000000000000 -37302562.338268667 -11073054.110501315 -85756774.611430556 6.1525140699907440e-06 0.0032116864390893743 -0.0019140076915418222 4.0000000000000000 -3.5999999994862342 -3.4196496352199897 
0.0000000000000000 2000.0000000000000 -3500.0000000000000 -37302562.336751878 -11073054.113520734 -85756774.601661757 1.7483037747049174e-05 0.0052132803644786441 -0.0015557314451212370 4.0000000000000000 -3.1999999990779546 -3.4196496347236147 
0.0000000000000000 1000.0000000000000 -3333.3333333330002 -36151791.352965981 -9922283.1268485673 -81676768.393677741 -3.1356187702332756e-06 0.0035967049042333792 -0.0021280827162097836 4.0000000000000000 -3.5999999995130363 -3.7251804079952353 
0.0000000000000000 2000.0000000000000 -3333.3333333330002 -36151791.351513080 -9922283.1297600828 -81676768.384213835 4.9852610113162580e-06 0.0058138330004572228 -0.0017757401994146491 4.0000000000000000 -3.1999999991286616 -3.7251804074531143 
0.0000000000000000 1000.0000000000000 -3166.6666666669998 -35000917.362558588 -8771409.1381721180 -77596396.976145864 -1.0438861813534039e-05 0.0039703571036871100 -0.0023350652701804512 4.0000000000000000 -3.5999999995412204 -4.0158202352845640 
0.0000000000000000 2000.0000000000000 -3166.6666666669998 -35000917.361148149 -8771409.1409492828 -77596396.966933146 -5.7636704040569377e-06 0.0063911127258064766 -0.0019940544434684008 4.0000000000000000 -3.1999999991819217 -4.0158202346976459 
0.0000000000000000 1000.0000000000000 -3000.0000000000000 -33849940.357804619 -7620432.1352330325 -73515660.326079950 -1.6088557685934202e-05 0.0043292111376640116 -0.0025338147055611647 4.0000000000000000 -3.5999999995708167 -4.2915677842085413 
0.0000000000000000 2000.0000000000000 -3000.0000000000000 -33849940.356417991 -7620432.1378493318 -73515660.317075074 -1.4777795028737201e-05 0.0069392534069073007 -0.0022083732192241675 4.0000000000000000 -3.1999999992377535 -4.2915677835776513 
0.0000000000000000 1000.0000000000000 -2833.3333333330002 -32698860.329465531 -6469352.1087989369 -69434558.410742998 -2.0395692451150280e-05 0.0046698308295554346 -0.0027229819904684548 4.0000000000000000 -3.5999999996019127 -4.5524217217629674 
0.0000000000000000 2000.0000000000000 -2833.3333333330002 -32698860.328086410 -6469352.1112266621 -69434558.401912212 -2.2132040564091492e-05 0.0074523217862509702 -0.0024163911251721001 4.0000000000000000 -3.1999999992962707 -4.5524217210888338 
0.0000000000000000 1000.0000000000000 -2666.6666666669998 -31547677.268301025 -5318169.0496386979 -65353091.197397351 -2.3633663350141122e-05 0.0049885877957026349 -0.0029010791240723578 4.0000000000000000 -3.5999999996346497 -4.7983807148245079 
0.0000000000000000 2000.0000000000000 -2666.6666666669998 -31547677.266915180 -5318169.0518479608 -65353091.188716337 -2.7930953093068621e-05 0.0079241934268268251 -0.0026157762657226203 4.0000000000000000 -3.1999999993576727 -4.7983807141077985 
0.0000000000000000 1000.0000000000000 -2500.0000000000000 -30396391.165064007 -4166882.9485172629 -61271258.653286695 -2.6037945542243425e-05 0.0052814850959143110 -0.0030662894012162319 4.0000000000000000 -3.5999999996692238 -5.0294434301547151 
0.0000000000000000 2000.0000000000000 -2500.0000000000000 -30396391.163658969 -4166882.9504749714 -61271258.644740425 -3.2299226974133231e-05 0.0083482310617748988 -0.0028039922076580699 4.0000000000000000 -3.1999999994222410 -5.0294434293960739 
0.0000000000000000 1000.0000000000000 -2333.3333333330002 -29245002.010511044 -3015493.7962060929 -57189060.745673366 -2.7797691204629288e-05 0.0055440543120206165 -0.0032163906101342764 4.0000000000000000 -3.5999999997058834 -5.2456085343911800 
0.0000000000000000 2000.0000000000000 -2333.3333333330002 -29245002.009075835 -3015493.7978749294 -57189060.737256207 -3.5360473474440380e-05 0.0087171594279107228 -0.0029782314811034527 4.0000000000000000 -3.1999999994903390 -5.2456085335912634 
0.0000000000000000 1000.0000000000000 -2166.6666666669998 -28093509.795397088 -1864001.5834778743 -53106497.441819593 -2.9054618669424562e-05 0.0057711888906693447 -0.0033487085428399355 4.0000000000000000 -3.5999999997449295 -5.4468746940523518 
0.0000000000000000 2000.0000000000000 -2166.6666666669998 -28093509.793921981 -1864001.5848152242 -53106497.433535591 -3.7230916622982155e-05 0.0090229527908585599 -0.0031352858585134333 4.0000000000000000 -3.1999999995624089 -5.4468746932118801 
0.0000000000000000 1000.0000000000000 -2000.0000000000000 -26941914.510470256 -712406.30110146140 -49023568.708969712 -2.9921424975972145e-05 0.0059569619340417686 -0.0034599395208947678 4.0000000000000000 -3.5999999997867209 -5.6332405755407686 
0.0000000000000000 2000.0000000000000 -2000.0000000000000 -26941914.508946627 -712406.30205826508 -49023568.700833201 -3.8031223900277261e-05 0.0092565463706463236 -0.0032713785449482789 4.0000000000000000 -3.1999999996389739 -5.6332405746605732 
0.0000000000000000 1000.0000000000000 -1833.3333333329999 -25790216.146482013 439292.06014772953 -44940274.514386863 -3.0486354294432699e-05 0.0060944348814928441 -0.0035460833826051145 4.0000000000000000 -3.5999999998316756 -5.8047048451358156 
0.0000000000000000 2000.0000000000000 -1833.3333333329999 -25790216.144902140 439292.05962829984 -44940274.506423131 -3.7886839497235456e-05 0.0094076679071211575 -0.0033820851401798312 4.0000000000000000 -3.1999999997206401 -5.8047048442168965 
0.0000000000000000 1000.0000000000000 -1666.6666666670001 -24638414.694181867 1591093.5094927859 -40856614.825334907 -3.0807754697664631e-05 0.0061754395582538368 -0.0036022826856199801 4.0000000000000000 -3.5999999998802772 -5.9612661689977475 
0.0000000000000000 2000.0000000000000 -1666.6666666670001 -24638414.692538749 1591093.5094768426 -40856614.817580998 -3.6928567518170434e-05 0.0094646069059573373 -0.0034621743826116331 4.0000000000000000 -3.1999999998081021 -5.9612661680413357 
4000.0000000000000 0.0000000000000000 -4833.3333333330002 -46505023.137809418 -20275514.919170640 -118383681.16066745 -4.8143283739817371e-05 0.00012396269209910050 -0.00025357411847991924 2.3999999984742004 -4.0000000000000000 -0.43948932243188960 
4000.0000000000000 0.0000000000000000 -5000.0000000000000 -47079971.045273051 -20850462.826541953 -120422132.83264513 -5.2434199906961434e-05 5.8400693044527715e-05 -0.00011850390148435753 2.3999999984675435 -4.0000000000000000 0.0000000000000000 
4000.0000000000000 4.7197855770000003e-30 -4666.6666666669998 -45355075.859743528 -19125567.641370639 -114306595.35644822 -3.7202589619500204e-05 0.00026822827099848290 -0.00055265015953993141 2.3999999984931022 -4.0000000000000000 -0.86409968992219166 
4000.0000000000000 7.0796783649999997e-30 -4500.0000000000000 -44205025.650757521 -17975517.432800617 -110229144.61526129 -2.3351240348268899e-05 0.00043633304718123625 -0.00090219090657523218 2.3999999985223410 -4.0000000000000000 -1.2738297706718165 
4000.0000000000000 0.0000000000000000 -4333.3333333330002 -43054872.501574293 -16825364.284161318 -106151328.90425383 -9.3430927812934058e-06 0.00062333385092491907 -0.0012887277893634795 2.3999999985603990 -4.0000000000000000 -1.6686782327540597 
4000.0000000000000 0.0000000000000000 -4166.6666666669998 -41904616.402923256 -15675108.186164407 -102073148.19058730 3.4361349512902852e-06 0.00082449684420279651 -0.0017008684994227164 2.3999999986060345 -4.0000000000000000 -2.0486437441227099 
4000.0000000000000 -6.0354824400000000e-30 -4000.0000000000000 -40754257.345534772 -14524749.129525457 -97994602.441414848 1.4389131878021664e-05 0.0010356222779758428 -0.0021285191742359826 2.3999999986582217 -4.0000000000000000 -2.4137249726185348 
4000.0000000000000 -1.8821719000000001e-29 -3833.3333333330002 -39603795.320150241 -13374287.104973324 -93915691.623917475 2.3365167791647531e-05 0.0012531048467616787 -0.0025625211936892681 2.3999999987161100 -4.0000000000000000 -2.7639205859556455 
4000.0000000000000 -2.6904576700000000e-29 -3666.6666666669998 -38453230.317516349 -12223722.103244066 -89836415.705285221 3.0447751809295538e-05 0.0014738679602664443 -0.0029944453996655802 2.3999999987790059 -4.0000000000000000 -3.0992292517287430 
4000.0000000000000 0.0000000000000000 -3500.0000000000000 -37302562.328379124 -11073054.115074784 -85756774.652697578 3.5820884481524160e-05 0.0016952421038992586 -0.0034164712063918506 2.3999999988463543 -4.0000000000000000 -3.4196496374187824 
4000.0000000000000 0.0000000000000000 -3333.3333333330002 -36151791.343493335 -9922283.1312129665 -81676768.433358729 3.9708238049552611e-05 0.0019148971594511554 -0.0038213279885361412 2.3999999989177248 -4.0000000000000000 -3.7251804103809261 
4000.0000000000000 4.6309918630000001e-29 -3166.6666666669998 -35000917.353616737 -8771409.1424105968 -77596397.014478028 4.2327722153401588e-05 0.0021307128784830830 -0.0042022073230399935 2.3999999989927963 -4.0000000000000000 -4.0158202378509831 
4000.0000000000000 0.0000000000000000 -3000.0000000000000 -33849940.349504359 -7620432.1394184362 -73515660.363250837 4.3875112490174994e-05 0.0023406379415977954 -0.0045526333653059282 2.3999999990713481 -4.0000000000000000 -4.2915677869502558 
4000.0000000000000 0.0000000000000000 -2833.3333333330002 -32698860.321918420 -6469352.1129958853 -69434558.446894288 4.4523731440981473e-05 0.0025426384699452891 -0.0048665639932628183 2.3999999991532497 -4.0000000000000000 -4.5524217246750789 
4000.0000000000000 9.6621616689999997e-29 -2666.6666666669998 -31547677.261622868 -5318169.0539054628 -65353091.232628129 4.4411950863515942e-05 0.0027346059069183414 -0.0051382524910513379 2.3999999992384486 -4.0000000000000000 -4.7983807179024680 
4000.0000000000000 1.0352316070000000e-28 -2500.0000000000000 -30396391.159378108 -4166882.9529074901 -61271258.687656075 4.3646552452276534e-05 0.0029142321016214709 -0.0053621891176363866 2.3999999993269672 -4.0000000000000000 -5.0294434333941380 
4000.0000000000000 1.1042470480000000e-28 -2333.3333333330002 -29245002.005951032 -3015493.8007701281 -57189060.779201269 4.2303755286730109e-05 0.0030789146355818483 -0.0055331586772759357 2.3999999994188879 -4.0000000000000000 -5.2456085377876596 
4000.0000000000000 1.0097419590000000e-28 -2166.6666666669998 -28093509.792109892 -1864001.5882642195 -53106497.474487767 4.0423356029611584e-05 0.0032256548177651868 -0.0056461578990941981 2.3999999995143528 -4.0000000000000000 -5.4468746976012765 
4000.0000000000000 0.0000000000000000 -2000.0000000000000 -26941914.508619241 -712406.30615822657 -49023568.740722008 3.8020698474473686e-05 0.0033509595398401558 -0.0056964320400135866 2.3999999996135530 -4.0000000000000000 -5.6332405792371318 
4000.0000000000000 3.2286888359999998e-30 -1833.3333333329999 -25790216.146250214 439292.05477145442 -44940274.545128562 3.5084007474770983e-05 0.0034506559287065721 -0.0056794930473628227 2.3999999997167252 -4.0000000000000000 -5.8047048489740103 
4000.0000000000000 0.0000000000000000 -1666.6666666670001 -24638414.695775501 1591093.5037454632 -40856614.854931474 3.1577124443705923e-05 0.0035197722064513456 -0.0055911118800372698 2.3999999998241428 -4.0000000000000000 -5.9612661729713583 
3000.0000000000000 0.0000000000000000 -4833.3333333330002 -46505023.139763772 -20275514.914681152 -118383681.13914113 -0.00011055189368949706 0.00018169392015655834 -0.00033973677286592207 2.7999999985739823 -4.0000000000000000 -0.43948932234478671 
3000.0000000000000 0.0000000000000000 -5000.0000000000000 -47079971.046998054 -20850462.821791157 -120422132.81021971 -0.00011799782706994514 8.7805177978526357e-05 -0.00015850710487200545 2.7999999985683521 -4.0000000000000000 0.0000000000000000 
3000.0000000000000 -2.3598927900000001e-30 -4666.6666666669998 -45355075.862102613 -19125567.637375280 -114306595.33661129 -9.1665100176271193e-05 0.00037923767009433889 -0.00074339553972833277 2.7999999985902195 -4.0000000000000000 -0.86409968975294771 
3000.0000000000000 -3.5398391800000000e-30 -4500.0000000000000 -44205025.653419711 -17975517.429241791 -110229144.59691112 -6.7911366434410275e-05 0.00059236933264597525 -0.0012209066388808448 2.7999999986157205 -4.0000000000000000 -1.2738297704248802 
3000.0000000000000 0.0000000000000000 -4333.3333333330002 -43054872.504449986 -16825364.280981906 -106151328.88721478 -4.3932544101156036e-05 0.00081456544538227702 -0.0017552433906696974 2.7999999986491533 -4.0000000000000000 -1.6686782324334923 
3000.0000000000000 0.0000000000000000 -4166.6666666669998 -41904616.405933917 -15675108.183310568 -102073148.17470622 -2.1911339881080675e-05 0.0010415213347936001 -0.0023299932438351854 2.7999999986893238 -4.0000000000000000 -2.0486437437322773 
3000.0000000000000 3.0177412220000001e-30 -4000.0000000000000 -40754257.348611817 -14524749.126948113 -97994602.426558837 -2.7302787905070414e-06 0.0012702724549934845 -0.0029303098145085234 2.7999999987352289 -4.0000000000000000 -2.4137249721617549 
3000.0000000000000 9.4108595180000002e-30 -3833.3333333330002 -39603795.323233582 -13374287.102628641 -93915691.609971806 1.3403935359862771e-05 0.0014986752085936852 -0.0035432370603008341 2.7999999987860611 -4.0000000000000000 -2.7639205854358040 
3000.0000000000000 1.3452288350000000e-29 -3666.6666666669998 -38453230.320552886 -12223722.101093346 -89836415.692151442 2.6622342732704810e-05 0.0017250761595095894 -0.0041575419704673886 2.7999999988411974 -4.0000000000000000 -3.0992292511489139 
3000.0000000000000 0.0000000000000000 -3500.0000000000000 -37302562.331321195 -11073054.113084100 -85756774.640291750 3.7205325119346261e-05 0.0019480224518356520 -0.0047634514094338368 2.7999999989001814 -4.0000000000000000 -3.4196496367818470 
3000.0000000000000 0.0000000000000000 -3333.3333333330002 -36151791.346297428 -9922283.1293526795 -81676768.421609998 4.5490445977947002e-05 0.0021662110295259168 -0.0053522465338152261 2.7999999989627034 -4.0000000000000000 -3.7251804096895977 
3000.0000000000000 -2.3154959300000000e-29 -3166.6666666669998 -35000917.356242418 -8771409.1406549718 -77596397.003327727 5.1813033155117595e-05 0.0023783345180549767 -0.0059160819855962280 2.7999999990285858 -4.0000000000000000 -4.0158202371078335 
3000.0000000000000 0.0000000000000000 -3000.0000000000000 -33849940.351913296 -7620432.1377451532 -73515660.352651432 5.6474672037438633e-05 0.0025829566550315810 -0.0064475745951492053 2.7999999990977638 -4.0000000000000000 -4.2915677861577421 
3000.0000000000000 0.0000000000000000 -2833.3333333330002 -32698860.324073598 -6469352.1113856388 -69434558.436808586 5.9737637351266478e-05 0.0027785297585174486 -0.0069396610241559339 2.7999999991702795 -4.0000000000000000 -4.5524217238355771 
3000.0000000000000 -4.8310808300000000e-29 -2666.6666666669998 -31547677.263487972 -5318169.0523416549 -65353091.223028809 6.1820769084285204e-05 0.0029632362346656330 -0.0073854066277630331 2.7999999992462645 -4.0000000000000000 -4.7983807170183033 
3000.0000000000000 -5.1761580399999997e-29 -2500.0000000000000 -30396391.160916887 -4166882.9513758081 -61271258.678524844 6.2886225445642956e-05 0.0031349786077261564 -0.0077776796940419099 2.7999999993259359 -4.0000000000000000 -5.0294434324676152 
3000.0000000000000 -5.5212352400000001e-29 -2333.3333333330002 -29245002.007126898 -3015493.7992583159 -57189060.770528659 6.3044217918984928e-05 0.0032912939280609790 -0.0081091691900233073 2.7999999994095921 -4.0000000000000000 -5.2456085368210950 
3000.0000000000000 0.0000000000000000 -2166.6666666669998 -28093509.792885549 -1864001.5867618015 -53106497.466272607 6.2361759307646335e-05 0.0034292535445405031 -0.0083720908273788117 2.7999999994976030 -4.0000000000000000 -5.4468746965970336 
3000.0000000000000 0.0000000000000000 -2000.0000000000000 -26941914.508956216 -712406.30465612840 -49023568.732970610 6.0856165186794820e-05 0.0035453588500621342 -0.0085581089132171408 2.7999999995904128 -4.0000000000000000 -5.6332405781976522 
3000.0000000000000 -1.6143444200000000e-30 -1833.3333333329999 -25790216.146108627 439292.05628109328 -44940274.537854485 5.8492443375658577e-05 0.0036354178091409788 -0.0086582128776748323 2.7999999996885347 -4.0000000000000000 -5.8047048479018439 
3000.0000000000000 0.0000000000000000 -1666.6666666670001 -24638414.695113849 1591093.5052695447 -40856614.848154962 5.5188681622502304e-05 0.0036944526174328141 -0.0086625285799700226 2.7999999997925542 -4.0000000000000000 -5.9612661718691928 
0.0000000000000000 10000.000000000000 -4833.3333333330002 -46505023.117931217 -20275514.911342338 -118383680.96506882 -7.8886538961416502e-06 -7.3183438355981255e-05 -0.00037055733199402096 4.0000000000000000 0.0000000000000000 -0.43948932157090281 
0.0000000000000000 10000.000000000000 -5000.0000000000000 -47079971.023028463 -20850462.816350669 -120422132.62793863 -8.6394722320594745e-06 -3.7273351585060999e-05 -0.00018368327423368724 4.0000000000000000 0.0000000000000000 0.0000000000000000 
0.0000000000000000 10000.000000000000 -4666.6666666669998 -45355075.844143644 -19125567.637787424 -114306595.17798346 -5.9388048802412813e-06 -0.00014237044335184952 -0.00074325338399394746 4.0000000000000000 0.0000000000000000 -0.86409968827224826 
0.0000000000000000 10000.000000000000 -4500.0000000000000 -44205025.638619587 -17975517.432572186 -110229144.45189869 -3.3862467935649101e-06 -0.00020644609051354883 -0.0011034983189706165 4.0000000000000000 0.0000000000000000 -1.2738297682966069 
0.0000000000000000 10000.000000000000 -4333.3333333330002 -43054872.492241949 -16825364.286526743 -106151328.75420609 -7.0151338120531244e-07 -0.00026568561694868570 -0.0014373985054343644 4.0000000000000000 0.0000000000000000 -1.6686782297099241 
0.0000000000000000 10000.000000000000 -4166.6666666669998 -41904616.395859107 -15675108.190469980 -102073148.05228272 1.8392209586745490e-06 -0.00032030770295840495 -0.0017414452795020689 4.0000000000000000 0.0000000000000000 -2.0486437404594602 
0.0000000000000000 10000.000000000000 -4000.0000000000000 -40754257.340292126 -14524749.135208774 -97994602.313480198 4.0905165032953048e-06 -0.00037050398627557645 -0.0020172319170904084 4.0000000000000000 0.0000000000000000 -2.4137249683802606 
0.0000000000000000 10000.000000000000 -3833.3333333330002 -39603795.316351064 -13374287.111548852 -93915691.505157799 5.9830797089678436e-06 -0.00041646174449625948 -0.0022684611532993748 4.0000000000000000 0.0000000000000000 -2.7639205811814942 
0.0000000000000000 10000.000000000000 -3666.6666666669998 -38453230.314833730 -12223722.110289972 -89836415.594661728 7.4900138081703370e-06 -0.00045835248096359402 -0.0024992776314261720 4.0000000000000000 0.0000000000000000 -3.0992292464536040 
0.0000000000000000 10000.000000000000 -3500.0000000000000 -37302562.326524109 -11073054.122222004 -85756774.549308807 8.6146513895477182e-06 -0.00049632699531376322 -0.0027133785669708477 4.0000000000000000 0.0000000000000000 -3.4196496316738858 
0.0000000000000000 10000.000000000000 -3333.3333333330002 -36151791.342205249 -9922283.1381363161 -81676768.336425349 9.3774219157827425e-06 -0.00053051700811295832 -0.0029137238818531183 4.0000000000000000 0.0000000000000000 -3.7251804041943752 
0.0000000000000000 10000.000000000000 -3166.6666666669998 -35000917.352655515 -8771409.1488212552 -77596396.923330307 9.8037433181860462e-06 -0.00056101295748553124 -0.0031023189612900733 4.0000000000000000 0.0000000000000000 -4.0158202312482336 
0.0000000000000000 10000.000000000000 -3000.0000000000000 -33849940.348644577 -7620432.1450575609 -73515660.277318358 9.9253099033495617e-06 -0.00058785761165242522 -0.0032803134095063546 4.0000000000000000 0.0000000000000000 -4.2915677799545433 
0.0000000000000000 10000.000000000000 -2833.3333333330002 -32698860.320944451 -6469352.1176291779 -69434558.365697771 9.7712540503444348e-06 -0.00061104002861425612 -0.0034479773883547781 4.0000000000000000 0.0000000000000000 -4.5524217173078254 
0.0000000000000000 10000.000000000000 -2666.6666666669998 -31547677.260324687 -5318169.0573183401 -65353091.155772939 9.3671568484670404e-06 -0.00063049216801952328 -0.0036047493844202447 4.0000000000000000 0.0000000000000000 -4.7983807101836451 
0.0000000000000000 10000.000000000000 -2500.0000000000000 -30396391.157547560 -4166882.9549007085 -61271258.614826806 8.7401407092620429e-06 -0.00064608171221323648 -0.0037493238283295288 4.0000000000000000 0.0000000000000000 -5.0294434253426239 
0.0000000000000000 10000.000000000000 -2333.3333333330002 -29245002.003378596 -3015493.8011560515 -57189060.710158646 7.9200878442456956e-06 -0.00065758254505583714 -0.0038796367646201061 4.0000000000000000 0.0000000000000000 -5.2456085294215740 
0.0000000000000000 10000.000000000000 -2166.6666666669998 -28093509.788581170 -1864001.5868629622 -53106497.409065239 6.9342491084833495e-06 -0.00066466646210894308 -0.0039929565814660114 4.0000000000000000 0.0000000000000000 -5.4468746889383164 
0.0000000000000000 10000.000000000000 -2000.0000000000000 -26941914.503911518 -712406.30279403366 -49023568.678823784 5.8014952851769486e-06 -0.00066692274959363816 -0.0040857422368025705 4.0000000000000000 0.0000000000000000 -5.6332405702948956 
0.0000000000000000 10000.000000000000 -1833.3333333329999 -25790216.140128981 439292.06027356902 -44940274.486729331 4.5470603189723620e-06 -0.00066385858707826678 -0.0041536226795915133 4.0000000000000000 0.0000000000000000 -5.8047048397703360 
0.0000000000000000 10000.000000000000 -1666.6666666670001 -24638414.687990308 1591093.5115634974 -40856614.800075732 3.2022879003645011e-06 -0.00065486701297008394 -0.0041913674119546142 4.0000000000000000 0.0000000000000000 -5.9612661635246607 
9000.0000000000000 0.0000000000000000 -4833.3333333330002 -46505023.140312940 -20275514.932921268 -118383681.22203185 -0.00011198137634572337 0.00012779281540004520 7.1189172182047604e-05 0.39999999964293981 -4.0000000000000000 -0.43948932268751817 
10000.000000000000 1000.0000000000000 -4833.3333333330002 -46505023.139333062 -20275514.934431322 -118383681.21910556 -6.7385494360579050e-05 0.00023820236589704548 4.4158563040212726e-05 0.0000000000000000 -3.5999999993329075 -0.43948932267643770 
10000.000000000000 0.0000000000000000 -4833.3333333330002 -46505023.140438601 -20275514.933598474 -118383681.22445846 -5.4420381081984596e-05 0.00010991629266308486 3.6341729900815939e-05 0.0000000000000000 -4.0000000000000000 -0.43948932269848023 
9000.0000000000000 0.0000000000000000 -5000.0000000000000 -47079971.048455134 -20850462.841037653 -120422132.89671782 -0.00011715066220772363 6.0388568285445386e-05 3.9663678562212634e-05 0.39999999964080835 -4.0000000000000000 0.0000000000000000 
10000.000000000000 1000.0000000000000 -5000.0000000000000 -47079971.047459006 -20850462.842546813 -120422132.89378466 -6.9534469019460790e-05 0.00011327183451231179 2.4363507206274885e-05 0.0000000000000000 -3.5999999993302971 0.0000000000000000 
10000.000000000000 0.0000000000000000 -5000.0000000000000 -47079971.048629336 -20850462.841776066 -120422132.89935093 -5.6246972918273441e-05 5.1410137073730978e-05 1.9687815908501047e-05 0.0000000000000000 -4.0000000000000000 0.0000000000000000 
9000.0000000000000 0.0000000000000000 -4666.6666666669998 -45355075.861008085 -19125567.653690465 -114306595.41254793 -9.8475383930055982e-05 0.00027541512338335924 0.00012045693381670312 0.39999999964892108 -4.0000000000000000 -0.86409969041225576 
10000.000000000000 1000.0000000000000 -4666.6666666669998 -45355075.860068008 -19125567.655196853 -114306595.40962300 -6.1282604618379289e-05 0.00050926164664927514 7.5614245870829323e-05 0.0000000000000000 -3.5999999993402771 -0.86409969038910450 
10000.000000000000 0.0000000000000000 -4666.6666666669998 -45355075.861053646 -19125567.654252872 -114306595.41459396 -4.9347861791315129e-05 0.00024030731567134902 6.4159378451403279e-05 0.0000000000000000 -4.0000000000000000 -0.86409969043207890 
9000.0000000000000 0.0000000000000000 -4500.0000000000000 -44205025.651006922 -17975517.443804055 -110229144.66639298 -8.0603363659212797e-05 0.00044607365530183326 0.00014656926551465869 0.39999999965800243 -4.0000000000000000 -1.2738297713762046 
10000.000000000000 1000.0000000000000 -4500.0000000000000 -44205025.650118396 -17975517.445296783 -110229144.66345039 -5.2117208240791028e-05 0.00081833545711553878 9.2927189682019616e-05 0.0000000000000000 -3.5999999993515690 -1.2738297713401163 
10000.000000000000 0.0000000000000000 -4500.0000000000000 -44205025.651002407 -17975517.444266818 -110229144.66811861 -4.1993671799104921e-05 0.00039536238983851717 8.2253001981348611e-05 0.0000000000000000 -4.0000000000000000 -1.2738297714032025 
9000.0000000000000 0.0000000000000000 -4333.3333333330002 -43054872.501010038 -16825364.293954939 -106151328.95070016 -6.1496897011141630e-05 0.00063476731687664087 0.00015721813595596771 0.39999999966957561 -4.0000000000000000 -1.6686782336537089 
10000.000000000000 1000.0000000000000 -4333.3333333330002 -43054872.500179119 -16825364.295425657 -106151328.94772965 -4.1002521750189715e-05 0.0011571863984123419 0.00010023528580753457 0.0000000000000000 -3.5999999993661103 -1.6686782336039592 
10000.000000000000 0.0000000000000000 -4333.3333333330002 -43054872.500977732 -16825364.294332512 -106151328.95215656 -3.3410173170494336e-05 0.00057077377636768119 9.3087386523892318e-05 0.0000000000000000 -4.0000000000000000 -1.6686782336865376 
9000.0000000000000 0.0000000000000000 -4166.6666666669998 -41904616.401729010 -15675108.194848467 -102073148.23261857 -4.2953971102928953e-05 0.00083694154946435889 0.00015797303324152905 0.39999999968315186 -4.0000000000000000 -2.0486437451995601 
10000.000000000000 1000.0000000000000 -4166.6666666669998 -41904616.400956511 -15675108.196290113 -102073148.22961466 -2.8974327583207163e-05 0.0015185415332243735 0.00010116922641804506 0.0000000000000000 -3.5999999993833680 -2.0486437451355535 
10000.000000000000 0.0000000000000000 -4166.6666666669998 -41904616.401684269 -15675108.195153806 -102073148.23384875 -2.4459770417862434e-05 0.00076222736982904291 9.8881626485873518e-05 0.0000000000000000 -4.0000000000000000 -2.0486437452371478 
9000.0000000000000 0.0000000000000000 -4000.0000000000000 -40754257.343878835 -14524749.137195233 -97994602.479292467 -2.5922568546198568e-05 0.0010485660522727700 0.00015260851669952622 0.39999999969834205 -4.0000000000000000 -2.4137249738554871 
10000.000000000000 1000.0000000000000 -4000.0000000000000 -40754257.343161494 -14524749.138601657 -97994602.476251975 -1.6850665165886743e-05 0.0018959236908615892 9.8506744977783423e-05 0.0000000000000000 -3.5999999994029257 -2.4137249737767390 
10000.000000000000 0.0000000000000000 -4000.0000000000000 -40754257.343831435 -14524749.137439545 -97994602.480332255 -1.5744565108846813e-05 0.00096563252874723275 0.00010138551142110136 0.0000000000000000 -4.0000000000000000 -2.4137249738969766 
9000.0000000000000 0.0000000000000000 -3833.3333333330002 -39603795.318186469 -13374287.111719668 -93915691.657895505 -1.0832676590863206e-05 0.0012661684276203912 0.00014353884893076373 0.39999999971483424 -4.0000000000000000 -2.7639205873365325 
10000.000000000000 1000.0000000000000 -3833.3333333330002 -39603795.317518182 -13374287.113085249 -93915691.654816240 -5.2098427715198215e-06 0.0022835976181810234 9.4171095750974115e-05 0.0000000000000000 -3.5999999994244694 -2.7639205872426436 
10000.000000000000 0.0000000000000000 -3833.3333333330002 -39603795.318141982 -13374287.111912424 -93915691.658774555 -7.6355715601308814e-06 0.0011772743193592394 0.00010184474213637340 0.0000000000000000 -4.0000000000000000 -2.7639205873812323 
9000.0000000000000 0.0000000000000000 -3666.6666666669998 -38453230.315384179 -12223722.109153342 -89836415.735610366 2.1926142128978594e-06 0.0014868349515975978 0.00013221831607674708 0.39999999973237799 -4.0000000000000000 -3.0992292532382981 
10000.000000000000 1000.0000000000000 -3666.6666666669998 -38453230.314757109 -12223722.110472716 -89836415.732490480 5.5665963859601077e-06 0.0026765216362227579 8.9375410433303599e-05 0.0000000000000000 -3.5999999994477729 -3.0992292531289349 
10000.000000000000 0.0000000000000000 -3666.6666666669998 -38453230.315345228 -12223722.109302461 -89836415.736353144 -3.3952829688177933e-07 0.0013939493463732632 0.00010107780240288569 0.0000000000000000 -4.0000000000000000 -3.0992292532856482 
9000.0000000000000 0.0000000000000000 -3500.0000000000000 -37302562.326203436 -11073054.120228816 -85756774.679609284 1.3204125841919890e-05 0.0017080067515565208 0.00011942445272569770 0.39999999975076955 -4.0000000000000000 -3.4196496390426150 
10000.000000000000 1000.0000000000000 -3500.0000000000000 -37302562.325608924 -11073054.121496562 -85756774.676446974 1.5244090137647199e-05 0.0030701066315648572 8.4773327687224736e-05 0.0000000000000000 -3.5999999994726894 -3.4196496389174920 
10000.000000000000 0.0000000000000000 -3500.0000000000000 -37302562.326170698 -11073054.120340884 -85756774.680235863 6.0489469349563807e-06 0.0016127910003516477 9.9540895834557779e-05 0.0000000000000000 -4.0000000000000000 -3.4196496390921562 
9000.0000000000000 0.0000000000000000 -3333.3333333330002 -36151791.341384381 -9922283.1356889587 -81676768.457088932 2.2347381333698371e-05 0.0019274137791985182 0.00010551512335493751 0.39999999976984035 -4.0000000000000000 -3.7251804121054959 
10000.000000000000 1000.0000000000000 -3333.3333333330002 -36151791.340813525 -9922283.1368993465 -81676768.453882560 2.3708959024837616e-05 0.0034601613602122322 8.0618679681193441e-05 0.0000000000000000 -3.5999999994991421 -3.7251804119643634 
10000.000000000000 0.0000000000000000 -3333.3333333330002 -36151791.341357350 -9922283.1357694641 -81676768.457615823 1.1516565438161919e-05 0.0018312494066358644 9.7425757364761614e-05 0.0000000000000000 -4.0000000000000000 -3.7251804121568513 
9000.0000000000000 0.0000000000000000 -3166.6666666669998 -35000917.351670101 -8771409.1462810747 -77596397.035251290 2.9808998709456656e-05 0.0021429871912643870 9.0597935863232884e-05 0.39999999978944806 -4.0000000000000000 -4.0158202396635811 
10000.000000000000 1000.0000000000000 -3166.6666666669998 -35000917.351114199 -8771409.1474278402 -77596397.031999573 3.0921441099261478e-05 0.0038427121545509518 7.6900288357463178e-05 0.0000000000000000 -3.5999999995271144 -4.0158202395062155 
10000.000000000000 0.0000000000000000 -3166.6666666669998 -35000917.351647615 -8771409.1463346295 -77596397.035692230 1.6098548508975996e-05 0.0020470013621383854 9.4751285548271214e-05 0.0000000000000000 -4.0000000000000000 -4.0158202397164384 
9000.0000000000000 0.0000000000000000 -3000.0000000000000 -33849940.347800910 -7620432.1427512020 -73515660.381284177 3.5782143138526792e-05 0.0023526746685802874 7.4641987433795068e-05 0.39999999980947060 -4.0000000000000000 -4.2915677888389840 
10000.000000000000 1000.0000000000000 -3000.0000000000000 -33849940.347251683 -7620432.1438272549 -73515660.377986491 3.6887153161364106e-05 0.0042138095360063311 7.3446567058177867e-05 0.0000000000000000 -3.5999999995566507 -4.2915677886651826 
10000.000000000000 0.0000000000000000 -3000.0000000000000 -33849940.347781442 -7620432.1427816488 -73515660.381650478 1.9850786436131374e-05 0.0022577808176669429 9.1429263986497940e-05 0.0000000000000000 -4.0000000000000000 -4.2915677888930865 
9000.0000000000000 0.0000000000000000 -2833.3333333330002 -32698860.320524432 -6469352.1158540696 -69434558.462397397 4.0448999604945052e-05 0.0025544287797690602 5.7540947660171569e-05 0.39999999982980111 -4.0000000000000000 -4.5524217266288369 
10000.000000000000 1000.0000000000000 -2833.3333333330002 -32698860.319974154 -6469352.1168512469 -69434558.459054247 4.1641726138074261e-05 0.0045694701169142230 6.9983889426909277e-05 0.0000000000000000 -3.5999999995878507 -4.5524217264384168 
10000.000000000000 0.0000000000000000 -2833.3333333330002 -32698860.320506390 -6469352.1158647155 -69434558.462698624 2.2839507476053119e-05 0.0024613631036716106 8.7301158660444967e-05 0.0000000000000000 -4.0000000000000000 -4.5524217266839688 
9000.0000000000000 0.0000000000000000 -2666.6666666669998 -31547677.260590144 -5318169.0563476291 -65353091.245803915 4.3969997537500003e-05 0.0027461223334986433 3.9151917918424794e-05 0.39999999985034423 -4.0000000000000000 -4.7983807199109378 
10000.000000000000 1000.0000000000000 -2666.6666666669998 -31547677.260031659 -5318169.0572563745 -65353091.242417172 4.5227706077758943e-05 0.0049055338824122996 6.6162423913548396e-05 0.0000000000000000 -3.5999999996208656 -4.7983807197037409 
10000.000000000000 0.0000000000000000 -2666.6666666669998 -31547677.260572001 -5318169.0563413836 -65353091.246048346 2.5126447833388655e-05 0.0026554748392651028 8.2147060376904700e-05 0.0000000000000000 -4.0000000000000000 -4.7983807199669251 
9000.0000000000000 0.0000000000000000 -2500.0000000000000 -30396391.158743836 -4166882.9549875315 -61271258.698700324 4.6480259519957731e-05 0.0029254118256623464 1.9352293660886210e-05 0.39999999987101459 -4.0000000000000000 -5.0294434354477753 
10000.000000000000 1000.0000000000000 -2500.0000000000000 -30396391.158170559 -4166882.9557965957 -61271258.695273921 4.7688128502742377e-05 0.0052174711502427943 6.1624840643535094e-05 0.0000000000000000 -3.5999999996559007 -5.0294434352236710 
10000.000000000000 0.0000000000000000 -2500.0000000000000 -30396391.158724122 -4166882.9549669400 -61271258.698895067 2.6768067114097600e-05 0.0028376672383111212 7.5755377528495847e-05 0.0000000000000000 -4.0000000000000000 -5.0294434355044775 
9000.0000000000000 0.0000000000000000 -2333.3333333330002 -29245002.005737893 -3015493.8025374645 -57189060.788303554 4.8084053919546666e-05 0.0030896728704738552 -1.9705804944290451e-06 0.39999999989173540 -4.0000000000000000 -5.2456085398776837 
10000.000000000000 1000.0000000000000 -2333.3333333330002 -29245002.005143825 -3015493.8032335644 -57189060.784844041 4.9057704406629463e-05 0.0055002630696780047 5.6004985325293133e-05 0.0000000000000000 -3.5999999996932135 -5.2456085396365806 
10000.000000000000 0.0000000000000000 -2333.3333333330002 -29245002.005715340 -3015493.8025049130 -57189060.788455144 2.7809070606273131e-05 0.0030052102441917340 6.7912518954650028e-05 0.0000000000000000 -4.0000000000000000 -5.2456085399349890 
9000.0000000000000 0.0000000000000000 -2166.6666666669998 -28093509.792325936 -1864001.5897638910 -53106497.481832013 4.8851486598438094e-05 0.0032358475679072928 -2.4910739090452235e-05 0.39999999991243779 -4.0000000000000000 -5.4468746997196700 
10000.000000000000 1000.0000000000000 -2166.6666666669998 -28093509.791705545 -1864001.5903311770 -53106497.478348799 4.9361789234693757e-05 0.0057482485723867821 4.8935440060718414e-05 0.0000000000000000 -3.5999999997331176 -5.4468746994615334 
10000.000000000000 0.0000000000000000 -2166.6666666669998 -28093509.792299438 -1864001.5897215947 -53106497.481946297 2.8279486322184730e-05 0.0031549731675907453 5.8403865946633413e-05 0.0000000000000000 -4.0000000000000000 -5.4468746997775002 
9000.0000000000000 0.0000000000000000 -2000.0000000000000 -26941914.509257581 -712406.30743091227 -49023568.746486954 4.8822673592445427e-05 0.0033603809901119638 -4.9498564226996294e-05 0.39999999993306079 -4.0000000000000000 -5.6332405813766355 
10000.000000000000 1000.0000000000000 -2000.0000000000000 -26941914.508605916 -712406.30785055482 -49023568.742993221 4.8613133609948629e-05 0.0059549075042284539 4.0101844540091453e-05 0.0000000000000000 -3.5999999997759828 -5.6332405811015001 
10000.000000000000 0.0000000000000000 -2000.0000000000000 -26941914.509226356 -712406.30738106999 -49023568.746569514 2.8201337118461012e-05 0.0032833527581221074 4.7068843274904316e-05 0.0000000000000000 -4.0000000000000000 -5.6332405814349400 
9000.0000000000000 0.0000000000000000 -1833.3333333329999 -25790216.147288594 439292.05368940951 -44940274.549488448 4.8001495978761408e-05 0.0034590928767495219 -7.5675749488560905e-05 0.39999999995355279 -4.0000000000000000 -5.8047048511281352 
10000.000000000000 1000.0000000000000 -1833.3333333329999 -25790216.146601424 439292.05343972263 -44940274.546002135 4.6798584221586115e-05 0.0061127168518243730 2.9248200412337206e-05 0.0000000000000000 -3.5999999998222436 -5.8047048508361332 
10000.000000000000 0.0000000000000000 -1833.3333333329999 -25790216.147252306 439292.05374451523 -44940274.549544767 2.7569047852014702e-05 0.0033861141287652701 3.3809583919589792e-05 0.0000000000000000 -4.0000000000000000 -5.8047048511868908 
9000.0000000000000 0.0000000000000000 -1666.6666666670001 -24638414.697175745 1591093.5028219917 -40856614.858056940 4.6359331680951159e-05 0.0035269539905243234 -0.00010325330238451319 0.39999999997387287 -4.0000000000000000 -5.9612661751343863 
10000.000000000000 1000.0000000000000 -1666.6666666670001 -24638414.696449608 1591093.5027688523 -40856614.854601145 4.3893125826090163e-05 0.0062128344798955092 1.6225318792450728e-05 0.0000000000000000 -3.5999999998724022 -5.9612661748257745 
10000.000000000000 0.0000000000000000 -1666.6666666670001 -24638414.697134655 1591093.5028799435 -40856614.858092271 2.6364157370331475e-05 0.0034581692498065779 1.8630670190076618e-05 0.0000000000000000 -4.0000000000000000 -5.9612661751936002 
0.0000000000000000 0.0000000000000000 -4833.3333333330002 -46505023.145674288 -20275514.906647470 -118383681.09548694 0.00012181186368778502 0.00013607055943482254 -0.00021741689596085155 4.0000000000000000 -4.0000000000000000 -0.43948932213643621 
0.0000000000000000 0.0000000000000000 -5000.0000000000000 -47079971.052383512 -20850462.813166052 -120422132.76436147 0.00012881393791808581 6.4473579074583550e-05 -0.00010533124083356025 4.0000000000000000 -4.0000000000000000 0.0000000000000000 
0.0000000000000000 0.0000000000000000 -4666.6666666669998 -45355075.868894637 -19125567.630406380 -114306595.29701647 0.00010442544323986692 0.00029216483888487652 -0.00045123167631992434 4.0000000000000000 -4.0000000000000000 -0.86409968935577774 
0.0000000000000000 0.0000000000000000 -4500.0000000000000 -44205025.660796538 -17975517.423124716 -110229144.56072417 8.3371953333350561e-05 0.00047138179170240794 -0.00069828113819305512 4.0000000000000000 -4.0000000000000000 -1.2738297698553656 
0.0000000000000000 0.0000000000000000 -4333.3333333330002 -43054872.512184218 -16825364.275543194 -106151328.85386738 6.3047744908634147e-05 0.00066825628493990901 -0.00094894441753539554 4.0000000000000000 -4.0000000000000000 -1.6686782317054027 
0.0000000000000000 0.0000000000000000 -4166.6666666669998 -41904616.413848907 -15675108.178406671 -102073148.14370438 4.5194706507281079e-05 0.00087764235738444722 -0.0011976268409016515 4.0000000000000000 -4.0000000000000000 -2.0486437428570032 
0.0000000000000000 0.0000000000000000 -4000.0000000000000 -40754257.356569767 -14524749.122460822 -97994602.397482112 3.0314837065506714e-05 0.0010950914614259732 -0.0014411328584691253 4.0000000000000000 -4.0000000000000000 -2.4137249711486426 
0.0000000000000000 0.0000000000000000 -3833.3333333330002 -39603795.331125543 -13374287.098460790 -93915691.582467884 1.8345233972637924e-05 0.0013168837893905833 -0.0016776115991046711 4.0000000000000000 -4.0000000000000000 -2.7639205842924839 
0.0000000000000000 0.0000000000000000 -3666.6666666669998 -38453230.328289807 -12223722.097164389 -89836415.665926725 8.9738836167926759e-06 0.0015399854914337882 -0.0019060819625970060 4.0000000000000000 -4.0000000000000000 -3.0992292498815903 
0.0000000000000000 0.0000000000000000 -3500.0000000000000 -37302562.338827044 -11073054.109326724 -85756774.615103602 1.8081515124535410e-06 0.0017618441379124319 -0.0021260500315373782 4.0000000000000000 -4.0000000000000000 -3.4196496353955514 
0.0000000000000000 0.0000000000000000 -3333.3333333330002 -36151791.353503928 -9922283.1257103030 -81676768.397260502 -3.5589547286421588e-06 0.0019802628308486299 -0.0023370999266344719 4.0000000000000000 -4.0000000000000000 -3.7251804081884092 
0.0000000000000000 0.0000000000000000 -3166.6666666669998 -35000917.363084570 -8771409.1370795891 -77596396.979658037 -7.5056561461224995e-06 0.0021932472936541086 -0.0025388177126070156 4.0000000000000000 -4.0000000000000000 -4.0158202354950774 
0.0000000000000000 0.0000000000000000 -3000.0000000000000 -33849940.358325928 -7620432.1341957971 -73515660.329537809 -1.0352158965621647e-05 0.0023989436072656915 -0.0027306736189467509 4.0000000000000000 -4.0000000000000000 -4.2915677844361708 
0.0000000000000000 0.0000000000000000 -2833.3333333330002 -32698860.329988524 -6469352.1078271810 -69434558.414159566 -1.2376623252703509e-05 0.0025955471749321453 -0.0029117999506568255 4.0000000000000000 -4.0000000000000000 -4.5524217220075256 
0.0000000000000000 0.0000000000000000 -2666.6666666669998 -31547677.268831186 -5318169.0487436084 -65353091.200782195 -1.3823411069757938e-05 0.0027810963238907734 -0.0030810575733952574 4.0000000000000000 -4.0000000000000000 -4.7983807150858437 
0.0000000000000000 0.0000000000000000 -2500.0000000000000 -30396391.165606089 -4166882.9477114608 -61271258.656645939 -1.4886173588627694e-05 0.0029534399237144153 -0.0032368876688233772 4.0000000000000000 -4.0000000000000000 -5.0294434304326963 
0.0000000000000000 0.0000000000000000 -2333.3333333330002 -29245002.011069246 -3015493.7955041369 -57189060.749009624 -1.5710628247812562e-05 0.0031101655690261446 -0.0033772167836010228 4.0000000000000000 -4.0000000000000000 -5.2456085346856849 
0.0000000000000000 0.0000000000000000 -2166.6666666669998 -28093509.795975167 -1864001.5828967467 -53106497.445131838 -1.6405917325434156e-05 0.0032484570557915603 -0.0034995156495761211 4.0000000000000000 -4.0000000000000000 -5.4468746943632587 
0.0000000000000000 0.0000000000000000 -2000.0000000000000 -26941914.511071585 -712406.30066108808 -49023568.712252729 -1.7057077375082405e-05 0.0033649901823804857 -0.0036005937574662993 4.0000000000000000 -4.0000000000000000 -5.6332405758679291 
0.0000000000000000 0.0000000000000000 -1833.3333333329999 -25790216.147109687 439292.06042381166 -44940274.517630965 -1.7728316271316388e-05 0.0034557870043568912 -0.0036764834660887574 4.0000000000000000 -4.0000000000000000 -5.8047048454790335 
0.0000000000000000 0.0000000000000000 -1666.6666666670001 -24638414.694838718 1591093.5095767356 -40856614.828525178 -1.8448516449058869e-05 0.0035161146348703853 -0.0037223910966219060 4.0000000000000000 -4.0000000000000000 -5.9612661693567510 
9000.0000000000000 10000.000000000000 -4833.3333333330002 -46505023.112279281 -20275514.937278129 -118383681.08513653 1.5836561912679542e-05 -7.2686601460719013e-05 0.00012748018907785501 0.39999999968304040 0.0000000000000000 -0.43948932210065278 
9000.0000000000000 10000.000000000000 -5000.0000000000000 -47079971.018743441 -20850462.843839418 -120422132.75367367 1.5845556430574361e-05 -3.7125370763439862e-05 6.5359943510741089e-05 0.39999999968156108 0.0000000000000000 0.0000000000000000 
9000.0000000000000 10000.000000000000 -4666.6666666669998 -45355075.836111754 -19125567.660826519 -114306595.28733568 1.5793686076894551e-05 -0.00014074811489936964 0.00024541690827497014 0.39999999968733052 0.0000000000000000 -0.86409968928480263 
9000.0000000000000 10000.000000000000 -4500.0000000000000 -44205025.628841281 -17975517.453101769 -110229144.55170245 1.5681575712011038e-05 -0.00020282953060160036 0.00035107257140594504 0.39999999969414163 0.0000000000000000 -1.2738297697501941 
9000.0000000000000 10000.000000000000 -4333.3333333330002 -43054872.481224172 -16825364.304878708 -106151328.84549662 1.5467616578113205e-05 -0.00025923605120124998 0.00044515185433975131 0.39999999970319527 0.0000000000000000 -1.6686782315673843 
9000.0000000000000 10000.000000000000 -4166.6666666669998 -41904616.384017199 -15675108.206931770 -102073148.13597786 1.5131549313397050e-05 -0.00031030082794797061 0.00052846338367523336 0.39999999971422545 0.0000000000000000 -2.0486437426877684 
9000.0000000000000 10000.000000000000 -4000.0000000000000 -40754257.327972591 -14524749.150029834 -97994602.390387714 1.4664014898084716e-05 -0.00035636579832251842 0.00060184644409104612 0.39999999972698008 0.0000000000000000 -2.4137249709500237 
9000.0000000000000 10000.000000000000 -3833.3333333330002 -39603795.303848259 -13374287.124946559 -93915691.575985998 1.4065978394304634e-05 -0.00039778019678620347 0.00066614382642681479 0.39999999974121997 0.0000000000000000 -2.7639205840664447 
9000.0000000000000 10000.000000000000 -3666.6666666669998 -38453230.302402660 -12223722.122455101 -89836415.660032526 1.3347690983586482e-05 -0.00043487760157659791 0.00072220400775153959 0.39999999975672090 0.0000000000000000 -3.0992292496301643 
9000.0000000000000 10000.000000000000 -3500.0000000000000 -37302562.314389639 -11073054.133323034 -85756774.609768689 1.2523142595345977e-05 -0.00046796075060052207 0.00077082250474633869 0.39999999977327333 0.0000000000000000 -3.4196496351207948 
9000.0000000000000 10000.000000000000 -3333.3333333330002 -36151791.330568813 -9922283.1483227275 -81676768.392454460 1.1608010282000335e-05 -0.00049728930805656034 0.00081271421321869484 0.39999999979068235 0.0000000000000000 -3.7251804078923634 
9000.0000000000000 10000.000000000000 -3166.6666666669998 -35000917.341700323 -8771409.1582260877 -77596396.975349635 1.0621157883858487e-05 -0.00052307449063587145 0.00084851619914544482 0.39999999980876738 0.0000000000000000 -4.0158202351797412 
9000.0000000000000 10000.000000000000 -3000.0000000000000 -33849940.338539623 -7620432.1537994482 -73515660.325695649 9.5802168777200436e-06 -0.00054547333269256196 0.00087875299809351594 0.39999999982736217 0.0000000000000000 -4.2915677841034752 
9000.0000000000000 10000.000000000000 -2833.3333333330002 -32698860.311847869 -6469352.1258140011 -69434558.410752460 8.4983614030720136e-06 -0.00056456097021478923 0.00090379709627290959 0.39999999984631368 0.0000000000000000 -4.5524217216593250 
9000.0000000000000 10000.000000000000 -2666.6666666669998 -31547677.252386630 -5318169.0650405623 -65353091.197779894 7.3858391699975725e-06 -0.00058033547307829634 0.00092388424655868301 0.39999999986548052 0.0000000000000000 -4.7983807147238977 
9000.0000000000000 10000.000000000000 -2500.0000000000000 -30396391.150912691 -4166882.9622444850 -61271258.654019438 6.2501450315013182e-06 -0.00059272635703324305 0.00093909718046394669 0.39999999988473312 0.0000000000000000 -5.0294434300586710 
9000.0000000000000 10000.000000000000 -2333.3333333330002 -29245001.998188414 -3015493.8081960729 -57189060.746731050 5.0948962348416067e-06 -0.00060156446543432657 0.00094934368248373777 0.39999999990395113 0.0000000000000000 -5.2456085343011392 
9000.0000000000000 10000.000000000000 -2166.6666666669998 -28093509.784976415 -1864001.5936653928 -53106497.443174593 3.9200580655533876e-06 -0.00060659373050154196 0.00095434843913862720 0.39999999992302299 0.0000000000000000 -5.4468746939696455 
9000.0000000000000 10000.000000000000 -2000.0000000000000 -26941914.502034355 -712406.30941716372 -49023568.710591495 2.7208260416735443e-06 -0.00060746964588371914 0.00095364674871364994 0.39999999994184343 0.0000000000000000 -5.6332405754665960 
9000.0000000000000 10000.000000000000 -1833.3333333329999 -25790216.140125304 439292.05377877841 -44940274.516241692 1.4872961263229130e-06 -0.00060373796586276718 0.00094657900860125785 0.39999999996031183 0.0000000000000000 -5.8047048450712211 
9000.0000000000000 10000.000000000000 -1666.6666666670001 -24638414.690012392 1591093.5051527070 -40856614.827384889 2.0721932050810382e-07 -0.00059484223144969821 0.00093228046759123435 0.39999999997833124 0.0000000000000000 -5.9612661689435944 
5000.0000000000000 10000.000000000000 -4833.3333333330002 -46505023.109171361 -20275514.927568257 -118383681.04540971 5.4094689970872314e-05 -7.3380651231938281e-05 -8.1728910759574515e-05 1.9999999985957866 0.0000000000000000 -0.43948932194134688 
5000.0000000000000 10000.000000000000 -5000.0000000000000 -47079971.015158735 -20850462.833607372 -120422132.71205387 5.4685280221898870e-05 -3.7533078269682607e-05 -3.3869150470171483e-05 1.9999999985894625 0.0000000000000000 0.0000000000000000 
5000.0000000000000 10000.000000000000 -4666.6666666669998 -45355075.833879597 -19125567.652125321 -114306595.25130655 5.2389605705156390e-05 -0.00014182093072731826 -0.00020139883814626700 1.9999999986138566 0.0000000000000000 -0.86409968898008860 
5000.0000000000000 10000.000000000000 -4500.0000000000000 -44205025.627335101 -17975517.445338909 -110229144.51919295 4.9749785867680299e-05 -0.00020398072474874207 -0.00036181734055695867 1.9999999986420123 0.0000000000000000 -1.2738297693135201 
5000.0000000000000 10000.000000000000 -4333.3333333330002 -43054872.480306372 -16825364.297986165 -106151328.81632672 4.6413597332719520e-05 -0.00026033542359496297 -0.00055027336773270344 1.9999999986788564 0.0000000000000000 -1.6686782310117105 
5000.0000000000000 10000.000000000000 -4166.6666666669998 -41904616.383563057 -15675108.200844262 -102073148.10996719 4.2623117950863528e-05 -0.00031136956829772217 -0.00075672795981874337 1.9999999987232073 0.0000000000000000 -2.0486437420255319 
5000.0000000000000 10000.000000000000 -4000.0000000000000 -40754257.327870049 -14524749.144684907 -97994602.367356256 3.8585537535325100e-05 -0.00035754484735641735 -0.00097296087729165852 1.9999999987740611 0.0000000000000000 -2.4137249701931114 
5000.0000000000000 10000.000000000000 -3833.3333333330002 -39603795.303997554 -13374287.120284565 -93915691.555754870 3.4462760879657528e-05 -0.00039927528630993045 -0.0011919460408685654 1.9999999988305615 0.0000000000000000 -2.7639205832261675 
5000.0000000000000 10000.000000000000 -3666.6666666669998 -38453230.302716002 -12223722.118419312 -89836415.642424718 3.0372664421389343e-05 -0.00043691913843759209 -0.0014074883348879621 1.9999999988919803 0.0000000000000000 -3.0992292487172373 
5000.0000000000000 10000.000000000000 -3500.0000000000000 -37302562.314790927 -11073054.129859645 -85756774.594609559 2.6396809796158829e-05 -0.00047077712820724958 -0.0016140955977198515 1.9999999989577004 0.0000000000000000 -3.4196496341453222 
5000.0000000000000 10000.000000000000 -3333.3333333330002 -36151791.330993295 -9922283.1453807801 -81676768.379571766 2.2594529231908603e-05 -0.00050109077803805156 -0.0018068078960266191 1.9999999990272033 0.0000000000000000 -3.7251804068638283 
5000.0000000000000 10000.000000000000 -3166.6666666669998 -35000917.342094414 -8771409.1557574831 -77596396.964573622 1.8998305053587256e-05 -0.00052803043875289824 -0.0019811472582176378 1.9999999991000574 0.0000000000000000 -4.0158202341069948 
5000.0000000000000 10000.000000000000 -3000.0000000000000 -33849940.338860884 -7620432.1517590433 -73515660.316859514 1.5616366325135225e-05 -0.00055169674758597366 -0.0021331096345791624 1.9999999991759090 0.0000000000000000 -4.2915677829947265 
5000.0000000000000 10000.000000000000 -2833.3333333330002 -32698860.312064823 -6469352.1241595102 -69434558.403691947 1.2447352239522497e-05 -0.00057211787879711366 -0.0022591991535084420 1.9999999992544744 0.0000000000000000 -4.5524217205221387 
5000.0000000000000 10000.000000000000 -2666.6666666669998 -31547677.252478767 -5318169.0637325812 -65353091.192333266 9.4842591534249475e-06 -0.00058923206146720554 -0.0023564140690982669 1.9999999993355313 0.0000000000000000 -4.7983807135651837 
5000.0000000000000 10000.000000000000 -2500.0000000000000 -30396391.150870543 -4166882.9612465319 -61271258.650027491 6.7101828580857994e-06 -0.00060290151388446046 -0.0024222538151162693 1.9999999994189119 0.0000000000000000 -5.0294434288846794 
5000.0000000000000 10000.000000000000 -2333.3333333330002 -29245001.998013541 -3015493.8074745452 -57189060.744036771 4.1002521750189712e-06 -0.00061291079807876945 -0.0024547819909303097 1.9999999995044955 0.0000000000000000 -5.2456085331174549 
5000.0000000000000 10000.000000000000 -2166.6666666669998 -28093509.784681559 -1864001.5931896353 -53106497.441623136 1.6243661915783888e-06 -0.00061895711365727495 -0.0024526503144893632 1.9999999995922009 0.0000000000000000 -5.4468746927811802 
5000.0000000000000 10000.000000000000 -2000.0000000000000 -26941914.501643542 -712406.30915942229 -49023568.710029818 -7.5213054269676719e-07 -0.00062064634035535542 -0.0024151253385758234 1.9999999996819797 0.0000000000000000 -5.6332405742775826 
5000.0000000000000 10000.000000000000 -1833.3333333329999 -25790216.139674053 439292.05384331255 -44940274.516518384 -3.0679741636341063e-06 -0.00061747793030143459 -0.0023421002814951928 1.9999999997738105 0.0000000000000000 -5.8047048438852054 
5000.0000000000000 10000.000000000000 -1666.6666666670001 -24638414.689548053 1591093.5050457595 -40856614.828350402 -5.3614425761225626e-06 -0.00060884828226298452 -0.0022342394114791228 1.9999999998676909 0.0000000000000000 -5.9612661677634273 
10000.000000000000 10000.000000000000 -4833.3333333330002 -46505023.112634644 -20275514.937658280 -118383681.08640847 1.0003958995370027e-05 -7.3157242820653454e-05 6.8369340486047433e-05 0.0000000000000000 0.0000000000000000 -0.43948932210524805 
10000.000000000000 10000.000000000000 -5000.0000000000000 -47079971.019117892 -20850462.844238833 -120422132.75501390 1.0041658904415854e-05 -3.7367358356420198e-05 3.4952467423798194e-05 0.0000000000000000 0.0000000000000000 0.0000000000000000 
10000.000000000000 10000.000000000000 -4666.6666666669998 -45355075.836429864 -19125567.661168743 -114306595.28847313 9.8848258942066133e-06 -0.00014164427922901121 0.00013214457561008488 0.0000000000000000 0.0000000000000000 -0.86409968929349612 
10000.000000000000 10000.000000000000 -4500.0000000000000 -44205025.629124098 -17975517.453407317 -110229144.55270979 9.6748415665571667e-06 -0.00020407999423300302 0.00018990870950896501 0.0000000000000000 0.0000000000000000 -1.2738297697625045 
10000.000000000000 10000.000000000000 -4333.3333333330002 -43054872.481473982 -16825364.305148948 -106151328.84637858 9.3738740974544888e-06 -0.00026075899561173421 0.00024190958957736881 0.0000000000000000 0.0000000000000000 -1.6686782315828474 
10000.000000000000 10000.000000000000 -4166.6666666669998 -41904616.384236515 -15675108.207168184 -102073148.13673961 8.9901438722227549e-06 -0.00031200669676059668 0.00028845087712688690 0.0000000000000000 0.0000000000000000 -2.0486437427059387 
10000.000000000000 10000.000000000000 -4000.0000000000000 -40754257.328163996 -14524749.150234003 -97994602.391034722 8.5334056555414093e-06 -0.00035815988353373314 0.00032986630313873748 0.0000000000000000 0.0000000000000000 -2.4137249709704758 
10000.000000000000 10000.000000000000 -3833.3333333330002 -39603795.304014333 -13374287.125120156 -93915691.576524109 8.0152158928260642e-06 -0.00039956721413233380 0.00036650993432776598 0.0000000000000000 0.0000000000000000 -2.7639205840887735 
10000.000000000000 10000.000000000000 -3666.6666666669998 -38453230.302545875 -12223722.122599877 -89836415.660467878 7.4489049386564623e-06 -0.00043656705739014771 0.00039873717738716868 0.0000000000000000 0.0000000000000000 -3.0992292496539879 
10000.000000000000 10000.000000000000 -3500.0000000000000 -37302562.314512298 -11073054.133440793 -85756774.610107750 6.8460882530388009e-06 -0.00046947251001036670 0.00042688935882311690 0.0000000000000000 0.0000000000000000 -3.4196496351457526 
10000.000000000000 10000.000000000000 -3333.3333333330002 -36151791.330672964 -9922283.1484153084 -81676768.392703980 6.2168226164984740e-06 -0.00049855067897288210 0.00045127926985150980 0.0000000000000000 0.0000000000000000 -3.7251804079181210 
10000.000000000000 10000.000000000000 -3166.6666666669998 -35000917.341787681 -8771409.1582953427 -77596396.975516587 5.5717306553412114e-06 -0.00052402590303664222 0.00047218987501987451 0.0000000000000000 0.0000000000000000 -4.0158202352059886 
10000.000000000000 10000.000000000000 -3000.0000000000000 -33849940.338611543 -7620432.1538472325 -73515660.325787306 4.9196610867086161e-06 -0.00054607042149144619 0.00048985531645208977 0.0000000000000000 0.0000000000000000 -4.2915677841299313 
10000.000000000000 10000.000000000000 -2833.3333333330002 -32698860.311905250 -6469352.1258421000 -69434558.410776109 4.2665292554454467e-06 -0.00056477521400730049 0.00050442919871311501 0.0000000000000000 0.0000000000000000 -4.5524217216857350 
10000.000000000000 10000.000000000000 -2666.6666666669998 -31547677.252429932 -5318169.0650507323 -65353091.197743073 3.6166987698086676e-06 -0.00058015424968494204 0.00051601477650779922 0.0000000000000000 0.0000000000000000 -4.7983807147500377 
10000.000000000000 10000.000000000000 -2500.0000000000000 -30396391.150941890 -4166882.9622383947 -61271258.653929770 2.9729398441093783e-06 -0.00059215104114683915 0.00052465148546844062 0.0000000000000000 0.0000000000000000 -5.0294434300843456 
10000.000000000000 10000.000000000000 -2333.3333333330002 -29245001.998202920 -3015493.8081752760 -57189060.746596150 2.3350337772177566e-06 -0.00060060942884340436 0.00053027400685759854 0.0000000000000000 0.0000000000000000 -5.2456085343261849 
10000.000000000000 10000.000000000000 -2166.6666666669998 -28093509.784975130 -1864001.5936313451 -53106497.443002164 1.7001409258925971e-06 -0.00060528055171757747 0.00053273815067323555 0.0000000000000000 0.0000000000000000 -5.4468746939939292 
10000.000000000000 10000.000000000000 -2000.0000000000000 -26941914.502015591 -712406.30937116791 -49023568.710389189 1.0620682295687282e-06 -0.00060583623310254834 0.00053180058240112713 0.0000000000000000 0.0000000000000000 -5.6332405754900172 
10000.000000000000 10000.000000000000 -1833.3333333329999 -25790216.140086800 439292.05383556953 -44940274.516017124 4.1181769890482649e-07 -0.00060183515494701149 0.00052711118583255098 0.0000000000000000 0.0000000000000000 -5.8047048450937124 
10000.000000000000 10000.000000000000 -1666.6666666670001 -24638414.689951226 1591093.5052193454 -40856614.827145480 -2.5982735657025668e-07 -0.00059272621817538272 0.00051822819857104895 0.0000000000000000 0.0000000000000000 -5.9612661689651238 
1 2 3 4 5 6 7 8 
9 10 11 12 1 2 3 4 
13 14 15 16 9 10 11 12 
17 18 19 20 13 14 15 16 
21 22 23 24 17 18 19 20 
25 26 27 28 21 22 23 24 
29 30 31 32 25 26 27 28 
33 34 35 36 29 30 31 32 
37 38 39 40 33 34 35 36 
41 42 43 44 45 46 47 48 
49 50 51 52 41 42 43 44 
53 54 55 56 49 50 51 52 
57 58 59 60 53 54 55 56 
61 62 63 64 57 58 59 60 
65 66 67 68 61 62 63 64 
69 70 71 72 65 66 67 68 
73 74 75 76 69 70 71 72 
77 78 79 80 73 74 75 76 
81 82 83 84 85 86 87 88 
89 90 91 92 81 82 83 84 
93 94 95 96 89 90 91 92 
97 98 99 100 93 94 95 96 
101 102 103 104 97 98 99 100 
105 106 107 108 101 102 103 104 
109 110 111 112 105 106 107 108 
113 114 115 116 109 110 111 112 
117 118 119 120 113 114 115 116 
121 122 1 123 124 125 5 126 
127 128 9 129 121 122 1 123 
130 131 13 132 127 128 9 129 
133 134 17 135 130 131 13 132 
136 137 21 138 133 134 17 135 
139 140 25 141 136 137 21 138 
142 143 29 144 139 140 25 141 
145 146 33 147 142 143 29 144 
148 149 37 150 145 146 33 147 
151 152 153 154 155 156 157 158 
159 160 161 162 151 152 153 154 
163 164 165 166 159 160 161 162 
167 168 169 170 163 164 165 166 
171 172 173 174 167 168 169 170 
175 176 177 178 171 172 173 174 
179 180 181 182 175 176 177 178 
183 184 185 186 179 180 181 182 
187 188 189 190 183 184 185 186 
191 192 193 194 195 196 197 198 
199 200 201 202 191 192 193 194 
203 204 205 206 199 200 201 202 
207 208 209 210 203 204 205 206 
211 212 213 214 207 208 209 210 
215 216 217 218 211 212 213 214 
219 220 221 222 215 216 217 218 
223 224 225 226 219 220 221 222 
227 228 229 230 223 224 225 226 
231 191 194 232 233 195 198 234 
235 199 202 236 231 191 194 232 
237 203 206 238 235 199 202 236 
239 207 210 240 237 203 206 238 
241 211 214 242 239 207 210 240 
243 215 218 244 241 211 214 242 
245 219 222 246 243 215 218 244 
247 223 226 248 245 219 222 246 
249 227 230 250 247 223 226 248 
251 252 122 121 253 254 125 124 
255 256 128 127 251 252 122 121 
257 258 131 130 255 256 128 127 
259 260 134 133 257 258 131 130 
261 262 137 136 259 260 134 133 
263 264 140 139 261 262 137 136 
265 266 143 142 263 264 140 139 
267 268 146 145 265 266 143 142 
269 270 149 148 267 268 146 145 
271 272 273 274 275 276 277 278 
279 280 281 282 271 272 273 274 
283 284 285 286 279 280 281 282 
287 288 289 290 283 284 285 286 
291 292 293 294 287 288 289 290 
295 296 297 298 291 292 293 294 
299 300 301 302 295 296 297 298 
303 304 305 306 299 300 301 302 
307 308 309 310 303 304 305 306 
311 312 313 314 315 316 317 318 
319 320 321 322 311 312 313 314 
323 324 325 326 319 320 321 322 
327 328 329 330 323 324 325 326 
331 332 333 334 327 328 329 330 
335 336 337 338 331 332 333 334 
339 340 341 342 335 336 337 338 
343 344 345 346 339 340 341 342 
347 348 349 350 343 344 345 346 
154 153 314 313 158 157 318 317 
162 161 322 321 154 153 314 313 
166 165 326 325 162 161 322 321 
170 169 330 329 166 165 326 325 
174 173 334 333 170 169 330 329 
178 177 338 337 174 173 334 333 
182 181 342 341 178 177 338 337 
186 185 346 345 182 181 342 341 
190 189 350 349 186 185 346 345 
274 273 351 352 278 277 353 354 
282 281 355 356 274 273 351 352 
286 285 357 358 282 281 355 356 
290 289 359 360 286 285 357 358 
294 293 361 362 290 289 359 360 
298 297 363 364 294 293 361 362 
302 301 365 366 298 297 363 364 
306 305 367 368 302 301 365 366 
310 309 369 370 306 305 367 368 
371 372 373 374 375 376 377 378 
379 380 381 382 371 372 373 374 
383 384 385 386 379 380 381 382 
387 388 389 390 383 384 385 386 
391 392 393 394 387 388 389 390 
395 396 397 398 391 392 393 394 
399 400 401 402 395 396 397 398 
403 404 405 406 399 400 401 402 
407 408 409 410 403 404 405 406 
411 412 413 414 415 416 417 418 
419 420 421 422 411 412 413 414 
423 424 425 426 419 420 421 422 
427 428 429 430 423 424 425 426 
431 432 433 434 427 428 429 430 
435 436 437 438 431 432 433 434 
439 440 441 442 435 436 437 438 
443 444 445 446 439 440 441 442 
447 448 449 450 443 444 445 446 
411 451 452 453 415 454 455 456 
419 457 458 459 411 451 452 453 
423 460 461 462 419 457 458 459 
427 463 464 465 423 460 461 462 
431 466 467 468 427 463 464 465 
435 469 470 471 431 466 467 468 
439 472 473 474 435 469 470 471 
443 475 476 477 439 472 473 474 
447 478 479 480 443 475 476 477 
481 482 483 484 485 486 487 488 
489 490 491 492 481 482 483 484 
493 494 495 496 489 490 491 492 
497 498 499 500 493 494 495 496 
501 502 503 504 497 498 499 500 
505 506 507 508 501 502 503 504 
509 510 511 512 505 506 507 508 
513 514 515 516 509 510 511 512 
517 518 519 520 513 514 515 516 
521 352 522 523 524 354 525 526 
527 356 528 529 521 352 522 523 
530 358 531 532 527 356 528 529 
533 360 534 535 530 358 531 532 
536 362 537 538 533 360 534 535 
539 364 540 541 536 362 537 538 
542 366 543 544 539 364 540 541 
545 368 546 547 542 366 543 544 
548 370 549 550 545 368 546 547 
551 552 553 554 555 556 557 558 
559 560 561 562 551 552 553 554 
563 564 565 566 559 560 561 562 
567 568 569 570 563 564 565 566 
571 572 573 574 567 568 569 570 
575 576 577 578 571 572 573 574 
579 580 581 582 575 576 577 578 
583 584 585 586 579 580 581 582 
587 588 589 590 583 584 585 586 
591 154 313 592 593 158 317 594 
595 162 321 596 591 154 313 592 
597 166 325 598 595 162 321 596 
599 170 329 600 597 166 325 598 
601 174 333 602 599 170 329 600 
603 178 337 604 601 174 333 602 
605 182 341 606 603 178 337 604 
607 186 345 608 605 182 341 606 
609 190 349 610 607 186 345 608 
151 611 612 613 155 614 615 616 
159 617 618 619 151 611 612 613 
163 620 621 622 159 617 618 619 
167 623 624 625 163 620 621 622 
171 626 627 628 167 623 624 625 
175 629 630 631 171 626 627 628 
179 632 633 634 175 629 630 631 
183 635 636 637 179 632 633 634 
187 638 639 640 183 635 636 637 
641 84 642 312 643 88 644 316 
645 92 646 320 641 84 642 312 
647 96 648 324 645 92 646 320 
649 100 650 328 647 96 648 324 
651 104 652 332 649 100 650 328 
653 108 654 336 651 104 652 332 
655 112 656 340 653 108 654 336 
657 116 658 344 655 112 656 340 
659 120 660 348 657 116 658 344 
661 662 663 664 665 666 667 668 
669 670 671 672 661 662 663 664 
673 674 675 676 669 670 671 672 
677 678 679 680 673 674 675 676 
681 682 683 684 677 678 679 680 
685 686 687 688 681 682 683 684 
689 690 691 692 685 686 687 688 
693 694 695 696 689 690 691 692 
697 698 699 700 693 694 695 696 
352 351 701 522 354 353 702 525 
356 355 703 528 352 351 701 522 
358 357 704 531 356 355 703 528 
360 359 705 534 358 357 704 531 
362 361 706 537 360 359 705 534 
364 363 707 540 362 361 706 537 
366 365 708 543 364 363 707 540 
368 367 709 546 366 365 708 543 
370 369 710 549 368 367 709 546 
483 711 712 523 487 713 714 526 
491 715 716 529 483 711 712 523 
495 717 718 532 491 715 716 529 
499 719 720 535 495 717 718 532 
503 721 722 538 499 719 720 535 
507 723 724 541 503 721 722 538 
511 725 726 544 507 723 724 541 
515 727 728 547 511 725 726 544 
519 729 730 550 515 727 728 547 
731 732 733 664 734 735 736 668 
737 738 739 672 731 732 733 664 
740 741 742 676 737 738 739 672 
743 744 745 680 740 741 742 676 
746 747 748 684 743 744 745 680 
749 750 751 688 746 747 748 684 
752 753 754 692 749 750 751 688 
755 756 757 696 752 753 754 692 
758 759 760 700 755 756 757 696 
83 761 762 763 87 764 765 766 
91 767 768 769 83 761 762 763 
95 770 771 772 91 767 768 769 
99 773 774 775 95 770 771 772 
103 776 777 778 99 773 774 775 
107 779 780 781 103 776 777 778 
111 782 783 784 107 779 780 781 
115 785 786 787 111 782 783 784 
119 788 789 790 115 785 786 787 
481 451 791 792 485 454 793 794 
489 457 795 796 481 451 791 792 
493 460 797 798 489 457 795 796 
497 463 799 800 493 460 797 798 
501 466 801 802 497 463 799 800 
505 469 803 804 501 466 801 802 
509 472 805 806 505 469 803 804 
513 475 807 808 509 472 805 806 
517 478 809 810 513 475 807 808 
811 812 813 711 814 815 816 713 
817 818 819 715 811 812 813 711 
820 821 822 717 817 818 819 715 
823 824 825 719 820 821 822 717 
826 827 828 721 823 824 825 719 
829 830 831 723 826 827 828 721 
832 833 834 725 829 830 831 723 
835 836 837 727 832 833 834 725 
838 839 840 729 835 836 837 727 
841 842 554 553 843 844 558 557 
845 846 562 561 841 842 554 553 
847 848 566 565 845 846 562 561 
849 850 570 569 847 848 566 565 
851 852 574 573 849 850 570 569 
853 854 578 577 851 852 574 573 
855 856 582 581 853 854 578 577 
857 858 586 585 855 856 582 581 
859 860 590 589 857 858 586 585 
813 591 592 861 816 593 594 862 
819 595 596 863 813 591 592 861 
822 597 598 864 819 595 596 863 
825 599 600 865 822 597 598 864 
828 601 602 866 825 599 600 865 
831 603 604 867 828 601 602 866 
834 605 606 868 831 603 604 867 
837 607 608 869 834 605 606 868 
840 609 610 870 837 607 608 869 
871 872 842 841 873 874 844 843 
875 876 846 845 871 872 842 841 
877 878 848 847 875 876 846 845 
879 880 850 849 877 878 848 847 
881 882 852 851 879 880 850 849 
883 884 854 853 881 882 852 851 
885 886 856 855 883 884 854 853 
887 888 858 857 885 886 856 855 
889 890 860 859 887 888 858 857 
271 871 841 662 275 873 843 666 
279 875 845 670 271 871 841 662 
283 877 847 674 279 875 845 670 
287 879 849 678 283 877 847 674 
291 881 851 682 287 879 849 678 
295 883 853 686 291 881 851 682 
299 885 855 690 295 883 853 686 
303 887 857 694 299 885 855 690 
307 889 859 698 303 887 857 694 
711 813 861 712 713 816 862 714 
715 819 863 716 711 813 861 712 
717 822 864 718 715 819 863 716 
719 825 865 720 717 822 864 718 
721 828 866 722 719 825 865 720 
723 831 867 724 721 828 866 722 
725 834 868 726 723 831 867 724 
727 837 869 728 725 834 868 726 
729 840 870 730 727 837 869 728 
611 812 891 612 614 815 892 615 
617 818 893 618 611 812 891 612 
620 821 894 621 617 818 893 618 
623 824 895 624 620 821 894 621 
626 827 896 627 623 824 895 624 
629 830 897 630 626 827 896 627 
632 833 898 633 629 830 897 630 
635 836 899 636 632 833 898 633 
638 839 900 639 635 836 899 636 
901 551 554 902 903 555 558 904 
905 559 562 906 901 551 554 902 
907 563 566 908 905 559 562 906 
909 567 570 910 907 563 566 908 
911 571 574 912 909 567 570 910 
913 575 578 914 911 571 574 912 
915 579 582 916 913 575 578 914 
917 583 586 918 915 579 582 916 
919 587 590 920 917 583 586 918 
921 272 661 922 923 276 665 924 
925 280 669 926 921 272 661 922 
927 284 673 928 925 280 669 926 
929 288 677 930 927 284 673 928 
931 292 681 932 929 288 677 930 
933 296 685 934 931 292 681 932 
935 300 689 936 933 296 685 934 
937 304 693 938 935 300 689 936 
939 308 697 940 937 304 693 938 
273 251 121 351 277 253 124 353 
281 255 127 355 273 251 121 351 
285 257 130 357 281 255 127 355 
289 259 133 359 285 257 130 357 
293 261 136 361 289 259 133 359 
297 263 139 363 293 261 136 361 
301 265 142 365 297 263 139 363 
305 267 145 367 301 265 142 365 
309 269 148 369 305 267 145 367 
941 942 943 252 944 945 946 254 
947 948 949 256 941 942 943 252 
950 951 952 258 947 948 949 256 
953 954 955 260 950 951 952 258 
956 957 958 262 953 954 955 260 
959 960 961 264 956 957 958 262 
962 963 964 266 959 960 961 264 
965 966 967 268 962 963 964 266 
968 969 970 270 965 966 967 268 
82 872 761 83 86 874 764 87 
90 876 767 91 82 872 761 83 
94 878 770 95 90 876 767 91 
98 880 773 99 94 878 770 95 
102 882 776 103 98 880 773 99 
106 884 779 107 102 882 776 103 
110 886 782 111 106 884 779 107 
114 888 785 115 110 886 782 111 
118 890 788 119 114 888 785 115 
84 83 763 642 88 87 766 644 
92 91 769 646 84 83 763 642 
96 95 772 648 92 91 769 646 
100 99 775 650 96 95 772 648 
104 103 778 652 100 99 775 650 
108 107 781 654 104 103 778 652 
112 111 784 656 108 107 781 654 
116 115 787 658 112 111 784 656 
120 119 790 660 116 115 787 658 
791 414 971 972 793 418 973 974 
795 422 975 976 791 414 971 972 
797 426 977 978 795 422 975 976 
799 430 979 980 797 426 977 978 
801 434 981 982 799 430 979 980 
803 438 983 984 801 434 981 982 
805 442 985 986 803 438 983 984 
807 446 987 988 805 442 985 986 
809 450 989 990 807 446 987 988 
4 3 991 412 8 7 992 416 
12 11 993 420 4 3 991 412 
16 15 994 424 12 11 993 420 
20 19 995 428 16 15 994 424 
24 23 996 432 20 19 995 428 
28 27 997 436 24 23 996 432 
32 31 998 440 28 27 997 436 
36 35 999 444 32 31 998 440 
40 39 1000 448 36 35 999 444 
552 1001 663 553 556 1002 667 557 
560 1003 671 561 552 1001 663 553 
564 1004 675 565 560 1003 671 561 
568 1005 679 569 564 1004 675 565 
572 1006 683 573 568 1005 679 569 
576 1007 687 577 572 1006 683 573 
580 1008 691 581 576 1007 687 577 
584 1009 695 585 580 1008 691 581 
588 1010 699 589 584 1009 695 585 
453 452 701 123 456 455 702 126 
459 458 703 129 453 452 701 123 
462 461 704 132 459 458 703 129 
465 464 705 135 462 461 704 132 
468 467 706 138 465 464 705 135 
471 470 707 141 468 467 706 138 
474 473 708 144 471 470 707 141 
477 476 709 147 474 473 708 144 
480 479 710 150 477 476 709 147 
732 1011 373 733 735 1012 377 736 
738 1013 381 739 732 1011 373 733 
741 1014 385 742 738 1013 381 739 
744 1015 389 745 741 1014 385 742 
747 1016 393 748 744 1015 389 745 
750 1017 397 751 747 1016 393 748 
753 1018 401 754 750 1017 397 751 
756 1019 405 757 753 1018 401 754 
759 1020 409 760 756 1019 405 757 
81 1021 191 231 85 1022 195 233 
89 1023 199 235 81 1021 191 231 
93 1024 203 237 89 1023 199 235 
97 1025 207 239 93 1024 203 237 
101 1026 211 241 97 1025 207 239 
105 1027 215 243 101 1026 211 241 
109 1028 219 245 105 1027 215 243 
113 1029 223 247 109 1028 219 245 
117 1030 227 249 113 1029 223 247 
42 792 1031 43 46 794 1032 47 
50 796 1033 51 42 792 1031 43 
54 798 1034 55 50 796 1033 51 
58 800 1035 59 54 798 1034 55 
62 802 1036 63 58 800 1035 59 
66 804 1037 67 62 802 1036 63 
70 806 1038 71 66 804 1037 67 
74 808 1039 75 70 806 1038 71 
78 810 1040 79 74 808 1039 75 
942 941 372 371 945 944 376 375 
948 947 380 379 942 941 372 371 
951 950 384 383 948 947 380 379 
954 953 388 387 951 950 384 383 
957 956 392 391 954 953 388 387 
960 959 396 395 957 956 392 391 
963 962 400 399 960 959 396 395 
966 965 404 403 963 962 400 399 
969 968 408 407 966 965 404 403 
811 482 42 41 814 486 46 45 
817 490 50 49 811 482 42 41 
820 494 54 53 817 490 50 49 
823 498 58 57 820 494 54 53 
826 502 62 61 823 498 58 57 
829 506 66 65 826 502 62 61 
832 510 70 69 829 506 66 65 
835 514 74 73 832 510 70 69 
838 518 78 77 835 514 74 73 
414 413 1041 971 418 417 1042 973 
422 421 1043 975 414 413 1041 971 
426 425 1044 977 422 421 1043 975 
430 429 1045 979 426 425 1044 977 
434 433 1046 981 430 429 1045 979 
438 437 1047 983 434 433 1046 981 
442 441 1048 985 438 437 1047 983 
446 445 1049 987 442 441 1048 985 
450 449 1050 989 446 445 1049 987 
872 871 1051 761 874 873 1052 764 
876 875 1053 767 872 871 1051 761 
878 877 1054 770 876 875 1053 767 
880 879 1055 773 878 877 1054 770 
882 881 1056 776 880 879 1055 773 
884 883 1057 779 882 881 1056 776 
886 885 1058 782 884 883 1057 779 
888 887 1059 785 886 885 1058 782 
890 889 1060 788 888 887 1059 785 
453 4 412 411 456 8 416 415 
459 12 420 419 453 4 412 411 
462 16 424 423 459 12 420 419 
465 20 428 427 462 16 424 423 
468 24 432 431 465 20 428 427 
471 28 436 435 468 24 432 431 
474 32 440 439 471 28 436 435 
477 36 444 443 474 32 440 439 
480 40 448 447 477 36 444 443 
1061 231 232 902 1062 233 234 904 
1063 235 236 906 1061 231 232 902 
1064 237 238 908 1063 235 236 906 
1065 239 240 910 1064 237 238 908 
1066 241 242 912 1065 239 240 910 
1067 243 244 914 1066 241 242 912 
1068 245 246 916 1067 243 244 914 
1069 247 248 918 1068 245 246 916 
1070 249 250 920 1069 247 248 918 
891 41 44 1071 892 45 48 1072 
893 49 52 1073 891 41 44 1071 
894 53 56 1074 893 49 52 1073 
895 57 60 1075 894 53 56 1074 
896 61 64 1076 895 57 60 1075 
897 65 68 1077 896 61 64 1076 
898 69 72 1078 897 65 68 1077 
899 73 76 1079 898 69 72 1078 
900 77 80 1080 899 73 76 1079 
941 921 922 372 944 923 924 376 
947 925 926 380 941 921 922 372 
950 927 928 384 947 925 926 380 
953 929 930 388 950 927 928 384 
956 931 932 392 953 929 930 388 
959 933 934 396 956 931 932 392 
962 935 936 400 959 933 934 396 
965 937 938 404 962 935 936 400 
968 939 940 408 965 937 938 404 
763 762 712 861 766 765 714 862 
769 768 716 863 763 762 712 861 
772 771 718 864 769 768 716 863 
775 774 720 865 772 771 718 864 
778 777 722 866 775 774 720 865 
781 780 724 867 778 777 722 866 
784 783 726 868 781 780 724 867 
787 786 728 869 784 783 726 868 
790 789 730 870 787 786 728 869 
642 763 861 592 644 766 862 594 
646 769 863 596 642 763 861 592 
648 772 864 598 646 769 863 596 
650 775 865 600 648 772 864 598 
652 778 866 602 650 775 865 600 
654 781 867 604 652 778 866 602 
656 784 868 606 654 781 867 604 
658 787 869 608 656 784 868 606 
660 790 870 610 658 787 869 608 
451 411 414 791 454 415 418 793 
457 419 422 795 451 411 414 791 
460 423 426 797 457 419 422 795 
463 427 430 799 460 423 426 797 
466 431 434 801 463 427 430 799 
469 435 438 803 466 431 434 801 
472 439 442 805 469 435 438 803 
475 443 446 807 472 439 442 805 
478 447 450 809 475 443 446 807 
452 484 522 701 455 488 525 702 
458 492 528 703 452 484 522 701 
461 496 531 704 458 492 528 703 
464 500 534 705 461 496 531 704 
467 504 537 706 464 500 534 705 
470 508 540 707 467 504 537 706 
473 512 543 708 470 508 540 707 
476 516 546 709 473 512 543 708 
479 520 549 710 476 516 546 709 
761 1051 521 762 764 1052 524 765 
767 1053 527 768 761 1051 521 762 
770 1054 530 771 767 1053 527 768 
773 1055 533 774 770 1054 530 771 
776 1056 536 777 773 1055 533 774 
779 1057 539 780 776 1056 536 777 
782 1058 542 783 779 1057 539 780 
785 1059 545 786 782 1058 542 783 
788 1060 548 789 785 1059 545 786 
612 891 1071 1081 615 892 1072 1082 
618 893 1073 1083 612 891 1071 1081 
621 894 1074 1084 618 893 1073 1083 
624 895 1075 1085 621 894 1074 1084 
627 896 1076 1086 624 895 1075 1085 
630 897 1077 1087 627 896 1076 1086 
633 898 1078 1088 630 897 1077 1087 
636 899 1079 1089 633 898 1078 1088 
639 900 1080 1090 636 899 1079 1089 
82 81 231 1061 86 85 233 1062 
90 89 235 1063 82 81 231 1061 
94 93 237 1064 90 89 235 1063 
98 97 239 1065 94 93 237 1064 
102 101 241 1066 98 97 239 1065 
106 105 243 1067 102 101 241 1066 
110 109 245 1068 106 105 243 1067 
114 113 247 1069 110 109 245 1068 
118 117 249 1070 114 113 247 1069 
1091 1092 232 194 1093 1094 234 198 
1095 1096 236 202 1091 1092 232 194 
1097 1098 238 206 1095 1096 236 202 
1099 1100 240 210 1097 1098 238 206 
1101 1102 242 214 1099 1100 240 210 
1103 1104 244 218 1101 1102 242 214 
1105 1106 246 222 1103 1104 244 218 
1107 1108 248 226 1105 1106 246 222 
1109 1110 250 230 1107 1108 248 226 
451 481 484 452 454 485 488 455 
457 489 492 458 451 481 484 452 
460 493 496 461 457 489 492 458 
463 497 500 464 460 493 496 461 
466 501 504 467 463 497 500 464 
469 505 508 470 466 501 504 467 
472 509 512 473 469 505 508 470 
475 513 516 476 472 509 512 473 
478 517 520 479 475 513 516 476 
1092 901 902 232 1094 903 904 234 
1096 905 906 236 1092 901 902 232 
1098 907 908 238 1096 905 906 236 
1100 909 910 240 1098 907 908 238 
1102 911 912 242 1100 909 910 240 
1104 913 914 244 1102 911 912 242 
1106 915 916 246 1104 913 914 244 
1108 917 918 248 1106 915 916 246 
1110 919 920 250 1108 917 918 248 
482 811 711 483 486 814 713 487 
490 817 715 491 482 811 711 483 
494 820 717 495 490 817 715 491 
498 823 719 499 494 820 717 495 
502 826 721 503 498 823 719 499 
506 829 723 507 502 826 721 503 
510 832 725 511 506 829 723 507 
514 835 727 515 510 832 725 511 
518 838 729 519 514 835 727 515 
1111 641 312 311 1112 643 316 315 
1113 645 320 319 1111 641 312 311 
1114 647 324 323 1113 645 320 319 
1115 649 328 327 1114 647 324 323 
1116 651 332 331 1115 649 328 327 
1117 653 336 335 1116 651 332 331 
1118 655 340 339 1117 653 336 335 
1119 657 344 343 1118 655 340 339 
1120 659 348 347 1119 657 344 343 
1121 1021 641 1111 1122 1022 643 1112 
1123 1023 645 1113 1121 1021 641 1111 
1124 1024 647 1114 1123 1023 645 1113 
1125 1025 649 1115 1124 1024 647 1114 
1126 1026 651 1116 1125 1025 649 1115 
1127 1027 653 1117 1126 1026 651 1116 
1128 1028 655 1118 1127 1027 653 1117 
1129 1029 657 1119 1128 1028 655 1118 
1130 1030 659 1120 1129 1029 657 1119 
792 791 972 1031 794 793 974 1032 
796 795 976 1033 792 791 972 1031 
798 797 978 1034 796 795 976 1033 
800 799 980 1035 798 797 978 1034 
802 801 982 1036 800 799 980 1035 
804 803 984 1037 802 801 982 1036 
806 805 986 1038 804 803 984 1037 
808 807 988 1039 806 805 986 1038 
810 809 990 1040 808 807 988 1039 
1011 1131 374 373 1012 1132 378 377 
1013 1133 382 381 1011 1131 374 373 
1014 1134 386 385 1013 1133 382 381 
1015 1135 390 389 1014 1134 386 385 
1016 1136 394 393 1015 1135 390 389 
1017 1137 398 397 1016 1136 394 393 
1018 1138 402 401 1017 1137 398 397 
1019 1139 406 405 1018 1138 402 401 
1020 1140 410 409 1019 1139 406 405 
812 611 591 813 815 614 593 816 
818 617 595 819 812 611 591 813 
821 620 597 822 818 617 595 819 
824 623 599 825 821 620 597 822 
827 626 601 828 824 623 599 825 
830 629 603 831 827 626 601 828 
833 632 605 834 830 629 603 831 
836 635 607 837 833 632 605 834 
839 638 609 840 836 635 607 837 
1141 613 1142 1143 1144 616 1145 1146 
1147 619 1148 1149 1141 613 1142 1143 
1150 622 1151 1152 1147 619 1148 1149 
1153 625 1154 1155 1150 622 1151 1152 
1156 628 1157 1158 1153 625 1154 1155 
1159 631 1160 1161 1156 628 1157 1158 
1162 634 1163 1164 1159 631 1160 1161 
1165 637 1166 1167 1162 634 1163 1164 
1168 640 1169 1170 1165 637 1166 1167 
1171 1091 194 193 1172 1093 198 197 
1173 1095 202 201 1171 1091 194 193 
1174 1097 206 205 1173 1095 202 201 
1175 1099 210 209 1174 1097 206 205 
1176 1101 214 213 1175 1099 210 209 
1177 1103 218 217 1176 1101 214 213 
1178 1105 222 221 1177 1103 218 217 
1179 1107 226 225 1178 1105 222 221 
1180 1109 230 229 1179 1107 226 225 
662 841 553 663 666 843 557 667 
670 845 561 671 662 841 553 663 
674 847 565 675 670 845 561 671 
678 849 569 679 674 847 565 675 
682 851 573 683 678 849 569 679 
686 853 577 687 682 851 573 683 
690 855 581 691 686 853 577 687 
694 857 585 695 690 855 581 691 
698 859 589 699 694 857 585 695 
872 82 1061 842 874 86 1062 844 
876 90 1063 846 872 82 1061 842 
878 94 1064 848 876 90 1063 846 
880 98 1065 850 878 94 1064 848 
882 102 1066 852 880 98 1065 850 
884 106 1067 854 882 102 1066 852 
886 110 1068 856 884 106 1067 854 
888 114 1069 858 886 110 1068 856 
890 118 1070 860 888 114 1069 858 
1001 731 664 663 1002 734 668 667 
1003 737 672 671 1001 731 664 663 
1004 740 676 675 1003 737 672 671 
1005 743 680 679 1004 740 676 675 
1006 746 684 683 1005 743 680 679 
1007 749 688 687 1006 746 684 683 
1008 752 692 691 1007 749 688 687 
1009 755 696 695 1008 752 692 691 
1010 758 700 699 1009 755 696 695 
871 271 274 1051 873 275 278 1052 
875 279 282 1053 871 271 274 1051 
877 283 286 1054 875 279 282 1053 
879 287 290 1055 877 283 286 1054 
881 291 294 1056 879 287 290 1055 
883 295 298 1057 881 291 294 1056 
885 299 302 1058 883 295 298 1057 
887 303 306 1059 885 299 302 1058 
889 307 310 1060 887 303 306 1059 
412 991 1181 413 416 992 1182 417 
420 993 1183 421 412 991 1181 413 
424 994 1184 425 420 993 1183 421 
428 995 1185 429 424 994 1184 425 
432 996 1186 433 428 995 1185 429 
436 997 1187 437 432 996 1186 433 
440 998 1188 441 436 997 1187 437 
444 999 1189 445 440 998 1188 441 
448 1000 1190 449 444 999 1189 445 
611 151 154 591 614 155 158 593 
617 159 162 595 611 151 154 591 
620 163 166 597 617 159 162 595 
623 167 170 599 620 163 166 597 
626 171 174 601 623 167 170 599 
629 175 178 603 626 171 174 601 
632 179 182 605 629 175 178 603 
635 183 186 607 632 179 182 605 
638 187 190 609 635 183 186 607 
1051 274 352 521 1052 278 354 524 
1053 282 356 527 1051 274 352 521 
1054 286 358 530 1053 282 356 527 
1055 290 360 533 1054 286 358 530 
1056 294 362 536 1055 290 360 533 
1057 298 364 539 1056 294 362 536 
1058 302 366 542 1057 298 364 539 
1059 306 368 545 1058 302 366 542 
1060 310 370 548 1059 306 368 545 
272 921 251 273 276 923 253 277 
280 925 255 281 272 921 251 273 
284 927 257 285 280 925 255 281 
288 929 259 289 284 927 257 285 
292 931 261 293 288 929 259 289 
296 933 263 297 292 931 261 293 
300 935 265 301 296 933 263 297 
304 937 267 305 300 935 265 301 
308 939 269 309 304 937 267 305 
484 483 523 522 488 487 526 525 
492 491 529 528 484 483 523 522 
496 495 532 531 492 491 529 528 
500 499 535 534 496 495 532 531 
504 503 538 537 500 499 535 534 
508 507 541 540 504 503 538 537 
512 511 544 543 508 507 541 540 
516 515 547 546 512 511 544 543 
520 519 550 549 516 515 547 546 
922 661 664 733 924 665 668 736 
926 669 672 739 922 661 664 733 
928 673 676 742 926 669 672 739 
930 677 680 745 928 673 676 742 
932 681 684 748 930 677 680 745 
934 685 688 751 932 681 684 748 
936 689 692 754 934 685 688 751 
938 693 696 757 936 689 692 754 
940 697 700 760 938 693 696 757 
312 642 592 313 316 644 594 317 
320 646 596 321 312 642 592 313 
324 648 598 325 320 646 596 321 
328 650 600 329 324 648 598 325 
332 652 602 333 328 650 600 329 
336 654 604 337 332 652 602 333 
340 656 606 341 336 654 604 337 
344 658 608 345 340 656 606 341 
348 660 610 349 344 658 608 345 
122 1191 2 1 125 1192 6 5 
128 1193 10 9 122 1191 2 1 
131 1194 14 13 128 1193 10 9 
134 1195 18 17 131 1194 14 13 
137 1196 22 21 134 1195 18 17 
140 1197 26 25 137 1196 22 21 
143 1198 30 29 140 1197 26 25 
146 1199 34 33 143 1198 30 29 
149 1200 38 37 146 1199 34 33 
1021 1121 192 191 1022 1122 196 195 
1023 1123 200 199 1021 1121 192 191 
1024 1124 204 203 1023 1123 200 199 
1025 1125 208 207 1024 1124 204 203 
1026 1126 212 211 1025 1125 208 207 
1027 1127 216 215 1026 1126 212 211 
1028 1128 220 219 1027 1127 216 215 
1029 1129 224 223 1028 1128 220 219 
1030 1130 228 227 1029 1129 224 223 
123 1 4 453 126 5 8 456 
129 9 12 459 123 1 4 453 
132 13 16 462 129 9 12 459 
135 17 20 465 132 13 16 462 
138 21 24 468 135 17 20 465 
141 25 28 471 138 21 24 468 
144 29 32 474 141 25 28 471 
147 33 36 477 144 29 32 474 
150 37 40 480 147 33 36 477 
413 1181 1201 1041 417 1182 1202 1042 
421 1183 1203 1043 413 1181 1201 1041 
425 1184 1204 1044 421 1183 1203 1043 
429 1185 1205 1045 425 1184 1204 1044 
433 1186 1206 1046 429 1185 1205 1045 
437 1187 1207 1047 433 1186 1206 1046 
441 1188 1208 1048 437 1187 1207 1047 
445 1189 1209 1049 441 1188 1208 1048 
449 1190 1210 1050 445 1189 1209 1049 
152 151 613 1141 156 155 616 1144 
160 159 619 1147 152 151 613 1141 
164 163 622 1150 160 159 619 1147 
168 167 625 1153 164 163 622 1150 
172 171 628 1156 168 167 625 1153 
176 175 631 1159 172 171 628 1156 
180 179 634 1162 176 175 631 1159 
184 183 637 1165 180 179 634 1162 
188 187 640 1168 184 183 637 1165 
372 922 733 373 376 924 736 377 
380 926 739 381 372 922 733 373 
384 928 742 385 380 926 739 381 
388 930 745 389 384 928 742 385 
392 932 748 393 388 930 745 389 
396 934 751 397 392 932 748 393 
400 936 754 401 396 934 751 397 
404 938 757 405 400 936 754 401 
408 940 760 409 404 938 757 405 
272 271 662 661 276 275 666 665 
280 279 670 669 272 271 662 661 
284 283 674 673 280 279 670 669 
288 287 678 677 284 283 674 673 
292 291 682 681 288 287 678 677 
296 295 686 685 292 291 682 681 
300 299 690 689 296 295 686 685 
304 303 694 693 300 299 690 689 
308 307 698 697 304 303 694 693 
842 1061 902 554 844 1062 904 558 
846 1063 906 562 842 1061 902 554 
848 1064 908 566 846 1063 906 562 
850 1065 910 570 848 1064 908 566 
852 1066 912 574 850 1065 910 570 
854 1067 914 578 852 1066 912 574 
856 1068 916 582 854 1067 914 578 
858 1069 918 586 856 1068 916 582 
860 1070 920 590 858 1069 918 586 
1021 81 84 641 1022 85 88 643 
1023 89 92 645 1021 81 84 641 
1024 93 96 647 1023 89 92 645 
1025 97 100 649 1024 93 96 647 
1026 101 104 651 1025 97 100 649 
1027 105 108 653 1026 101 104 651 
1028 109 112 655 1027 105 108 653 
1029 113 116 657 1028 109 112 655 
1030 117 120 659 1029 113 116 657 
351 121 123 701 353 124 126 702 
355 127 129 703 351 121 123 701 
357 130 132 704 355 127 129 703 
359 133 135 705 357 130 132 704 
361 136 138 706 359 133 135 705 
363 139 141 707 361 136 138 706 
365 142 144 708 363 139 141 707 
367 145 147 709 365 142 144 708 
369 148 150 710 367 145 147 709 
482 481 792 42 486 485 794 46 
490 489 796 50 482 481 792 42 
494 493 798 54 490 489 796 50 
498 497 800 58 494 493 798 54 
502 501 802 62 498 497 800 58 
506 505 804 66 502 501 802 62 
510 509 806 70 506 505 804 66 
514 513 808 74 510 509 806 70 
518 517 810 78 514 513 808 74 
921 941 252 251 923 944 254 253 
925 947 256 255 921 941 252 251 
927 950 258 257 925 947 256 255 
929 953 260 259 927 950 258 257 
931 956 262 261 929 953 260 259 
933 959 264 263 931 956 262 261 
935 962 266 265 933 959 264 263 
937 965 268 267 935 962 266 265 
939 968 270 269 937 965 268 267 
812 811 41 891 815 814 45 892 
818 817 49 893 812 811 41 891 
821 820 53 894 818 817 49 893 
824 823 57 895 821 820 53 894 
827 826 61 896 824 823 57 895 
830 829 65 897 827 826 61 896 
833 832 69 898 830 829 65 897 
836 835 73 899 833 832 69 898 
839 838 77 900 836 835 73 899 
613 612 1081 1142 616 615 1082 1145 
619 618 1083 1148 613 612 1081 1142 
622 621 1084 1151 619 618 1083 1148 
625 624 1085 1154 622 621 1084 1151 
628 627 1086 1157 625 624 1085 1154 
631 630 1087 1160 628 627 1086 1157 
634 633 1088 1163 631 630 1087 1160 
637 636 1089 1166 634 633 1088 1163 
640 639 1090 1169 637 636 1089 1166 
762 521 523 712 765 524 526 714 
768 527 529 716 762 521 523 712 
771 530 532 718 768 527 529 716 
774 533 535 720 771 530 532 718 
777 536 538 722 774 533 535 720 
780 539 541 724 777 536 538 722 
783 542 544 726 780 539 541 724 
786 545 547 728 783 542 544 726 
789 548 550 730 786 545 547 728 
252 943 1191 122 254 946 1192 125 
256 949 1193 128 252 943 1191 122 
258 952 1194 131 256 949 1193 128 
260 955 1195 134 258 952 1194 131 
262 958 1196 137 260 955 1195 134 
264 961 1197 140 262 958 1196 137 
266 964 1198 143 264 961 1197 140 
268 967 1199 146 266 964 1198 143 
270 970 1200 149 268 967 1199 146 
1211 1212 1213 1214 1215 1216 1217 1218 
1219 1220 1221 1222 1211 1212 1213 1214 
1223 1224 1225 1226 1219 1220 1221 1222 
1227 1228 1229 1230 1223 1224 1225 1226 
1231 1232 1233 1234 1227 1228 1229 1230 
1235 1236 1237 1238 1231 1232 1233 1234 
1239 1240 1241 1242 1235 1236 1237 1238 
1243 1244 1245 1246 1239 1240 1241 1242 
1247 1248 1249 1250 1243 1244 1245 1246 
1251 1252 1253 1254 1247 1248 1249 1250 
1255 1256 1257 1258 1251 1252 1253 1254 
1259 1260 1261 1262 1255 1256 1257 1258 
1263 1264 1265 1266 1259 1260 1261 1262 
1267 1268 1269 1270 1263 1264 1265 1266 
1271 1272 1273 1274 1267 1268 1269 1270 
1275 1276 1277 1278 1271 1272 1273 1274 
1279 1280 1281 1282 1275 1276 1277 1278 
1283 1284 1285 1286 1279 1280 1281 1282 
1287 1288 1289 1290 1283 1284 1285 1286 
1291 1292 1293 1294 1287 1288 1289 1290 
5 6 7 8 1291 1292 1293 1294 
1295 1296 1297 1298 1299 1300 1301 1302 
1303 1304 1305 1306 1295 1296 1297 1298 
1307 1308 1309 1310 1303 1304 1305 1306 
1311 1312 1313 1314 1307 1308 1309 1310 
1315 1316 1317 1318 1311 1312 1313 1314 
1319 1320 1321 1322 1315 1316 1317 1318 
1323 1324 1325 1326 1319 1320 1321 1322 
1327 1328 1329 1330 1323 1324 1325 1326 
1331 1332 1333 1334 1327 1328 1329 1330 
1335 1336 1337 1338 1331 1332 1333 1334 
1339 1340 1341 1342 1335 1336 1337 1338 
1343 1344 1345 1346 1339 1340 1341 1342 
1347 1348 1349 1350 1343 1344 1345 1346 
1351 1352 1353 1354 1347 1348 1349 1350 
1355 1356 1357 1358 1351 1352 1353 1354 
1359 1360 1361 1362 1355 1356 1357 1358 
1363 1364 1365 1366 1359 1360 1361 1362 
1367 1368 1369 1370 1363 1364 1365 1366 
1371 1372 1373 1374 1367 1368 1369 1370 
1375 1376 1377 1378 1371 1372 1373 1374 
45 46 47 48 1375 1376 1377 1378 
1379 1380 1381 1382 1383 1384 1385 1386 
1387 1388 1389 1390 1379 1380 1381 1382 
1391 1392 1393 1394 1387 1388 1389 1390 
1395 1396 1397 1398 1391 1392 1393 1394 
1399 1400 1401 1402 1395 1396 1397 1398 
1403 1404 1405 1406 1399 1400 1401 1402 
1407 1408 1409 1410 1403 1404 1405 1406 
1411 1412 1413 1414 1407 1408 1409 1410 
1415 1416 1417 1418 1411 1412 1413 1414 
1419 1420 1421 1422 1415 1416 1417 1418 
1423 1424 1425 1426 1419 1420 1421 1422 
1427 1428 1429 1430 1423 1424 1425 1426 
1431 1432 1433 1434 1427 1428 1429 1430 
1435 1436 1437 1438 1431 1432 1433 1434 
1439 1440 1441 1442 1435 1436 1437 1438 
1443 1444 1445 1446 1439 1440 1441 1442 
1447 1448 1449 1450 1443 1444 1445 1446 
1451 1452 1453 1454 1447 1448 1449 1450 
1455 1456 1457 1458 1451 1452 1453 1454 
1459 1460 1461 1462 1455 1456 1457 1458 
85 86 87 88 1459 1460 1461 1462 
1463 1464 1211 1465 1466 1467 1215 1468 
1469 1470 1219 1471 1463 1464 1211 1465 
1472 1473 1223 1474 1469 1470 1219 1471 
1475 1476 1227 1477 1472 1473 1223 1474 
1478 1479 1231 1480 1475 1476 1227 1477 
1481 1482 1235 1483 1478 1479 1231 1480 
1484 1485 1239 1486 1481 1482 1235 1483 
1487 1488 1243 1489 1484 1485 1239 1486 
1490 1491 1247 1492 1487 1488 1243 1489 
1493 1494 1251 1495 1490 1491 1247 1492 
1496 1497 1255 1498 1493 1494 1251 1495 
1499 1500 1259 1501 1496 1497 1255 1498 
1502 1503 1263 1504 1499 1500 1259 1501 
1505 1506 1267 1507 1502 1503 1263 1504 
1508 1509 1271 1510 1505 1506 1267 1507 
1511 1512 1275 1513 1508 1509 1271 1510 
1514 1515 1279 1516 1511 1512 1275 1513 
1517 1518 1283 1519 1514 1515 1279 1516 
1520 1521 1287 1522 1517 1518 1283 1519 
1523 1524 1291 1525 1520 1521 1287 1522 
124 125 5 126 1523 1524 1291 1525 
1526 1527 1528 1529 1530 1531 1532 1533 
1534 1535 1536 1537 1526 1527 1528 1529 
1538 1539 1540 1541 1534 1535 1536 1537 
1542 1543 1544 1545 1538 1539 1540 1541 
1546 1547 1548 1549 1542 1543 1544 1545 
1550 1551 1552 1553 1546 1547 1548 1549 
1554 1555 1556 1557 1550 1551 1552 1553 
1558 1559 1560 1561 1554 1555 1556 1557 
1562 1563 1564 1565 1558 1559 1560 1561 
1566 1567 1568 1569 1562 1563 1564 1565 
1570 1571 1572 1573 1566 1567 1568 1569 
1574 1575 1576 1577 1570 1571 1572 1573 
1578 1579 1580 1581 1574 1575 1576 1577 
1582 1583 1584 1585 1578 1579 1580 1581 
1586 1587 1588 1589 1582 1583 1584 1585 
1590 1591 1592 1593 1586 1587 1588 1589 
1594 1595 1596 1597 1590 1591 1592 1593 
1598 1599 1600 1601 1594 1595 1596 1597 
1602 1603 1604 1605 1598 1599 1600 1601 
1606 1607 1608 1609 1602 1603 1604 1605 
155 156 157 158 1606 1607 1608 1609 
1610 1611 1612 1613 1614 1615 1616 1617 
1618 1619 1620 1621 1610 1611 1612 1613 
1622 1623 1624 1625 1618 1619 1620 1621 
1626 1627 1628 1629 1622 1623 1624 1625 
1630 1631 1632 1633 1626 1627 1628 1629 
1634 1635 1636 1637 1630 1631 1632 1633 
1638 1639 1640 1641 1634 1635 1636 1637 
1642 1643 1644 1645 1638 1639 1640 1641 
1646 1647 1648 1649 1642 1643 1644 1645 
1650 1651 1652 1653 1646 1647 1648 1649 
1654 1655 1656 1657 1650 1651 1652 1653 
1658 1659 1660 1661 1654 1655 1656 1657 
1662 1663 1664 1665 1658 1659 1660 1661 
1666 1667 1668 1669 1662 1663 1664 1665 
1670 1671 1672 1673 1666 1667 1668 1669 
1674 1675 1676 1677 1670 1671 1672 1673 
1678 1679 1680 1681 1674 1675 1676 1677 
1682 1683 1684 1685 1678 1679 1680 1681 
1686 1687 1688 1689 1682 1683 1684 1685 
1690 1691 1692 1693 1686 1687 1688 1689 
195 196 197 198 1690 1691 1692 1693 
1694 1610 1613 1695 1696 1614 1617 1697 
1698 1618 1621 1699 1694 1610 1613 1695 
1700 1622 1625 1701 1698 1618 1621 1699 
1702 1626 1629 1703 1700 1622 1625 1701 
1704 1630 1633 1705 1702 1626 1629 1703 
1706 1634 1637 1707 1704 1630 1633 1705 
1708 1638 1641 1709 1706 1634 1637 1707 
1710 1642 1645 1711 1708 1638 1641 1709 
1712 1646 1649 1713 1710 1642 1645 1711 
1714 1650 1653 1715 1712 1646 1649 1713 
1716 1654 1657 1717 1714 1650 1653 1715 
1718 1658 1661 1719 1716 1654 1657 1717 
1720 1662 1665 1721 1718 1658 1661 1719 
1722 1666 1669 1723 1720 1662 1665 1721 
1724 1670 1673 1725 1722 1666 1669 1723 
1726 1674 1677 1727 1724 1670 1673 1725 
1728 1678 1681 1729 1726 1674 1677 1727 
1730 1682 1685 1731 1728 1678 1681 1729 
1732 1686 1689 1733 1730 1682 1685 1731 
1734 1690 1693 1735 1732 1686 1689 1733 
233 195 198 234 1734 1690 1693 1735 
1736 1737 1464 1463 1738 1739 1467 1466 
1740 1741 1470 1469 1736 1737 1464 1463 
1742 1743 1473 1472 1740 1741 1470 1469 
1744 1745 1476 1475 1742 1743 1473 1472 
1746 1747 1479 1478 1744 1745 1476 1475 
1748 1749 1482 1481 1746 1747 1479 1478 
1750 1751 1485 1484 1748 1749 1482 1481 
1752 1753 1488 1487 1750 1751 1485 1484 
1754 1755 1491 1490 1752 1753 1488 1487 
1756 1757 1494 1493 1754 1755 1491 1490 
1758 1759 1497 1496 1756 1757 1494 1493 
1760 1761 1500 1499 1758 1759 1497 1496 
1762 1763 1503 1502 1760 1761 1500 1499 
1764 1765 1506 1505 1762 1763 1503 1502 
1766 1767 1509 1508 1764 1765 1506 1505 
1768 1769 1512 1511 1766 1767 1509 1508 
1770 1771 1515 1514 1768 1769 1512 1511 
1772 1773 1518 1517 1770 1771 1515 1514 
1774 1775 1521 1520 1772 1773 1518 1517 
1776 1777 1524 1523 1774 1775 1521 1520 
253 254 125 124 1776 1777 1524 1523 
1778 1779 1780 1781 1782 1783 1784 1785 
1786 1787 1788 1789 1778 1779 1780 1781 
1790 1791 1792 1793 1786 1787 1788 1789 
1794 1795 1796 1797 1790 1791 1792 1793 
1798 1799 1800 1801 1794 1795 1796 1797 
1802 1803 1804 1805 1798 1799 1800 1801 
1806 1807 1808 1809 1802 1803 1804 1805 
1810 1811 1812 1813 1806 1807 1808 1809 
1814 1815 1816 1817 1810 1811 1812 1813 
1818 1819 1820 1821 1814 1815 1816 1817 
1822 1823 1824 1825 1818 1819 1820 1821 
1826 1827 1828 1829 1822 1823 1824 1825 
1830 1831 1832 1833 1826 1827 1828 1829 
1834 1835 1836 1837 1830 1831 1832 1833 
1838 1839 1840 1841 1834 1835 1836 1837 
1842 1843 1844 1845 1838 1839 1840 1841 
1846 1847 1848 1849 1842 1843 1844 1845 
1850 1851 1852 1853 1846 1847 1848 1849 
1854 1855 1856 1857 1850 1851 1852 1853 
1858 1859 1860 1861 1854 1855 1856 1857 
275 276 277 278 1858 1859 1860 1861 
1862 1863 1864 1865 1866 1867 1868 1869 
1870 1871 1872 1873 1862 1863 1864 1865 
1874 1875 1876 1877 1870 1871 1872 1873 
1878 1879 1880 1881 1874 1875 1876 1877 
1882 1883 1884 1885 1878 1879 1880 1881 
1886 1887 1888 1889 1882 1883 1884 1885 
1890 1891 1892 1893 1886 1887 1888 1889 
1894 1895 1896 1897 1890 1891 1892 1893 
1898 1899 1900 1901 1894 1895 1896 1897 
1902 1903 1904 1905 1898 1899 1900 1901 
1906 1907 1908 1909 1902 1903 1904 1905 
1910 1911 1912 1913 1906 1907 1908 1909 
1914 1915 1916 1917 1910 1911 1912 1913 
1918 1919 1920 1921 1914 1915 1916 1917 
1922 1923 1924 1925 1918 1919 1920 1921 
1926 1927 1928 1929 1922 1923 1924 1925 
1930 1931 1932 1933 1926 1927 1928 1929 
1934 1935 1936 1937 1930 1931 1932 1933 
1938 1939 1940 1941 1934 1935 1936 1937 
1942 1943 1944 1945 1938 1939 1940 1941 
315 316 317 318 1942 1943 1944 1945 
1529 1528 1865 1864 1533 1532 1869 1868 
1537 1536 1873 1872 1529 1528 1865 1864 
1541 1540 1877 1876 1537 1536 1873 1872 
1545 1544 1881 1880 1541 1540 1877 1876 
1549 1548 1885 1884 1545 1544 1881 1880 
1553 1552 1889 1888 1549 1548 1885 1884 
1557 1556 1893 1892 1553 1552 1889 1888 
1561 1560 1897 1896 1557 1556 1893 1892 
1565 1564 1901 1900 1561 1560 1897 1896 
1569 1568 1905 1904 1565 1564 1901 1900 
1573 1572 1909 1908 1569 1568 1905 1904 
1577 1576 1913 1912 1573 1572 1909 1908 
1581 1580 1917 1916 1577 1576 1913 1912 
1585 1584 1921 1920 1581 1580 1917 1916 
1589 1588 1925 1924 1585 1584 1921 1920 
1593 1592 1929 1928 1589 1588 1925 1924 
1597 1596 1933 1932 1593 1592 1929 1928 
1601 1600 1937 1936 1597 1596 1933 1932 
1605 1604 1941 1940 1601 1600 1937 1936 
1609 1608 1945 1944 1605 1604 1941 1940 
158 157 318 317 1609 1608 1945 1944 
1781 1780 1946 1947 1785 1784 1948 1949 
1789 1788 1950 1951 1781 1780 1946 1947 
1793 1792 1952 1953 1789 1788 1950 1951 
1797 1796 1954 1955 1793 1792 1952 1953 
1801 1800 1956 1957 1797 1796 1954 1955 
1805 1804 1958 1959 1801 1800 1956 1957 
1809 1808 1960 1961 1805 1804 1958 1959 
1813 1812 1962 1963 1809 1808 1960 1961 
1817 1816 1964 1965 1813 1812 1962 1963 
1821 1820 1966 1967 1817 1816 1964 1965 
1825 1824 1968 1969 1821 1820 1966 1967 
1829 1828 1970 1971 1825 1824 1968 1969 
1833 1832 1972 1973 1829 1828 1970 1971 
1837 1836 1974 1975 1833 1832 1972 1973 
1841 1840 1976 1977 1837 1836 1974 1975 
1845 1844 1978 1979 1841 1840 1976 1977 
1849 1848 1980 1981 1845 1844 1978 1979 
1853 1852 1982 1983 1849 1848 1980 1981 
1857 1856 1984 1985 1853 1852 1982 1983 
1861 1860 1986 1987 1857 1856 1984 1985 
278 277 353 354 1861 1860 1986 1987 
1988 1989 1990 1991 1992 1993 1994 1995 
1996 1997 1998 1999 1988 1989 1990 1991 
2000 2001 2002 2003 1996 1997 1998 1999 
2004 2005 2006 2007 2000 2001 2002 2003 
2008 2009 2010 2011 2004 2005 2006 2007 
2012 2013 2014 2015 2008 2009 2010 2011 
2016 2017 2018 2019 2012 2013 2014 2015 
2020 2021 2022 2023 2016 2017 2018 2019 
2024 2025 2026 2027 2020 2021 2022 2023 
2028 2029 2030 2031 2024 2025 2026 2027 
2032 2033 2034 2035 2028 2029 2030 2031 
2036 2037 2038 2039 2032 2033 2034 2035 
2040 2041 2042 2043 2036 2037 2038 2039 
2044 2045 2046 2047 2040 2041 2042 2043 
2048 2049 2050 2051 2044 2045 2046 2047 
2052 2053 2054 2055 2048 2049 2050 2051 
2056 2057 2058 2059 2052 2053 2054 2055 
2060 2061 2062 2063 2056 2057 2058 2059 
2064 2065 2066 2067 2060 2061 2062 2063 
2068 2069 2070 2071 2064 2065 2066 2067 
375 376 377 378 2068 2069 2070 2071 
2072 2073 2074 2075 2076 2077 2078 2079 
2080 2081 2082 2083 2072 2073 2074 2075 
2084 2085 2086 2087 2080 2081 2082 2083 
2088 2089 2090 2091 2084 2085 2086 2087 
2092 2093 2094 2095 2088 2089 2090 2091 
2096 2097 2098 2099 2092 2093 2094 2095 
2100 2101 2102 2103 2096 2097 2098 2099 
2104 2105 2106 2107 2100 2101 2102 2103 
2108 2109 2110 2111 2104 2105 2106 2107 
2112 2113 2114 2115 2108 2109 2110 2111 
2116 2117 2118 2119 2112 2113 2114 2115 
2120 2121 2122 2123 2116 2117 2118 2119 
2124 2125 2126 2127 2120 2121 2122 2123 
2128 2129 2130 2131 2124 2125 2126 2127 
2132 2133 2134 2135 2128 2129 2130 2131 
2136 2137 2138 2139 2132 2133 2134 2135 
2140 2141 2142 2143 2136 2137 2138 2139 
2144 2145 2146 2147 2140 2141 2142 2143 
2148 2149 2150 2151 2144 2145 2146 2147 
2152 2153 2154 2155 2148 2149 2150 2151 
415 416 417 418 2152 2153 2154 2155 
2072 2156 2157 2158 2076 2159 2160 2161 
2080 2162 2163 2164 2072 2156 2157 2158 
2084 2165 2166 2167 2080 2162 2163 2164 
2088 2168 2169 2170 2084 2165 2166 2167 
2092 2171 2172 2173 2088 2168 2169 2170 
2096 2174 2175 2176 2092 2171 2172 2173 
2100 2177 2178 2179 2096 2174 2175 2176 
2104 2180 2181 2182 2100 2177 2178 2179 
2108 2183 2184 2185 2104 2180 2181 2182 
2112 2186 2187 2188 2108 2183 2184 2185 
2116 2189 2190 2191 2112 2186 2187 2188 
2120 2192 2193 2194 2116 2189 2190 2191 
2124 2195 2196 2197 2120 2192 2193 2194 
2128 2198 2199 2200 2124 2195 2196 2197 
2132 2201 2202 2203 2128 2198 2199 2200 
2136 2204 2205 2206 2132 2201 2202 2203 
2140 2207 2208 2209 2136 2204 2205 2206 
2144 2210 2211 2212 2140 2207 2208 2209 
2148 2213 2214 2215 2144 2210 2211 2212 
2152 2216 2217 2218 2148 2213 2214 2215 
415 454 455 456 2152 2216 2217 2218 
2219 2220 2221 2222 2223 2224 2225 2226 
2227 2228 2229 2230 2219 2220 2221 2222 
2231 2232 2233 2234 2227 2228 2229 2230 
2235 2236 2237 2238 2231 2232 2233 2234 
2239 2240 2241 2242 2235 2236 2237 2238 
2243 2244 2245 2246 2239 2240 2241 2242 
2247 2248 2249 2250 2243 2244 2245 2246 
2251 2252 2253 2254 2247 2248 2249 2250 
2255 2256 2257 2258 2251 2252 2253 2254 
2259 2260 2261 2262 2255 2256 2257 2258 
2263 2264 2265 2266 2259 2260 2261 2262 
2267 2268 2269 2270 2263 2264 2265 2266 
2271 2272 2273 2274 2267 2268 2269 2270 
2275 2276 2277 2278 2271 2272 2273 2274 
2279 2280 2281 2282 2275 2276 2277 2278 
2283 2284 2285 2286 2279 2280 2281 2282 
2287 2288 2289 2290 2283 2284 2285 2286 
2291 2292 2293 2294 2287 2288 2289 2290 
2295 2296 2297 2298 2291 2292 2293 2294 
2299 2300 2301 2302 2295 2296 2297 2298 
485 486 487 488 2299 2300 2301 2302 
2303 1947 2304 2305 2306 1949 2307 2308 
2309 1951 2310 2311 2303 1947 2304 2305 
2312 1953 2313 2314 2309 1951 2310 2311 
2315 1955 2316 2317 2312 1953 2313 2314 
2318 1957 2319 2320 2315 1955 2316 2317 
2321 1959 2322 2323 2318 1957 2319 2320 
2324 1961 2325 2326 2321 1959 2322 2323 
2327 1963 2328 2329 2324 1961 2325 2326 
2330 1965 2331 2332 2327 1963 2328 2329 
2333 1967 2334 2335 2330 1965 2331 2332 
2336 1969 2337 2338 2333 1967 2334 2335 
2339 1971 2340 2341 2336 1969 2337 2338 
2342 1973 2343 2344 2339 1971 2340 2341 
2345 1975 2346 2347 2342 1973 2343 2344 
2348 1977 2349 2350 2345 1975 2346 2347 
2351 1979 2352 2353 2348 1977 2349 2350 
2354 1981 2355 2356 2351 1979 2352 2353 
2357 1983 2358 2359 2354 1981 2355 2356 
2360 1985 2361 2362 2357 1983 2358 2359 
2363 1987 2364 2365 2360 1985 2361 2362 
524 354 525 526 2363 1987 2364 2365 
2366 2367 2368 2369 2370 2371 2372 2373 
2374 2375 2376 2377 2366 2367 2368 2369 
2378 2379 2380 2381 2374 2375 2376 2377 
2382 2383 2384 2385 2378 2379 2380 2381 
2386 2387 2388 2389 2382 2383 2384 2385 
2390 2391 2392 2393 2386 2387 2388 2389 
2394 2395 2396 2397 2390 2391 2392 2393 
2398 2399 2400 2401 2394 2395 2396 2397 
2402 2403 2404 2405 2398 2399 2400 2401 
2406 2407 2408 2409 2402 2403 2404 2405 
2410 2411 2412 2413 2406 2407 2408 2409 
2414 2415 2416 2417 2410 2411 2412 2413 
2418 2419 2420 2421 2414 2415 2416 2417 
2422 2423 2424 2425 2418 2419 2420 2421 
2426 2427 2428 2429 2422 2423 2424 2425 
2430 2431 2432 2433 2426 2427 2428 2429 
2434 2435 2436 2437 2430 2431 2432 2433 
2438 2439 2440 2441 2434 2435 2436 2437 
2442 2443 2444 2445 2438 2439 2440 2441 
2446 2447 2448 2449 2442 2443 2444 2445 
555 556 557 558 2446 2447 2448 2449 
2450 1529 1864 2451 2452 1533 1868 2453 
2454 1537 1872 2455 2450 1529 1864 2451 
2456 1541 1876 2457 2454 1537 1872 2455 
2458 1545 1880 2459 2456 1541 1876 2457 
2460 1549 1884 2461 2458 1545 1880 2459 
2462 1553 1888 2463 2460 1549 1884 2461 
2464 1557 1892 2465 2462 1553 1888 2463 
2466 1561 1896 2467 2464 1557 1892 2465 
2468 1565 1900 2469 2466 1561 1896 2467 
2470 1569 1904 2471 2468 1565 1900 2469 
2472 1573 1908 2473 2470 1569 1904 2471 
2474 1577 1912 2475 2472 1573 1908 2473 
2476 1581 1916 2477 2474 1577 1912 2475 
2478 1585 1920 2479 2476 1581 1916 2477 
2480 1589 1924 2481 2478 1585 1920 2479 
2482 1593 1928 2483 2480 1589 1924 2481 
2484 1597 1932 2485 2482 1593 1928 2483 
2486 1601 1936 2487 2484 1597 1932 2485 
2488 1605 1940 2489 2486 1601 1936 2487 
2490 1609 1944 2491 2488 1605 1940 2489 
593 158 317 594 2490 1609 1944 2491 
1526 2492 2493 2494 1530 2495 2496 2497 
1534 2498 2499 2500 1526 2492 2493 2494 
1538 2501 2502 2503 1534 2498 2499 2500 
1542 2504 2505 2506 1538 2501 2502 2503 
1546 2507 2508 2509 1542 2504 2505 2506 
1550 2510 2511 2512 1546 2507 2508 2509 
1554 2513 2514 2515 1550 2510 2511 2512 
1558 2516 2517 2518 1554 2513 2514 2515 
1562 2519 2520 2521 1558 2516 2517 2518 
1566 2522 2523 2524 1562 2519 2520 2521 
1570 2525 2526 2527 1566 2522 2523 2524 
1574 2528 2529 2530 1570 2525 2526 2527 
1578 2531 2532 2533 1574 2528 2529 2530 
1582 2534 2535 2536 1578 2531 2532 2533 
1586 2537 2538 2539 1582 2534 2535 2536 
1590 2540 2541 2542 1586 2537 2538 2539 
1594 2543 2544 2545 1590 2540 2541 2542 
1598 2546 2547 2548 1594 2543 2544 2545 
1602 2549 2550 2551 1598 2546 2547 2548 
1606 2552 2553 2554 1602 2549 2550 2551 
155 614 615 616 1606 2552 2553 2554 
2555 1382 2556 1863 2557 1386 2558 1867 
2559 1390 2560 1871 2555 1382 2556 1863 
2561 1394 2562 1875 2559 1390 2560 1871 
2563 1398 2564 1879 2561 1394 2562 1875 
2565 1402 2566 1883 2563 1398 2564 1879 
2567 1406 2568 1887 2565 1402 2566 1883 
2569 1410 2570 1891 2567 1406 2568 1887 
2571 1414 2572 1895 2569 1410 2570 1891 
2573 1418 2574 1899 2571 1414 2572 1895 
2575 1422 2576 1903 2573 1418 2574 1899 
2577 1426 2578 1907 2575 1422 2576 1903 
2579 1430 2580 1911 2577 1426 2578 1907 
2581 1434 2582 1915 2579 1430 2580 1911 
2583 1438 2584 1919 2581 1434 2582 1915 
2585 1442 2586 1923 2583 1438 2584 1919 
2587 1446 2588 1927 2585 1442 2586 1923 
2589 1450 2590 1931 2587 1446 2588 1927 
2591 1454 2592 1935 2589 1450 2590 1931 
2593 1458 2594 1939 2591 1454 2592 1935 
2595 1462 2596 1943 2593 1458 2594 1939 
643 88 644 316 2595 1462 2596 1943 
2597 2598 2599 2600 2601 2602 2603 2604 
2605 2606 2607 2608 2597 2598 2599 2600 
2609 2610 2611 2612 2605 2606 2607 2608 
2613 2614 2615 2616 2609 2610 2611 2612 
2617 2618 2619 2620 2613 2614 2615 2616 
2621 2622 2623 2624 2617 2618 2619 2620 
2625 2626 2627 2628 2621 2622 2623 2624 
2629 2630 2631 2632 2625 2626 2627 2628 
2633 2634 2635 2636 2629 2630 2631 2632 
2637 2638 2639 2640 2633 2634 2635 2636 
2641 2642 2643 2644 2637 2638 2639 2640 
2645 2646 2647 2648 2641 2642 2643 2644 
2649 2650 2651 2652 2645 2646 2647 2648 
2653 2654 2655 2656 2649 2650 2651 2652 
2657 2658 2659 2660 2653 2654 2655 2656 
2661 2662 2663 2664 2657 2658 2659 2660 
2665 2666 2667 2668 2661 2662 2663 2664 
2669 2670 2671 2672 2665 2666 2667 2668 
2673 2674 2675 2676 2669 2670 2671 2672 
2677 2678 2679 2680 2673 2674 2675 2676 
665 666 667 668 2677 2678 2679 2680 
1947 1946 2681 2304 1949 1948 2682 2307 
1951 1950 2683 2310 1947 1946 2681 2304 
1953 1952 2684 2313 1951 1950 2683 2310 
1955 1954 2685 2316 1953 1952 2684 2313 
1957 1956 2686 2319 1955 1954 2685 2316 
1959 1958 2687 2322 1957 1956 2686 2319 
1961 1960 2688 2325 1959 1958 2687 2322 
1963 1962 2689 2328 1961 1960 2688 2325 
1965 1964 2690 2331 1963 1962 2689 2328 
1967 1966 2691 2334 1965 1964 2690 2331 
1969 1968 2692 2337 1967 1966 2691 2334 
1971 1970 2693 2340 1969 1968 2692 2337 
1973 1972 2694 2343 1971 1970 2693 2340 
1975 1974 2695 2346 1973 1972 2694 2343 
1977 1976 2696 2349 1975 1974 2695 2346 
1979 1978 2697 2352 1977 1976 2696 2349 
1981 1980 2698 2355 1979 1978 2697 2352 
1983 1982 2699 2358 1981 1980 2698 2355 
1985 1984 2700 2361 1983 1982 2699 2358 
1987 1986 2701 2364 1985 1984 2700 2361 
354 353 702 525 1987 1986 2701 2364 
2221 2702 2703 2305 2225 2704 2705 2308 
2229 2706 2707 2311 2221 2702 2703 2305 
2233 2708 2709 2314 2229 2706 2707 2311 
2237 2710 2711 2317 2233 2708 2709 2314 
2241 2712 2713 2320 2237 2710 2711 2317 
2245 2714 2715 2323 2241 2712 2713 2320 
2249 2716 2717 2326 2245 2714 2715 2323 
2253 2718 2719 2329 2249 2716 2717 2326 
2257 2720 2721 2332 2253 2718 2719 2329 
2261 2722 2723 2335 2257 2720 2721 2332 
2265 2724 2725 2338 2261 2722 2723 2335 
2269 2726 2727 2341 2265 2724 2725 2338 
2273 2728 2729 2344 2269 2726 2727 2341 
2277 2730 2731 2347 2273 2728 2729 2344 
2281 2732 2733 2350 2277 2730 2731 2347 
2285 2734 2735 2353 2281 2732 2733 2350 
2289 2736 2737 2356 2285 2734 2735 2353 
2293 2738 2739 2359 2289 2736 2737 2356 
2297 2740 2741 2362 2293 2738 2739 2359 
2301 2742 2743 2365 2297 2740 2741 2362 
487 713 714 526 2301 2742 2743 2365 
2744 2745 2746 2600 2747 2748 2749 2604 
2750 2751 2752 2608 2744 2745 2746 2600 
2753 2754 2755 2612 2750 2751 2752 2608 
2756 2757 2758 2616 2753 2754 2755 2612 
2759 2760 2761 2620 2756 2757 2758 2616 
2762 2763 2764 2624 2759 2760 2761 2620 
2765 2766 2767 2628 2762 2763 2764 2624 
2768 2769 2770 2632 2765 2766 2767 2628 
2771 2772 2773 2636 2768 2769 2770 2632 
2774 2775 2776 2640 2771 2772 2773 2636 
2777 2778 2779 2644 2774 2775 2776 2640 
2780 2781 2782 2648 2777 2778 2779 2644 
2783 2784 2785 2652 2780 2781 2782 2648 
2786 2787 2788 2656 2783 2784 2785 2652 
2789 2790 2791 2660 2786 2787 2788 2656 
2792 2793 2794 2664 2789 2790 2791 2660 
2795 2796 2797 2668 2792 2793 2794 2664 
2798 2799 2800 2672 2795 2796 2797 2668 
2801 2802 2803 2676 2798 2799 2800 2672 
2804 2805 2806 2680 2801 2802 2803 2676 
734 735 736 668 2804 2805 2806 2680 
1381 2807 2808 2809 1385 2810 2811 2812 
1389 2813 2814 2815 1381 2807 2808 2809 
1393 2816 2817 2818 1389 2813 2814 2815 
1397 2819 2820 2821 1393 2816 2817 2818 
1401 2822 2823 2824 1397 2819 2820 2821 
1405 2825 2826 2827 1401 2822 2823 2824 
1409 2828 2829 2830 1405 2825 2826 2827 
1413 2831 2832 2833 1409 2828 2829 2830 
1417 2834 2835 2836 1413 2831 2832 2833 
1421 2837 2838 2839 1417 2834 2835 2836 
1425 2840 2841 2842 1421 2837 2838 2839 
1429 2843 2844 2845 1425 2840 2841 2842 
1433 2846 2847 2848 1429 2843 2844 2845 
1437 2849 2850 2851 1433 2846 2847 2848 
1441 2852 2853 2854 1437 2849 2850 2851 
1445 2855 2856 2857 1441 2852 2853 2854 
1449 2858 2859 2860 1445 2855 2856 2857 
1453 2861 2862 2863 1449 2858 2859 2860 
1457 2864 2865 2866 1453 2861 2862 2863 
1461 2867 2868 2869 1457 2864 2865 2866 
87 764 765 766 1461 2867 2868 2869 
2219 2156 2870 2871 2223 2159 2872 2873 
2227 2162 2874 2875 2219 2156 2870 2871 
2231 2165 2876 2877 2227 2162 2874 2875 
2235 2168 2878 2879 2231 2165 2876 2877 
2239 2171 2880 2881 2235 2168 2878 2879 
2243 2174 2882 2883 2239 2171 2880 2881 
2247 2177 2884 2885 2243 2174 2882 2883 
2251 2180 2886 2887 2247 2177 2884 2885 
2255 2183 2888 2889 2251 2180 2886 2887 
2259 2186 2890 2891 2255 2183 2888 2889 
2263 2189 2892 2893 2259 2186 2890 2891 
2267 2192 2894 2895 2263 2189 2892 2893 
2271 2195 2896 2897 2267 2192 2894 2895 
2275 2198 2898 2899 2271 2195 2896 2897 
2279 2201 2900 2901 2275 2198 2898 2899 
2283 2204 2902 2903 2279 2201 2900 2901 
2287 2207 2904 2905 2283 2204 2902 2903 
2291 2210 2906 2907 2287 2207 2904 2905 
2295 2213 2908 2909 2291 2210 2906 2907 
2299 2216 2910 2911 2295 2213 2908 2909 
485 454 793 794 2299 2216 2910 2911 
2912 2913 2914 2702 2915 2916 2917 2704 
2918 2919 2920 2706 2912 2913 2914 2702 
2921 2922 2923 2708 2918 2919 2920 2706 
2924 2925 2926 2710 2921 2922 2923 2708 
2927 2928 2929 2712 2924 2925 2926 2710 
2930 2931 2932 2714 2927 2928 2929 2712 
2933 2934 2935 2716 2930 2931 2932 2714 
2936 2937 2938 2718 2933 2934 2935 2716 
2939 2940 2941 2720 2936 2937 2938 2718 
2942 2943 2944 2722 2939 2940 2941 2720 
2945 2946 2947 2724 2942 2943 2944 2722 
2948 2949 2950 2726 2945 2946 2947 2724 
2951 2952 2953 2728 2948 2949 2950 2726 
2954 2955 2956 2730 2951 2952 2953 2728 
2957 2958 2959 2732 2954 2955 2956 2730 
2960 2961 2962 2734 2957 2958 2959 2732 
2963 2964 2965 2736 2960 2961 2962 2734 
2966 2967 2968 2738 2963 2964 2965 2736 
2969 2970 2971 2740 2966 2967 2968 2738 
2972 2973 2974 2742 2969 2970 2971 2740 
814 815 816 713 2972 2973 2974 2742 
2975 2976 2369 2368 2977 2978 2373 2372 
2979 2980 2377 2376 2975 2976 2369 2368 
2981 2982 2381 2380 2979 2980 2377 2376 
2983 2984 2385 2384 2981 2982 2381 2380 
2985 2986 2389 2388 2983 2984 2385 2384 
2987 2988 2393 2392 2985 2986 2389 2388 
2989 2990 2397 2396 2987 2988 2393 2392 
2991 2992 2401 2400 2989 2990 2397 2396 
2993 2994 2405 2404 2991 2992 2401 2400 
2995 2996 2409 2408 2993 2994 2405 2404 
2997 2998 2413 2412 2995 2996 2409 2408 
2999 3000 2417 2416 2997 2998 2413 2412 
3001 3002 2421 2420 2999 3000 2417 2416 
3003 3004 2425 2424 3001 3002 2421 2420 
3005 3006 2429 2428 3003 3004 2425 2424 
3007 3008 2433 2432 3005 3006 2429 2428 
3009 3010 2437 2436 3007 3008 2433 2432 
3011 3012 2441 2440 3009 3010 2437 2436 
3013 3014 2445 2444 3011 3012 2441 2440 
3015 3016 2449 2448 3013 3014 2445 2444 
843 844 558 557 3015 3016 2449 2448 
2914 2450 2451 3017 2917 2452 2453 3018 
2920 2454 2455 3019 2914 2450 2451 3017 
2923 2456 2457 3020 2920 2454 2455 3019 
2926 2458 2459 3021 2923 2456 2457 3020 
2929 2460 2461 3022 2926 2458 2459 3021 
2932 2462 2463 3023 2929 2460 2461 3022 
2935 2464 2465 3024 2932 2462 2463 3023 
2938 2466 2467 3025 2935 2464 2465 3024 
2941 2468 2469 3026 2938 2466 2467 3025 
2944 2470 2471 3027 2941 2468 2469 3026 
2947 2472 2473 3028 2944 2470 2471 3027 
2950 2474 2475 3029 2947 2472 2473 3028 
2953 2476 2477 3030 2950 2474 2475 3029 
2956 2478 2479 3031 2953 2476 2477 3030 
2959 2480 2481 3032 2956 2478 2479 3031 
2962 2482 2483 3033 2959 2480 2481 3032 
2965 2484 2485 3034 2962 2482 2483 3033 
2968 2486 2487 3035 2965 2484 2485 3034 
2971 2488 2489 3036 2968 2486 2487 3035 
2974 2490 2491 3037 2971 2488 2489 3036 
816 593 594 862 2974 2490 2491 3037 
3038 3039 2976 2975 3040 3041 2978 2977 
3042 3043 2980 2979 3038 3039 2976 2975 
3044 3045 2982 2981 3042 3043 2980 2979 
3046 3047 2984 2983 3044 3045 2982 2981 
3048 3049 2986 2985 3046 3047 2984 2983 
3050 3051 2988 2987 3048 3049 2986 2985 
3052 3053 2990 2989 3050 3051 2988 2987 
3054 3055 2992 2991 3052 3053 2990 2989 
3056 3057 2994 2993 3054 3055 2992 2991 
3058 3059 2996 2995 3056 3057 2994 2993 
3060 3061 2998 2997 3058 3059 2996 2995 
3062 3063 3000 2999 3060 3061 2998 2997 
3064 3065 3002 3001 3062 3063 3000 2999 
3066 3067 3004 3003 3064 3065 3002 3001 
3068 3069 3006 3005 3066 3067 3004 3003 
3070 3071 3008 3007 3068 3069 3006 3005 
3072 3073 3010 3009 3070 3071 3008 3007 
3074 3075 3012 3011 3072 3073 3010 3009 
3076 3077 3014 3013 3074 3075 3012 3011 
3078 3079 3016 3015 3076 3077 3014 3013 
873 874 844 843 3078 3079 3016 3015 
1778 3038 2975 2598 1782 3040 2977 2602 
1786 3042 2979 2606 1778 3038 2975 2598 
1790 3044 2981 2610 1786 3042 2979 2606 
1794 3046 2983 2614 1790 3044 2981 2610 
1798 3048 2985 2618 1794 3046 2983 2614 
1802 3050 2987 2622 1798 3048 2985 2618 
1806 3052 2989 2626 1802 3050 2987 2622 
1810 3054 2991 2630 1806 3052 2989 2626 
1814 3056 2993 2634 1810 3054 2991 2630 
1818 3058 2995 2638 1814 3056 2993 2634 
1822 3060 2997 2642 1818 3058 2995 2638 
1826 3062 2999 2646 1822 3060 2997 2642 
1830 3064 3001 2650 1826 3062 2999 2646 
1834 3066 3003 2654 1830 3064 3001 2650 
1838 3068 3005 2658 1834 3066 3003 2654 
1842 3070 3007 2662 1838 3068 3005 2658 
1846 3072 3009 2666 1842 3070 3007 2662 
1850 3074 3011 2670 1846 3072 3009 2666 
1854 3076 3013 2674 1850 3074 3011 2670 
1858 3078 3015 2678 1854 3076 3013 2674 
275 873 843 666 1858 3078 3015 2678 
2702 2914 3017 2703 2704 2917 3018 2705 
2706 2920 3019 2707 2702 2914 3017 2703 
2708 2923 3020 2709 2706 2920 3019 2707 
2710 2926 3021 2711 2708 2923 3020 2709 
2712 2929 3022 2713 2710 2926 3021 2711 
2714 2932 3023 2715 2712 2929 3022 2713 
2716 2935 3024 2717 2714 2932 3023 2715 
2718 2938 3025 2719 2716 2935 3024 2717 
2720 2941 3026 2721 2718 2938 3025 2719 
2722 2944 3027 2723 2720 2941 3026 2721 
2724 2947 3028 2725 2722 2944 3027 2723 
2726 2950 3029 2727 2724 2947 3028 2725 
2728 2953 3030 2729 2726 2950 3029 2727 
2730 2956 3031 2731 2728 2953 3030 2729 
2732 2959 3032 2733 2730 2956 3031 2731 
2734 2962 3033 2735 2732 2959 3032 2733 
2736 2965 3034 2737 2734 2962 3033 2735 
2738 2968 3035 2739 2736 2965 3034 2737 
2740 2971 3036 2741 2738 2968 3035 2739 
2742 2974 3037 2743 2740 2971 3036 2741 
713 816 862 714 2742 2974 3037 2743 
2492 2913 3080 2493 2495 2916 3081 2496 
2498 2919 3082 2499 2492 2913 3080 2493 
2501 2922 3083 2502 2498 2919 3082 2499 
2504 2925 3084 2505 2501 2922 3083 2502 
2507 2928 3085 2508 2504 2925 3084 2505 
2510 2931 3086 2511 2507 2928 3085 2508 
2513 2934 3087 2514 2510 2931 3086 2511 
2516 2937 3088 2517 2513 2934 3087 2514 
2519 2940 3089 2520 2516 2937 3088 2517 
2522 2943 3090 2523 2519 2940 3089 2520 
2525 2946 3091 2526 2522 2943 3090 2523 
2528 2949 3092 2529 2525 2946 3091 2526 
2531 2952 3093 2532 2528 2949 3092 2529 
2534 2955 3094 2535 2531 2952 3093 2532 
2537 2958 3095 2538 2534 2955 3094 2535 
2540 2961 3096 2541 2537 2958 3095 2538 
2543 2964 3097 2544 2540 2961 3096 2541 
2546 2967 3098 2547 2543 2964 3097 2544 
2549 2970 3099 2550 2546 2967 3098 2547 
2552 2973 3100 2553 2549 2970 3099 2550 
614 815 892 615 2552 2973 3100 2553 
3101 2366 2369 3102 3103 2370 2373 3104 
3105 2374 2377 3106 3101 2366 2369 3102 
3107 2378 2381 3108 3105 2374 2377 3106 
3109 2382 2385 3110 3107 2378 2381 3108 
3111 2386 2389 3112 3109 2382 2385 3110 
3113 2390 2393 3114 3111 2386 2389 3112 
3115 2394 2397 3116 3113 2390 2393 3114 
3117 2398 2401 3118 3115 2394 2397 3116 
3119 2402 2405 3120 3117 2398 2401 3118 
3121 2406 2409 3122 3119 2402 2405 3120 
3123 2410 2413 3124 3121 2406 2409 3122 
3125 2414 2417 3126 3123 2410 2413 3124 
3127 2418 2421 3128 3125 2414 2417 3126 
3129 2422 2425 3130 3127 2418 2421 3128 
3131 2426 2429 3132 3129 2422 2425 3130 
3133 2430 2433 3134 3131 2426 2429 3132 
3135 2434 2437 3136 3133 2430 2433 3134 
3137 2438 2441 3138 3135 2434 2437 3136 
3139 2442 2445 3140 3137 2438 2441 3138 
3141 2446 2449 3142 3139 2442 2445 3140 
903 555 558 904 3141 2446 2449 3142 
3143 1779 2597 3144 3145 1783 2601 3146 
3147 1787 2605 3148 3143 1779 2597 3144 
3149 1791 2609 3150 3147 1787 2605 3148 
3151 1795 2613 3152 3149 1791 2609 3150 
3153 1799 2617 3154 3151 1795 2613 3152 
3155 1803 2621 3156 3153 1799 2617 3154 
3157 1807 2625 3158 3155 1803 2621 3156 
3159 1811 2629 3160 3157 1807 2625 3158 
3161 1815 2633 3162 3159 1811 2629 3160 
3163 1819 2637 3164 3161 1815 2633 3162 
3165 1823 2641 3166 3163 1819 2637 3164 
3167 1827 2645 3168 3165 1823 2641 3166 
3169 1831 2649 3170 3167 1827 2645 3168 
3171 1835 2653 3172 3169 1831 2649 3170 
3173 1839 2657 3174 3171 1835 2653 3172 
3175 1843 2661 3176 3173 1839 2657 3174 
3177 1847 2665 3178 3175 1843 2661 3176 
3179 1851 2669 3180 3177 1847 2665 3178 
3181 1855 2673 3182 3179 1851 2669 3180 
3183 1859 2677 3184 3181 1855 2673 3182 
923 276 665 924 3183 1859 2677 3184 
1780 1736 1463 1946 1784 1738 1466 1948 
1788 1740 1469 1950 1780 1736 1463 1946 
1792 1742 1472 1952 1788 1740 1469 1950 
1796 1744 1475 1954 1792 1742 1472 1952 
1800 1746 1478 1956 1796 1744 1475 1954 
1804 1748 1481 1958 1800 1746 1478 1956 
1808 1750 1484 1960 1804 1748 1481 1958 
1812 1752 1487 1962 1808 1750 1484 1960 
1816 1754 1490 1964 1812 1752 1487 1962 
1820 1756 1493 1966 1816 1754 1490 1964 
1824 1758 1496 1968 1820 1756 1493 1966 
1828 1760 1499 1970 1824 1758 1496 1968 
1832 1762 1502 1972 1828 1760 1499 1970 
1836 1764 1505 1974 1832 1762 1502 1972 
1840 1766 1508 1976 1836 1764 1505 1974 
1844 1768 1511 1978 1840 1766 1508 1976 
1848 1770 1514 1980 1844 1768 1511 1978 
1852 1772 1517 1982 1848 1770 1514 1980 
1856 1774 1520 1984 1852 1772 1517 1982 
1860 1776 1523 1986 1856 1774 1520 1984 
277 253 124 353 1860 1776 1523 1986 
3185 3186 3187 1737 3188 3189 3190 1739 
3191 3192 3193 1741 3185 3186 3187 1737 
3194 3195 3196 1743 3191 3192 3193 1741 
3197 3198 3199 1745 3194 3195 3196 1743 
3200 3201 3202 1747 3197 3198 3199 1745 
3203 3204 3205 1749 3200 3201 3202 1747 
3206 3207 3208 1751 3203 3204 3205 1749 
3209 3210 3211 1753 3206 3207 3208 1751 
3212 3213 3214 1755 3209 3210 3211 1753 
3215 3216 3217 1757 3212 3213 3214 1755 
3218 3219 3220 1759 3215 3216 3217 1757 
3221 3222 3223 1761 3218 3219 3220 1759 
3224 3225 3226 1763 3221 3222 3223 1761 
3227 3228 3229 1765 3224 3225 3226 1763 
3230 3231 3232 1767 3227 3228 3229 1765 
3233 3234 3235 1769 3230 3231 3232 1767 
3236 3237 3238 1771 3233 3234 3235 1769 
3239 3240 3241 1773 3236 3237 3238 1771 
3242 3243 3244 1775 3239 3240 3241 1773 
3245 3246 3247 1777 3242 3243 3244 1775 
944 945 946 254 3245 3246 3247 1777 
1380 3039 2807 1381 1384 3041 2810 1385 
1388 3043 2813 1389 1380 3039 2807 1381 
1392 3045 2816 1393 1388 3043 2813 1389 
1396 3047 2819 1397 1392 3045 2816 1393 
1400 3049 2822 1401 1396 3047 2819 1397 
1404 3051 2825 1405 1400 3049 2822 1401 
1408 3053 2828 1409 1404 3051 2825 1405 
1412 3055 2831 1413 1408 3053 2828 1409 
1416 3057 2834 1417 1412 3055 2831 1413 
1420 3059 2837 1421 1416 3057 2834 1417 
1424 3061 2840 1425 1420 3059 2837 1421 
1428 3063 2843 1429 1424 3061 2840 1425 
1436 3067 2849 1437 1432 3065 2846 1433 
1440 3069 2852 1441 1436 3067 2849 1437 
1444 3071 2855 1445 1440 3069 2852 1441 
1448 3073 2858 1449 1444 3071 2855 1445 
1452 3075 2861 1453 1448 3073 2858 1449 
1456 3077 2864 1457 1452 3075 2861 1453 
1460 3079 2867 1461 1456 3077 2864 1457 
86 874 764 87 1460 3079 2867 1461 
1382 1381 2809 2556 1386 1385 2812 2558 
1390 1389 2815 2560 1382 1381 2809 2556 
1394 1393 2818 2562 1390 1389 2815 2560 
1398 1397 2821 2564 1394 1393 2818 2562 
1402 1401 2824 2566 1398 1397 2821 2564 
1406 1405 2827 2568 1402 1401 2824 2566 
1410 1409 2830 2570 1406 1405 2827 2568 
1414 1413 2833 2572 1410 1409 2830 2570 
1418 1417 2836 2574 1414 1413 2833 2572 
1422 1421 2839 2576 1418 1417 2836 2574 
1426 1425 2842 2578 1422 1421 2839 2576 
1430 1429 2845 2580 1426 1425 2842 2578 
1434 1433 2848 2582 1430 1429 2845 2580 
1438 1437 2851 2584 1434 1433 2848 2582 
1442 1441 2854 2586 1438 1437 2851 2584 
1446 1445 2857 2588 1442 1441 2854 2586 
1450 1449 2860 2590 1446 1445 2857 2588 
1454 1453 2863 2592 1450 1449 2860 2590 
1458 1457 2866 2594 1454 1453 2863 2592 
1462 1461 2869 2596 1458 1457 2866 2594 
88 87 766 644 1462 1461 2869 2596 
2870 2075 3248 3249 2872 2079 3250 3251 
2874 2083 3252 3253 2870 2075 3248 3249 
2876 2087 3254 3255 2874 2083 3252 3253 
2878 2091 3256 3257 2876 2087 3254 3255 
2880 2095 3258 3259 2878 2091 3256 3257 
2882 2099 3260 3261 2880 2095 3258 3259 
2884 2103 3262 3263 2882 2099 3260 3261 
2886 2107 3264 3265 2884 2103 3262 3263 
2888 2111 3266 3267 2886 2107 3264 3265 
2890 2115 3268 3269 2888 2111 3266 3267 
2892 2119 3270 3271 2890 2115 3268 3269 
2894 2123 3272 3273 2892 2119 3270 3271 
2896 2127 3274 3275 2894 2123 3272 3273 
2898 2131 3276 3277 2896 2127 3274 3275 
2900 2135 3278 3279 2898 2131 3276 3277 
2902 2139 3280 3281 2900 2135 3278 3279 
2904 2143 3282 3283 2902 2139 3280 3281 
2906 2147 3284 3285 2904 2143 3282 3283 
2908 2151 3286 3287 2906 2147 3284 3285 
2910 2155 3288 3289 2908 2151 3286 3287 
793 418 973 974 2910 2155 3288 3289 
1214 1213 3290 2073 1218 1217 3291 2077 
1222 1221 3292 2081 1214 1213 3290 2073 
1226 1225 3293 2085 1222 1221 3292 2081 
1230 1229 3294 2089 1226 1225 3293 2085 
1234 1233 3295 2093 1230 1229 3294 2089 
1238 1237 3296 2097 1234 1233 3295 2093 
1242 1241 3297 2101 1238 1237 3296 2097 
1246 1245 3298 2105 1242 1241 3297 2101 
1250 1249 3299 2109 1246 1245 3298 2105 
1254 1253 3300 2113 1250 1249 3299 2109 
1258 1257 3301 2117 1254 1253 3300 2113 
1262 1261 3302 2121 1258 1257 3301 2117 
1266 1265 3303 2125 1262 1261 3302 2121 
1270 1269 3304 2129 1266 1265 3303 2125 
1274 1273 3305 2133 1270 1269 3304 2129 
1278 1277 3306 2137 1274 1273 3305 2133 
1282 1281 3307 2141 1278 1277 3306 2137 
1286 1285 3308 2145 1282 1281 3307 2141 
1290 1289 3309 2149 1286 1285 3308 2145 
1294 1293 3310 2153 1290 1289 3309 2149 
8 7 992 416 1294 1293 3310 2153 
2367 3311 2599 2368 2371 3312 2603 2372 
2375 3313 2607 2376 2367 3311 2599 2368 
2379 3314 2611 2380 2375 3313 2607 2376 
2383 3315 2615 2384 2379 3314 2611 2380 
2387 3316 2619 2388 2383 3315 2615 2384 
2391 3317 2623 2392 2387 3316 2619 2388 
2395 3318 2627 2396 2391 3317 2623 2392 
2399 3319 2631 2400 2395 3318 2627 2396 
2403 3320 2635 2404 2399 3319 2631 2400 
2407 3321 2639 2408 2403 3320 2635 2404 
2411 3322 2643 2412 2407 3321 2639 2408 
2415 3323 2647 2416 2411 3322 2643 2412 
2419 3324 2651 2420 2415 3323 2647 2416 
2423 3325 2655 2424 2419 3324 2651 2420 
2427 3326 2659 2428 2423 3325 2655 2424 
2431 3327 2663 2432 2427 3326 2659 2428 
2435 3328 2667 2436 2431 3327 2663 2432 
2439 3329 2671 2440 2435 3328 2667 2436 
2443 3330 2675 2444 2439 3329 2671 2440 
2447 3331 2679 2448 2443 3330 2675 2444 
556 1002 667 557 2447 3331 2679 2448 
2158 2157 2681 1465 2161 2160 2682 1468 
2164 2163 2683 1471 2158 2157 2681 1465 
2167 2166 2684 1474 2164 2163 2683 1471 
2170 2169 2685 1477 2167 2166 2684 1474 
2173 2172 2686 1480 2170 2169 2685 1477 
2176 2175 2687 1483 2173 2172 2686 1480 
2179 2178 2688 1486 2176 2175 2687 1483 
2182 2181 2689 1489 2179 2178 2688 1486 
2185 2184 2690 1492 2182 2181 2689 1489 
2188 2187 2691 1495 2185 2184 2690 1492 
2191 2190 2692 1498 2188 2187 2691 1495 
2194 2193 2693 1501 2191 2190 2692 1498 
2197 2196 2694 1504 2194 2193 2693 1501 
2200 2199 2695 1507 2197 2196 2694 1504 
2203 2202 2696 1510 2200 2199 2695 1507 
2206 2205 2697 1513 2203 2202 2696 1510 
2209 2208 2698 1516 2206 2205 2697 1513 
2212 2211 2699 1519 2209 2208 2698 1516 
2215 2214 2700 1522 2212 2211 2699 1519 
2218 2217 2701 1525 2215 2214 2700 1522 
456 455 702 126 2218 2217 2701 1525 
2745 3332 1990 2746 2748 3333 1994 2749 
2751 3334 1998 2752 2745 3332 1990 2746 
2754 3335 2002 2755 2751 3334 1998 2752 
2757 3336 2006 2758 2754 3335 2002 2755 
2760 3337 2010 2761 2757 3336 2006 2758 
2763 3338 2014 2764 2760 3337 2010 2761 
2766 3339 2018 2767 2763 3338 2014 2764 
2769 3340 2022 2770 2766 3339 2018 2767 
2772 3341 2026 2773 2769 3340 2022 2770 
2775 3342 2030 2776 2772 3341 2026 2773 
2778 3343 2034 2779 2775 3342 2030 2776 
2781 3344 2038 2782 2778 3343 2034 2779 
2784 3345 2042 2785 2781 3344 2038 2782 
2787 3346 2046 2788 2784 3345 2042 2785 
2790 3347 2050 2791 2787 3346 2046 2788 
2793 3348 2054 2794 2790 3347 2050 2791 
2796 3349 2058 2797 2793 3348 2054 2794 
2799 3350 2062 2800 2796 3349 2058 2797 
2802 3351 2066 2803 2799 3350 2062 2800 
2805 3352 2070 2806 2802 3351 2066 2803 
735 1012 377 736 2805 3352 2070 2806 
1379 3353 1610 1694 1383 3354 1614 1696 
1387 3355 1618 1698 1379 3353 1610 1694 
1391 3356 1622 1700 1387 3355 1618 1698 
1395 3357 1626 1702 1391 3356 1622 1700 
1399 3358 1630 1704 1395 3357 1626 1702 
1403 3359 1634 1706 1399 3358 1630 1704 
1407 3360 1638 1708 1403 3359 1634 1706 
1411 3361 1642 1710 1407 3360 1638 1708 
1415 3362 1646 1712 1411 3361 1642 1710 
1419 3363 1650 1714 1415 3362 1646 1712 
1423 3364 1654 1716 1419 3363 1650 1714 
1427 3365 1658 1718 1423 3364 1654 1716 
1431 3366 1662 1720 1427 3365 1658 1718 
1435 3367 1666 1722 1431 3366 1662 1720 
1439 3368 1670 1724 1435 3367 1666 1722 
1443 3369 1674 1726 1439 3368 1670 1724 
1447 3370 1678 1728 1443 3369 1674 1726 
1451 3371 1682 1730 1447 3370 1678 1728 
1455 3372 1686 1732 1451 3371 1682 1730 
1459 3373 1690 1734 1455 3372 1686 1732 
85 1022 195 233 1459 3373 1690 1734 
1296 2871 3374 1297 1300 2873 3375 1301 
1304 2875 3376 1305 1296 2871 3374 1297 
1308 2877 3377 1309 1304 2875 3376 1305 
1312 2879 3378 1313 1308 2877 3377 1309 
1316 2881 3379 1317 1312 2879 3378 1313 
1320 2883 3380 1321 1316 2881 3379 1317 
1324 2885 3381 1325 1320 2883 3380 1321 
1328 2887 3382 1329 1324 2885 3381 1325 
1332 2889 3383 1333 1328 2887 3382 1329 
1336 2891 3384 1337 1332 2889 3383 1333 
1340 2893 3385 1341 1336 2891 3384 1337 
1344 2895 3386 1345 1340 2893 3385 1341 
1348 2897 3387 1349 1344 2895 3386 1345 
1352 2899 3388 1353 1348 2897 3387 1349 
1356 2901 3389 1357 1352 2899 3388 1353 
1360 2903 3390 1361 1356 2901 3389 1357 
1364 2905 3391 1365 1360 2903 3390 1361 
1368 2907 3392 1369 1364 2905 3391 1365 
1372 2909 3393 1373 1368 2907 3392 1369 
1376 2911 3394 1377 1372 2909 3393 1373 
46 794 1032 47 1376 2911 3394 1377 
3186 3185 1989 1988 3189 3188 1993 1992 
3192 3191 1997 1996 3186 3185 1989 1988 
3195 3194 2001 2000 3192 3191 1997 1996 
3198 3197 2005 2004 3195 3194 2001 2000 
3201 3200 2009 2008 3198 3197 2005 2004 
3204 3203 2013 2012 3201 3200 2009 2008 
3207 3206 2017 2016 3204 3203 2013 2012 
3210 3209 2021 2020 3207 3206 2017 2016 
3213 3212 2025 2024 3210 3209 2021 2020 
3216 3215 2029 2028 3213 3212 2025 2024 
3219 3218 2033 2032 3216 3215 2029 2028 
3222 3221 2037 2036 3219 3218 2033 2032 
3225 3224 2041 2040 3222 3221 2037 2036 
3228 3227 2045 2044 3225 3224 2041 2040 
3231 3230 2049 2048 3228 3227 2045 2044 
3234 3233 2053 2052 3231 3230 2049 2048 
3237 3236 2057 2056 3234 3233 2053 2052 
3240 3239 2061 2060 3237 3236 2057 2056 
3243 3242 2065 2064 3240 3239 2061 2060 
3246 3245 2069 2068 3243 3242 2065 2064 
945 944 376 375 3246 3245 2069 2068 
2912 2220 1296 1295 2915 2224 1300 1299 
2918 2228 1304 1303 2912 2220 1296 1295 
2921 2232 1308 1307 2918 2228 1304 1303 
2924 2236 1312 1311 2921 2232 1308 1307 
2927 2240 1316 1315 2924 2236 1312 1311 
2930 2244 1320 1319 2927 2240 1316 1315 
2933 2248 1324 1323 2930 2244 1320 1319 
2936 2252 1328 1327 2933 2248 1324 1323 
2939 2256 1332 1331 2936 2252 1328 1327 
2942 2260 1336 1335 2939 2256 1332 1331 
2945 2264 1340 1339 2942 2260 1336 1335 
2948 2268 1344 1343 2945 2264 1340 1339 
2951 2272 1348 1347 2948 2268 1344 1343 
2954 2276 1352 1351 2951 2272 1348 1347 
2957 2280 1356 1355 2954 2276 1352 1351 
2960 2284 1360 1359 2957 2280 1356 1355 
2963 2288 1364 1363 2960 2284 1360 1359 
2966 2292 1368 1367 2963 2288 1364 1363 
2969 2296 1372 1371 2966 2292 1368 1367 
2972 2300 1376 1375 2969 2296 1372 1371 
814 486 46 45 2972 2300 1376 1375 
2075 2074 3395 3248 2079 2078 3396 3250 
2083 2082 3397 3252 2075 2074 3395 3248 
2087 2086 3398 3254 2083 2082 3397 3252 
2091 2090 3399 3256 2087 2086 3398 3254 
2095 2094 3400 3258 2091 2090 3399 3256 
2099 2098 3401 3260 2095 2094 3400 3258 
2103 2102 3402 3262 2099 2098 3401 3260 
2107 2106 3403 3264 2103 2102 3402 3262 
2111 2110 3404 3266 2107 2106 3403 3264 
2115 2114 3405 3268 2111 2110 3404 3266 
2119 2118 3406 3270 2115 2114 3405 3268 
2123 2122 3407 3272 2119 2118 3406 3270 
2127 2126 3408 3274 2123 2122 3407 3272 
2131 2130 3409 3276 2127 2126 3408 3274 
2135 2134 3410 3278 2131 2130 3409 3276 
2139 2138 3411 3280 2135 2134 3410 3278 
2143 2142 3412 3282 2139 2138 3411 3280 
2147 2146 3413 3284 2143 2142 3412 3282 
2151 2150 3414 3286 2147 2146 3413 3284 
2155 2154 3415 3288 2151 2150 3414 3286 
418 417 1042 973 2155 2154 3415 3288 
3039 3038 3416 2807 3041 3040 3417 2810 
3043 3042 3418 2813 3039 3038 3416 2807 
3045 3044 3419 2816 3043 3042 3418 2813 
3047 3046 3420 2819 3045 3044 3419 2816 
3049 3048 3421 2822 3047 3046 3420 2819 
3051 3050 3422 2825 3049 3048 3421 2822 
3053 3052 3423 2828 3051 3050 3422 2825 
3055 3054 3424 2831 3053 3052 3423 2828 
3057 3056 3425 2834 3055 3054 3424 2831 
3059 3058 3426 2837 3057 3056 3425 2834 
3061 3060 3427 2840 3059 3058 3426 2837 
3063 3062 3428 2843 3061 3060 3427 2840 
3065 3064 3429 2846 3063 3062 3428 2843 
3067 3066 3430 2849 3065 3064 3429 2846 
3069 3068 3431 2852 3067 3066 3430 2849 
3071 3070 3432 2855 3069 3068 3431 2852 
3073 3072 3433 2858 3071 3070 3432 2855 
3075 3074 3434 2861 3073 3072 3433 2858 
3077 3076 3435 2864 3075 3074 3434 2861 
3079 3078 3436 2867 3077 3076 3435 2864 
874 873 1052 764 3079 3078 3436 2867 
2158 1214 2073 2072 2161 1218 2077 2076 
2164 1222 2081 2080 2158 1214 2073 2072 
2167 1226 2085 2084 2164 1222 2081 2080 
2170 1230 2089 2088 2167 1226 2085 2084 
2173 1234 2093 2092 2170 1230 2089 2088 
2176 1238 2097 2096 2173 1234 2093 2092 
2179 1242 2101 2100 2176 1238 2097 2096 
2182 1246 2105 2104 2179 1242 2101 2100 
2185 1250 2109 2108 2182 1246 2105 2104 
2188 1254 2113 2112 2185 1250 2109 2108 
2191 1258 2117 2116 2188 1254 2113 2112 
2194 1262 2121 2120 2191 1258 2117 2116 
2197 1266 2125 2124 2194 1262 2121 2120 
2200 1270 2129 2128 2197 1266 2125 2124 
2203 1274 2133 2132 2200 1270 2129 2128 
2206 1278 2137 2136 2203 1274 2133 2132 
2209 1282 2141 2140 2206 1278 2137 2136 
2212 1286 2145 2144 2209 1282 2141 2140 
2215 1290 2149 2148 2212 1286 2145 2144 
2218 1294 2153 2152 2215 1290 2149 2148 
456 8 416 415 2218 1294 2153 2152 
3437 1694 1695 3102 3438 1696 1697 3104 
3439 1698 1699 3106 3437 1694 1695 3102 
3440 1700 1701 3108 3439 1698 1699 3106 
3441 1702 1703 3110 3440 1700 1701 3108 
3442 1704 1705 3112 3441 1702 1703 3110 
3443 1706 1707 3114 3442 1704 1705 3112 
3444 1708 1709 3116 3443 1706 1707 3114 
3445 1710 1711 3118 3444 1708 1709 3116 
3446 1712 1713 3120 3445 1710 1711 3118 
3447 1714 1715 3122 3446 1712 1713 3120 
3448 1716 1717 3124 3447 1714 1715 3122 
3449 1718 1719 3126 3448 1716 1717 3124 
3450 1720 1721 3128 3449 1718 1719 3126 
3451 1722 1723 3130 3450 1720 1721 3128 
3452 1724 1725 3132 3451 1722 1723 3130 
3453 1726 1727 3134 3452 1724 1725 3132 
3454 1728 1729 3136 3453 1726 1727 3134 
3455 1730 1731 3138 3454 1728 1729 3136 
3456 1732 1733 3140 3455 1730 1731 3138 
3457 1734 1735 3142 3456 1732 1733 3140 
1062 233 234 904 3457 1734 1735 3142 
3080 1295 1298 3458 3081 1299 1302 3459 
3082 1303 1306 3460 3080 1295 1298 3458 
3083 1307 1310 3461 3082 1303 1306 3460 
3084 1311 1314 3462 3083 1307 1310 3461 
3085 1315 1318 3463 3084 1311 1314 3462 
3086 1319 1322 3464 3085 1315 1318 3463 
3087 1323 1326 3465 3086 1319 1322 3464 
3088 1327 1330 3466 3087 1323 1326 3465 
3089 1331 1334 3467 3088 1327 1330 3466 
3090 1335 1338 3468 3089 1331 1334 3467 
3091 1339 1342 3469 3090 1335 1338 3468 
3092 1343 1346 3470 3091 1339 1342 3469 
3093 1347 1350 3471 3092 1343 1346 3470 
3094 1351 1354 3472 3093 1347 1350 3471 
3095 1355 1358 3473 3094 1351 1354 3472 
3096 1359 1362 3474 3095 1355 1358 3473 
3097 1363 1366 3475 3096 1359 1362 3474 
3098 1367 1370 3476 3097 1363 1366 3475 
3099 1371 1374 3477 3098 1367 1370 3476 
3100 1375 1378 3478 3099 1371 1374 3477 
892 45 48 1072 3100 1375 1378 3478 
3185 3143 3144 1989 3188 3145 3146 1993 
3191 3147 3148 1997 3185 3143 3144 1989 
3194 3149 3150 2001 3191 3147 3148 1997 
3197 3151 3152 2005 3194 3149 3150 2001 
3200 3153 3154 2009 3197 3151 3152 2005 
3203 3155 3156 2013 3200 3153 3154 2009 
3206 3157 3158 2017 3203 3155 3156 2013 
3209 3159 3160 2021 3206 3157 3158 2017 
3212 3161 3162 2025 3209 3159 3160 2021 
3215 3163 3164 2029 3212 3161 3162 2025 
3218 3165 3166 2033 3215 3163 3164 2029 
3221 3167 3168 2037 3218 3165 3166 2033 
3224 3169 3170 2041 3221 3167 3168 2037 
3227 3171 3172 2045 3224 3169 3170 2041 
3230 3173 3174 2049 3227 3171 3172 2045 
3233 3175 3176 2053 3230 3173 3174 2049 
3236 3177 3178 2057 3233 3175 3176 2053 
3239 3179 3180 2061 3236 3177 3178 2057 
3242 3181 3182 2065 3239 3179 3180 2061 
3245 3183 3184 2069 3242 3181 3182 2065 
944 923 924 376 3245 3183 3184 2069 
2809 2808 2703 3017 2812 2811 2705 3018 
2815 2814 2707 3019 2809 2808 2703 3017 
2818 2817 2709 3020 2815 2814 2707 3019 
2821 2820 2711 3021 2818 2817 2709 3020 
2824 2823 2713 3022 2821 2820 2711 3021 
2827 2826 2715 3023 2824 2823 2713 3022 
2830 2829 2717 3024 2827 2826 2715 3023 
2833 2832 2719 3025 2830 2829 2717 3024 
2836 2835 2721 3026 2833 2832 2719 3025 
2839 2838 2723 3027 2836 2835 2721 3026 
2842 2841 2725 3028 2839 2838 2723 3027 
2845 2844 2727 3029 2842 2841 2725 3028 
2848 2847 2729 3030 2845 2844 2727 3029 
2851 2850 2731 3031 2848 2847 2729 3030 
2854 2853 2733 3032 2851 2850 2731 3031 
2857 2856 2735 3033 2854 2853 2733 3032 
2860 2859 2737 3034 2857 2856 2735 3033 
2863 2862 2739 3035 2860 2859 2737 3034 
2866 2865 2741 3036 2863 2862 2739 3035 
2869 2868 2743 3037 2866 2865 2741 3036 
766 765 714 862 2869 2868 2743 3037 
2556 2809 3017 2451 2558 2812 3018 2453 
2560 2815 3019 2455 2556 2809 3017 2451 
2562 2818 3020 2457 2560 2815 3019 2455 
2564 2821 3021 2459 2562 2818 3020 2457 
2566 2824 3022 2461 2564 2821 3021 2459 
2568 2827 3023 2463 2566 2824 3022 2461 
2570 2830 3024 2465 2568 2827 3023 2463 
2572 2833 3025 2467 2570 2830 3024 2465 
2574 2836 3026 2469 2572 2833 3025 2467 
2576 2839 3027 2471 2574 2836 3026 2469 
2578 2842 3028 2473 2576 2839 3027 2471 
2580 2845 3029 2475 2578 2842 3028 2473 
2582 2848 3030 2477 2580 2845 3029 2475 
2584 2851 3031 2479 2582 2848 3030 2477 
2586 2854 3032 2481 2584 2851 3031 2479 
2588 2857 3033 2483 2586 2854 3032 2481 
2590 2860 3034 2485 2588 2857 3033 2483 
2592 2863 3035 2487 2590 2860 3034 2485 
2594 2866 3036 2489 2592 2863 3035 2487 
2596 2869 3037 2491 2594 2866 3036 2489 
644 766 862 594 2596 2869 3037 2491 
2156 2072 2075 2870 2159 2076 2079 2872 
2162 2080 2083 2874 2156 2072 2075 2870 
2165 2084 2087 2876 2162 2080 2083 2874 
2168 2088 2091 2878 2165 2084 2087 2876 
2171 2092 2095 2880 2168 2088 2091 2878 
2174 2096 2099 2882 2171 2092 2095 2880 
2177 2100 2103 2884 2174 2096 2099 2882 
2180 2104 2107 2886 2177 2100 2103 2884 
2183 2108 2111 2888 2180 2104 2107 2886 
2186 2112 2115 2890 2183 2108 2111 2888 
2189 2116 2119 2892 2186 2112 2115 2890 
2192 2120 2123 2894 2189 2116 2119 2892 
2195 2124 2127 2896 2192 2120 2123 2894 
2198 2128 2131 2898 2195 2124 2127 2896 
2201 2132 2135 2900 2198 2128 2131 2898 
2204 2136 2139 2902 2201 2132 2135 2900 
2207 2140 2143 2904 2204 2136 2139 2902 
2210 2144 2147 2906 2207 2140 2143 2904 
2213 2148 2151 2908 2210 2144 2147 2906 
2216 2152 2155 2910 2213 2148 2151 2908 
454 415 418 793 2216 2152 2155 2910 
2157 2222 2304 2681 2160 2226 2307 2682 
2163 2230 2310 2683 2157 2222 2304 2681 
2166 2234 2313 2684 2163 2230 2310 2683 
2169 2238 2316 2685 2166 2234 2313 2684 
2172 2242 2319 2686 2169 2238 2316 2685 
2175 2246 2322 2687 2172 2242 2319 2686 
2178 2250 2325 2688 2175 2246 2322 2687 
2181 2254 2328 2689 2178 2250 2325 2688 
2184 2258 2331 2690 2181 2254 2328 2689 
2187 2262 2334 2691 2184 2258 2331 2690 
2190 2266 2337 2692 2187 2262 2334 2691 
2193 2270 2340 2693 2190 2266 2337 2692 
2196 2274 2343 2694 2193 2270 2340 2693 
2199 2278 2346 2695 2196 2274 2343 2694 
2202 2282 2349 2696 2199 2278 2346 2695 
2205 2286 2352 2697 2202 2282 2349 2696 
2208 2290 2355 2698 2205 2286 2352 2697 
2211 2294 2358 2699 2208 2290 2355 2698 
2214 2298 2361 2700 2211 2294 2358 2699 
2217 2302 2364 2701 2214 2298 2361 2700 
455 488 525 702 2217 2302 2364 2701 
2807 3416 2303 2808 2810 3417 2306 2811 
2813 3418 2309 2814 2807 3416 2303 2808 
2816 3419 2312 2817 2813 3418 2309 2814 
2819 3420 2315 2820 2816 3419 2312 2817 
2822 3421 2318 2823 2819 3420 2315 2820 
2825 3422 2321 2826 2822 3421 2318 2823 
2828 3423 2324 2829 2825 3422 2321 2826 
2831 3424 2327 2832 2828 3423 2324 2829 
2834 3425 2330 2835 2831 3424 2327 2832 
2837 3426 2333 2838 2834 3425 2330 2835 
2840 3427 2336 2841 2837 3426 2333 2838 
2843 3428 2339 2844 2840 3427 2336 2841 
2846 3429 2342 2847 2843 3428 2339 2844 
2849 3430 2345 2850 2846 3429 2342 2847 
2852 3431 2348 2853 2849 3430 2345 2850 
2855 3432 2351 2856 2852 3431 2348 2853 
2858 3433 2354 2859 2855 3432 2351 2856 
2861 3434 2357 2862 2858 3433 2354 2859 
2864 3435 2360 2865 2861 3434 2357 2862 
2867 3436 2363 2868 2864 3435 2360 2865 
764 1052 524 765 2867 3436 2363 2868 
2493 3080 3458 3479 2496 3081 3459 3480 
2499 3082 3460 3481 2493 3080 3458 3479 
2502 3083 3461 3482 2499 3082 3460 3481 
2505 3084 3462 3483 2502 3083 3461 3482 
2508 3085 3463 3484 2505 3084 3462 3483 
2511 3086 3464 3485 2508 3085 3463 3484 
2514 3087 3465 3486 2511 3086 3464 3485 
2517 3088 3466 3487 2514 3087 3465 3486 
2520 3089 3467 3488 2517 3088 3466 3487 
2523 3090 3468 3489 2520 3089 3467 3488 
2526 3091 3469 3490 2523 3090 3468 3489 
2529 3092 3470 3491 2526 3091 3469 3490 
2532 3093 3471 3492 2529 3092 3470 3491 
2535 3094 3472 3493 2532 3093 3471 3492 
2538 3095 3473 3494 2535 3094 3472 3493 
2541 3096 3474 3495 2538 3095 3473 3494 
2544 3097 3475 3496 2541 3096 3474 3495 
2547 3098 3476 3497 2544 3097 3475 3496 
2550 3099 3477 3498 2547 3098 3476 3497 
2553 3100 3478 3499 2550 3099 3477 3498 
615 892 1072 1082 2553 3100 3478 3499 
1380 1379 1694 3437 1384 1383 1696 3438 
1388 1387 1698 3439 1380 1379 1694 3437 
1392 1391 1700 3440 1388 1387 1698 3439 
1396 1395 1702 3441 1392 1391 1700 3440 
1400 1399 1704 3442 1396 1395 1702 3441 
1404 1403 1706 3443 1400 1399 1704 3442 
1408 1407 1708 3444 1404 1403 1706 3443 
1412 1411 1710 3445 1408 1407 1708 3444 
1416 1415 1712 3446 1412 1411 1710 3445 
1420 1419 1714 3447 1416 1415 1712 3446 
1424 1423 1716 3448 1420 1419 1714 3447 
1428 1427 1718 3449 1424 1423 1716 3448 
1432 1431 1720 3450 1428 1427 1718 3449 
1436 1435 1722 3451 1432 1431 1720 3450 
1440 1439 1724 3452 1436 1435 1722 3451 
1444 1443 1726 3453 1440 1439 1724 3452 
1448 1447 1728 3454 1444 1443 1726 3453 
1452 1451 1730 3455 1448 1447 1728 3454 
1456 1455 1732 3456 1452 1451 1730 3455 
1460 1459 1734 3457 1456 1455 1732 3456 
86 85 233 1062 1460 1459 1734 3457 
3500 3501 1695 1613 3502 3503 1697 1617 
3504 3505 1699 1621 3500 3501 1695 1613 
3506 3507 1701 1625 3504 3505 1699 1621 
3508 3509 1703 1629 3506 3507 1701 1625 
3510 3511 1705 1633 3508 3509 1703 1629 
3512 3513 1707 1637 3510 3511 1705 1633 
3514 3515 1709 1641 3512 3513 1707 1637 
3516 3517 1711 1645 3514 3515 1709 1641 
3518 3519 1713 1649 3516 3517 1711 1645 
3520 3521 1715 1653 3518 3519 1713 1649 
3522 3523 1717 1657 3520 3521 1715 1653 
3524 3525 1719 1661 3522 3523 1717 1657 
3526 3527 1721 1665 3524 3525 1719 1661 
3528 3529 1723 1669 3526 3527 1721 1665 
3530 3531 1725 1673 3528 3529 1723 1669 
3532 3533 1727 1677 3530 3531 1725 1673 
3534 3535 1729 1681 3532 3533 1727 1677 
3536 3537 1731 1685 3534 3535 1729 1681 
3538 3539 1733 1689 3536 3537 1731 1685 
3540 3541 1735 1693 3538 3539 1733 1689 
1093 1094 234 198 3540 3541 1735 1693 
2156 2219 2222 2157 2159 2223 2226 2160 
2162 2227 2230 2163 2156 2219 2222 2157 
2165 2231 2234 2166 2162 2227 2230 2163 
2168 2235 2238 2169 2165 2231 2234 2166 
2171 2239 2242 2172 2168 2235 2238 2169 
2174 2243 2246 2175 2171 2239 2242 2172 
2177 2247 2250 2178 2174 2243 2246 2175 
2180 2251 2254 2181 2177 2247 2250 2178 
2183 2255 2258 2184 2180 2251 2254 2181 
2186 2259 2262 2187 2183 2255 2258 2184 
2189 2263 2266 2190 2186 2259 2262 2187 
2192 2267 2270 2193 2189 2263 2266 2190 
2195 2271 2274 2196 2192 2267 2270 2193 
2198 2275 2278 2199 2195 2271 2274 2196 
2201 2279 2282 2202 2198 2275 2278 2199 
2204 2283 2286 2205 2201 2279 2282 2202 
2207 2287 2290 2208 2204 2283 2286 2205 
2210 2291 2294 2211 2207 2287 2290 2208 
2213 2295 2298 2214 2210 2291 2294 2211 
2216 2299 2302 2217 2213 2295 2298 2214 
454 485 488 455 2216 2299 2302 2217 
3501 3101 3102 1695 3503 3103 3104 1697 
3505 3105 3106 1699 3501 3101 3102 1695 
3507 3107 3108 1701 3505 3105 3106 1699 
3509 3109 3110 1703 3507 3107 3108 1701 
3511 3111 3112 1705 3509 3109 3110 1703 
3513 3113 3114 1707 3511 3111 3112 1705 
3515 3115 3116 1709 3513 3113 3114 1707 
3517 3117 3118 1711 3515 3115 3116 1709 
3519 3119 3120 1713 3517 3117 3118 1711 
3521 3121 3122 1715 3519 3119 3120 1713 
3523 3123 3124 1717 3521 3121 3122 1715 
3525 3125 3126 1719 3523 3123 3124 1717 
3527 3127 3128 1721 3525 3125 3126 1719 
3529 3129 3130 1723 3527 3127 3128 1721 
3531 3131 3132 1725 3529 3129 3130 1723 
3533 3133 3134 1727 3531 3131 3132 1725 
3535 3135 3136 1729 3533 3133 3134 1727 
3537 3137 3138 1731 3535 3135 3136 1729 
3539 3139 3140 1733 3537 3137 3138 1731 
3541 3141 3142 1735 3539 3139 3140 1733 
1094 903 904 234 3541 3141 3142 1735 
2220 2912 2702 2221 2224 2915 2704 2225 
2228 2918 2706 2229 2220 2912 2702 2221 
2232 2921 2708 2233 2228 2918 2706 2229 
2236 2924 2710 2237 2232 2921 2708 2233 
2240 2927 2712 2241 2236 2924 2710 2237 
2244 2930 2714 2245 2240 2927 2712 2241 
2248 2933 2716 2249 2244 2930 2714 2245 
2252 2936 2718 2253 2248 2933 2716 2249 
2256 2939 2720 2257 2252 2936 2718 2253 
2260 2942 2722 2261 2256 2939 2720 2257 
2264 2945 2724 2265 2260 2942 2722 2261 
2268 2948 2726 2269 2264 2945 2724 2265 
2272 2951 2728 2273 2268 2948 2726 2269 
2276 2954 2730 2277 2272 2951 2728 2273 
2280 2957 2732 2281 2276 2954 2730 2277 
2284 2960 2734 2285 2280 2957 2732 2281 
2288 2963 2736 2289 2284 2960 2734 2285 
2292 2966 2738 2293 2288 2963 2736 2289 
2296 2969 2740 2297 2292 2966 2738 2293 
2300 2972 2742 2301 2296 2969 2740 2297 
486 814 713 487 2300 2972 2742 2301 
3542 2555 1863 1862 3543 2557 1867 1866 
3544 2559 1871 1870 3542 2555 1863 1862 
3545 2561 1875 1874 3544 2559 1871 1870 
3546 2563 1879 1878 3545 2561 1875 1874 
3547 2565 1883 1882 3546 2563 1879 1878 
3548 2567 1887 1886 3547 2565 1883 1882 
3549 2569 1891 1890 3548 2567 1887 1886 
3550 2571 1895 1894 3549 2569 1891 1890 
3551 2573 1899 1898 3550 2571 1895 1894 
3552 2575 1903 1902 3551 2573 1899 1898 
3553 2577 1907 1906 3552 2575 1903 1902 
3554 2579 1911 1910 3553 2577 1907 1906 
3555 2581 1915 1914 3554 2579 1911 1910 
3556 2583 1919 1918 3555 2581 1915 1914 
3557 2585 1923 1922 3556 2583 1919 1918 
3558 2587 1927 1926 3557 2585 1923 1922 
3559 2589 1931 1930 3558 2587 1927 1926 
3560 2591 1935 1934 3559 2589 1931 1930 
3561 2593 1939 1938 3560 2591 1935 1934 
3562 2595 1943 1942 3561 2593 1939 1938 
1112 643 316 315 3562 2595 1943 1942 
3563 3353 2555 3542 3564 3354 2557 3543 
3565 3355 2559 3544 3563 3353 2555 3542 
3566 3356 2561 3545 3565 3355 2559 3544 
3567 3357 2563 3546 3566 3356 2561 3545 
3568 3358 2565 3547 3567 3357 2563 3546 
3569 3359 2567 3548 3568 3358 2565 3547 
3570 3360 2569 3549 3569 3359 2567 3548 
3571 3361 2571 3550 3570 3360 2569 3549 
3572 3362 2573 3551 3571 3361 2571 3550 
3573 3363 2575 3552 3572 3362 2573 3551 
3574 3364 2577 3553 3573 3363 2575 3552 
3575 3365 2579 3554 3574 3364 2577 3553 
3576 3366 2581 3555 3575 3365 2579 3554 
3577 3367 2583 3556 3576 3366 2581 3555 
3578 3368 2585 3557 3577 3367 2583 3556 
3579 3369 2587 3558 3578 3368 2585 3557 
3580 3370 2589 3559 3579 3369 2587 3558 
3581 3371 2591 3560 3580 3370 2589 3559 
3582 3372 2593 3561 3581 3371 2591 3560 
3583 3373 2595 3562 3582 3372 2593 3561 
1122 1022 643 1112 3583 3373 2595 3562 
2871 2870 3249 3374 2873 2872 3251 3375 
2875 2874 3253 3376 2871 2870 3249 3374 
2877 2876 3255 3377 2875 2874 3253 3376 
2879 2878 3257 3378 2877 2876 3255 3377 
2881 2880 3259 3379 2879 2878 3257 3378 
2883 2882 3261 3380 2881 2880 3259 3379 
2885 2884 3263 3381 2883 2882 3261 3380 
2887 2886 3265 3382 2885 2884 3263 3381 
2889 2888 3267 3383 2887 2886 3265 3382 
2891 2890 3269 3384 2889 2888 3267 3383 
2893 2892 3271 3385 2891 2890 3269 3384 
2895 2894 3273 3386 2893 2892 3271 3385 
2897 2896 3275 3387 2895 2894 3273 3386 
2899 2898 3277 3388 2897 2896 3275 3387 
2901 2900 3279 3389 2899 2898 3277 3388 
2903 2902 3281 3390 2901 2900 3279 3389 
2905 2904 3283 3391 2903 2902 3281 3390 
2907 2906 3285 3392 2905 2904 3283 3391 
2909 2908 3287 3393 2907 2906 3285 3392 
2911 2910 3289 3394 2909 2908 3287 3393 
794 793 974 1032 2911 2910 3289 3394 
3332 3584 1991 1990 3333 3585 1995 1994 
3334 3586 1999 1998 3332 3584 1991 1990 
3335 3587 2003 2002 3334 3586 1999 1998 
3336 3588 2007 2006 3335 3587 2003 2002 
3337 3589 2011 2010 3336 3588 2007 2006 
3338 3590 2015 2014 3337 3589 2011 2010 
3339 3591 2019 2018 3338 3590 2015 2014 
3340 3592 2023 2022 3339 3591 2019 2018 
3341 3593 2027 2026 3340 3592 2023 2022 
3342 3594 2031 2030 3341 3593 2027 2026 
3343 3595 2035 2034 3342 3594 2031 2030 
3344 3596 2039 2038 3343 3595 2035 2034 
3345 3597 2043 2042 3344 3596 2039 2038 
3346 3598 2047 2046 3345 3597 2043 2042 
3347 3599 2051 2050 3346 3598 2047 2046 
3348 3600 2055 2054 3347 3599 2051 2050 
3349 3601 2059 2058 3348 3600 2055 2054 
3350 3602 2063 2062 3349 3601 2059 2058 
3351 3603 2067 2066 3350 3602 2063 2062 
3352 3604 2071 2070 3351 3603 2067 2066 
1012 1132 378 377 3352 3604 2071 2070 
2913 2492 2450 2914 2916 2495 2452 2917 
2919 2498 2454 2920 2913 2492 2450 2914 
2922 2501 2456 2923 2919 2498 2454 2920 
2925 2504 2458 2926 2922 2501 2456 2923 
2928 2507 2460 2929 2925 2504 2458 2926 
2931 2510 2462 2932 2928 2507 2460 2929 
2934 2513 2464 2935 2931 2510 2462 2932 
2937 2516 2466 2938 2934 2513 2464 2935 
2940 2519 2468 2941 2937 2516 2466 2938 
2943 2522 2470 2944 2940 2519 2468 2941 
2946 2525 2472 2947 2943 2522 2470 2944 
2949 2528 2474 2950 2946 2525 2472 2947 
2952 2531 2476 2953 2949 2528 2474 2950 
2955 2534 2478 2956 2952 2531 2476 2953 
2958 2537 2480 2959 2955 2534 2478 2956 
2961 2540 2482 2962 2958 2537 2480 2959 
2964 2543 2484 2965 2961 2540 2482 2962 
2967 2546 2486 2968 2964 2543 2484 2965 
2970 2549 2488 2971 2967 2546 2486 2968 
2973 2552 2490 2974 2970 2549 2488 2971 
815 614 593 816 2973 2552 2490 2974 
3605 2494 3606 3607 3608 2497 3609 3610 
3611 2500 3612 3613 3605 2494 3606 3607 
3614 2503 3615 3616 3611 2500 3612 3613 
3617 2506 3618 3619 3614 2503 3615 3616 
3620 2509 3621 3622 3617 2506 3618 3619 
3623 2512 3624 3625 3620 2509 3621 3622 
3626 2515 3627 3628 3623 2512 3624 3625 
3629 2518 3630 3631 3626 2515 3627 3628 
3632 2521 3633 3634 3629 2518 3630 3631 
3635 2524 3636 3637 3632 2521 3633 3634 
3638 2527 3639 3640 3635 2524 3636 3637 
3641 2530 3642 3643 3638 2527 3639 3640 
3644 2533 3645 3646 3641 2530 3642 3643 
3647 2536 3648 3649 3644 2533 3645 3646 
3650 2539 3651 3652 3647 2536 3648 3649 
3653 2542 3654 3655 3650 2539 3651 3652 
3656 2545 3657 3658 3653 2542 3654 3655 
3659 2548 3660 3661 3656 2545 3657 3658 
3662 2551 3663 3664 3659 2548 3660 3661 
3665 2554 3666 3667 3662 2551 3663 3664 
1144 616 1145 1146 3665 2554 3666 3667 
3668 3500 1613 1612 3669 3502 1617 1616 
3670 3504 1621 1620 3668 3500 1613 1612 
3671 3506 1625 1624 3670 3504 1621 1620 
3672 3508 1629 1628 3671 3506 1625 1624 
3673 3510 1633 1632 3672 3508 1629 1628 
3674 3512 1637 1636 3673 3510 1633 1632 
3675 3514 1641 1640 3674 3512 1637 1636 
3676 3516 1645 1644 3675 3514 1641 1640 
3677 3518 1649 1648 3676 3516 1645 1644 
3678 3520 1653 1652 3677 3518 1649 1648 
3679 3522 1657 1656 3678 3520 1653 1652 
3680 3524 1661 1660 3679 3522 1657 1656 
3681 3526 1665 1664 3680 3524 1661 1660 
3682 3528 1669 1668 3681 3526 1665 1664 
3683 3530 1673 1672 3682 3528 1669 1668 
3684 3532 1677 1676 3683 3530 1673 1672 
3685 3534 1681 1680 3684 3532 1677 1676 
3686 3536 1685 1684 3685 3534 1681 1680 
3687 3538 1689 1688 3686 3536 1685 1684 
3688 3540 1693 1692 3687 3538 1689 1688 
1172 1093 198 197 3688 3540 1693 1692 
2598 2975 2368 2599 2602 2977 2372 2603 
2606 2979 2376 2607 2598 2975 2368 2599 
2610 2981 2380 2611 2606 2979 2376 2607 
2614 2983 2384 2615 2610 2981 2380 2611 
2618 2985 2388 2619 2614 2983 2384 2615 
2622 2987 2392 2623 2618 2985 2388 2619 
2626 2989 2396 2627 2622 2987 2392 2623 
2630 2991 2400 2631 2626 2989 2396 2627 
2634 2993 2404 2635 2630 2991 2400 2631 
2638 2995 2408 2639 2634 2993 2404 2635 
2642 2997 2412 2643 2638 2995 2408 2639 
2646 2999 2416 2647 2642 2997 2412 2643 
2650 3001 2420 2651 2646 2999 2416 2647 
2654 3003 2424 2655 2650 3001 2420 2651 
2658 3005 2428 2659 2654 3003 2424 2655 
2662 3007 2432 2663 2658 3005 2428 2659 
2666 3009 2436 2667 2662 3007 2432 2663 
2670 3011 2440 2671 2666 3009 2436 2667 
2674 3013 2444 2675 2670 3011 2440 2671 
2678 3015 2448 2679 2674 3013 2444 2675 
666 843 557 667 2678 3015 2448 2679 
3039 1380 3437 2976 3041 1384 3438 2978 
3043 1388 3439 2980 3039 1380 3437 2976 
3045 1392 3440 2982 3043 1388 3439 2980 
3047 1396 3441 2984 3045 1392 3440 2982 
3049 1400 3442 2986 3047 1396 3441 2984 
3051 1404 3443 2988 3049 1400 3442 2986 
3053 1408 3444 2990 3051 1404 3443 2988 
3055 1412 3445 2992 3053 1408 3444 2990 
3057 1416 3446 2994 3055 1412 3445 2992 
3059 1420 3447 2996 3057 1416 3446 2994 
3061 1424 3448 2998 3059 1420 3447 2996 
3063 1428 3449 3000 3061 1424 3448 2998 
3065 1432 3450 3002 3063 1428 3449 3000 
3067 1436 3451 3004 3065 1432 3450 3002 
3069 1440 3452 3006 3067 1436 3451 3004 
3071 1444 3453 3008 3069 1440 3452 3006 
3073 1448 3454 3010 3071 1444 3453 3008 
3075 1452 3455 3012 3073 1448 3454 3010 
3077 1456 3456 3014 3075 1452 3455 3012 
3079 1460 3457 3016 3077 1456 3456 3014 
874 86 1062 844 3079 1460 3457 3016 
3311 2744 2600 2599 3312 2747 2604 2603 
3313 2750 2608 2607 3311 2744 2600 2599 
3314 2753 2612 2611 3313 2750 2608 2607 
3315 2756 2616 2615 3314 2753 2612 2611 
3316 2759 2620 2619 3315 2756 2616 2615 
3317 2762 2624 2623 3316 2759 2620 2619 
3318 2765 2628 2627 3317 2762 2624 2623 
3319 2768 2632 2631 3318 2765 2628 2627 
3320 2771 2636 2635 3319 2768 2632 2631 
3321 2774 2640 2639 3320 2771 2636 2635 
3322 2777 2644 2643 3321 2774 2640 2639 
3323 2780 2648 2647 3322 2777 2644 2643 
3324 2783 2652 2651 3323 2780 2648 2647 
3325 2786 2656 2655 3324 2783 2652 2651 
3326 2789 2660 2659 3325 2786 2656 2655 
3327 2792 2664 2663 3326 2789 2660 2659 
3328 2795 2668 2667 3327 2792 2664 2663 
3329 2798 2672 2671 3328 2795 2668 2667 
3330 2801 2676 2675 3329 2798 2672 2671 
3331 2804 2680 2679 3330 2801 2676 2675 
1002 734 668 667 3331 2804 2680 2679 
3038 1778 1781 3416 3040 1782 1785 3417 
3042 1786 1789 3418 3038 1778 1781 3416 
3044 1790 1793 3419 3042 1786 1789 3418 
3046 1794 1797 3420 3044 1790 1793 3419 
3048 1798 1801 3421 3046 1794 1797 3420 
3050 1802 1805 3422 3048 1798 1801 3421 
3052 1806 1809 3423 3050 1802 1805 3422 
3054 1810 1813 3424 3052 1806 1809 3423 
3056 1814 1817 3425 3054 1810 1813 3424 
3058 1818 1821 3426 3056 1814 1817 3425 
3060 1822 1825 3427 3058 1818 1821 3426 
3062 1826 1829 3428 3060 1822 1825 3427 
3064 1830 1833 3429 3062 1826 1829 3428 
3066 1834 1837 3430 3064 1830 1833 3429 
3068 1838 1841 3431 3066 1834 1837 3430 
3070 1842 1845 3432 3068 1838 1841 3431 
3072 1846 1849 3433 3070 1842 1845 3432 
3074 1850 1853 3434 3072 1846 1849 3433 
3076 1854 1857 3435 3074 1850 1853 3434 
3078 1858 1861 3436 3076 1854 1857 3435 
873 275 278 1052 3078 1858 1861 3436 
2073 3290 3689 2074 2077 3291 3690 2078 
2081 3292 3691 2082 2073 3290 3689 2074 
2085 3293 3692 2086 2081 3292 3691 2082 
2089 3294 3693 2090 2085 3293 3692 2086 
2093 3295 3694 2094 2089 3294 3693 2090 
2097 3296 3695 2098 2093 3295 3694 2094 
2101 3297 3696 2102 2097 3296 3695 2098 
2105 3298 3697 2106 2101 3297 3696 2102 
2109 3299 3698 2110 2105 3298 3697 2106 
2113 3300 3699 2114 2109 3299 3698 2110 
2117 3301 3700 2118 2113 3300 3699 2114 
2121 3302 3701 2122 2117 3301 3700 2118 
2125 3303 3702 2126 2121 3302 3701 2122 
2129 3304 3703 2130 2125 3303 3702 2126 
2133 3305 3704 2134 2129 3304 3703 2130 
2137 3306 3705 2138 2133 3305 3704 2134 
2141 3307 3706 2142 2137 3306 3705 2138 
2145 3308 3707 2146 2141 3307 3706 2142 
2149 3309 3708 2150 2145 3308 3707 2146 
2153 3310 3709 2154 2149 3309 3708 2150 
416 992 1182 417 2153 3310 3709 2154 
2492 1526 1529 2450 2495 1530 1533 2452 
2498 1534 1537 2454 2492 1526 1529 2450 
2501 1538 1541 2456 2498 1534 1537 2454 
2504 1542 1545 2458 2501 1538 1541 2456 
2507 1546 1549 2460 2504 1542 1545 2458 
2510 1550 1553 2462 2507 1546 1549 2460 
2513 1554 1557 2464 2510 1550 1553 2462 
2516 1558 1561 2466 2513 1554 1557 2464 
2519 1562 1565 2468 2516 1558 1561 2466 
2522 1566 1569 2470 2519 1562 1565 2468 
2525 1570 1573 2472 2522 1566 1569 2470 
2528 1574 1577 2474 2525 1570 1573 2472 
2531 1578 1581 2476 2528 1574 1577 2474 
2534 1582 1585 2478 2531 1578 1581 2476 
2537 1586 1589 2480 2534 1582 1585 2478 
2540 1590 1593 2482 2537 1586 1589 2480 
2543 1594 1597 2484 2540 1590 1593 2482 
2546 1598 1601 2486 2543 1594 1597 2484 
2549 1602 1605 2488 2546 1598 1601 2486 
2552 1606 1609 2490 2549 1602 1605 2488 
614 155 158 593 2552 1606 1609 2490 
3416 1781 1947 2303 3417 1785 1949 2306 
3418 1789 1951 2309 3416 1781 1947 2303 
3419 1793 1953 2312 3418 1789 1951 2309 
3420 1797 1955 2315 3419 1793 1953 2312 
3421 1801 1957 2318 3420 1797 1955 2315 
3422 1805 1959 2321 3421 1801 1957 2318 
3423 1809 1961 2324 3422 1805 1959 2321 
3424 1813 1963 2327 3423 1809 1961 2324 
3425 1817 1965 2330 3424 1813 1963 2327 
3426 1821 1967 2333 3425 1817 1965 2330 
3427 1825 1969 2336 3426 1821 1967 2333 
3428 1829 1971 2339 3427 1825 1969 2336 
3429 1833 1973 2342 3428 1829 1971 2339 
3430 1837 1975 2345 3429 1833 1973 2342 
3431 1841 1977 2348 3430 1837 1975 2345 
3432 1845 1979 2351 3431 1841 1977 2348 
3433 1849 1981 2354 3432 1845 1979 2351 
3434 1853 1983 2357 3433 1849 1981 2354 
3435 1857 1985 2360 3434 1853 1983 2357 
3436 1861 1987 2363 3435 1857 1985 2360 
1052 278 354 524 3436 1861 1987 2363 
1779 3143 1736 1780 1783 3145 1738 1784 
1787 3147 1740 1788 1779 3143 1736 1780 
1791 3149 1742 1792 1787 3147 1740 1788 
1795 3151 1744 1796 1791 3149 1742 1792 
1799 3153 1746 1800 1795 3151 1744 1796 
1803 3155 1748 1804 1799 3153 1746 1800 
1807 3157 1750 1808 1803 3155 1748 1804 
1811 3159 1752 1812 1807 3157 1750 1808 
1815 3161 1754 1816 1811 3159 1752 1812 
1819 3163 1756 1820 1815 3161 1754 1816 
1823 3165 1758 1824 1819 3163 1756 1820 
1827 3167 1760 1828 1823 3165 1758 1824 
1831 3169 1762 1832 1827 3167 1760 1828 
1835 3171 1764 1836 1831 3169 1762 1832 
1839 3173 1766 1840 1835 3171 1764 1836 
1843 3175 1768 1844 1839 3173 1766 1840 
1847 3177 1770 1848 1843 3175 1768 1844 
1851 3179 1772 1852 1847 3177 1770 1848 
1855 3181 1774 1856 1851 3179 1772 1852 
1859 3183 1776 1860 1855 3181 1774 1856 
276 923 253 277 1859 3183 1776 1860 
2222 2221 2305 2304 2226 2225 2308 2307 
2230 2229 2311 2310 2222 2221 2305 2304 
2234 2233 2314 2313 2230 2229 2311 2310 
2238 2237 2317 2316 2234 2233 2314 2313 
2242 2241 2320 2319 2238 2237 2317 2316 
2246 2245 2323 2322 2242 2241 2320 2319 
2250 2249 2326 2325 2246 2245 2323 2322 
2254 2253 2329 2328 2250 2249 2326 2325 
2258 2257 2332 2331 2254 2253 2329 2328 
2262 2261 2335 2334 2258 2257 2332 2331 
2266 2265 2338 2337 2262 2261 2335 2334 
2270 2269 2341 2340 2266 2265 2338 2337 
2274 2273 2344 2343 2270 2269 2341 2340 
2278 2277 2347 2346 2274 2273 2344 2343 
2282 2281 2350 2349 2278 2277 2347 2346 
2286 2285 2353 2352 2282 2281 2350 2349 
2290 2289 2356 2355 2286 2285 2353 2352 
2294 2293 2359 2358 2290 2289 2356 2355 
2298 2297 2362 2361 2294 2293 2359 2358 
2302 2301 2365 2364 2298 2297 2362 2361 
488 487 526 525 2302 2301 2365 2364 
3144 2597 2600 2746 3146 2601 2604 2749 
3148 2605 2608 2752 3144 2597 2600 2746 
3150 2609 2612 2755 3148 2605 2608 2752 
3152 2613 2616 2758 3150 2609 2612 2755 
3154 2617 2620 2761 3152 2613 2616 2758 
3156 2621 2624 2764 3154 2617 2620 2761 
3158 2625 2628 2767 3156 2621 2624 2764 
3160 2629 2632 2770 3158 2625 2628 2767 
3162 2633 2636 2773 3160 2629 2632 2770 
3164 2637 2640 2776 3162 2633 2636 2773 
3166 2641 2644 2779 3164 2637 2640 2776 
3168 2645 2648 2782 3166 2641 2644 2779 
3170 2649 2652 2785 3168 2645 2648 2782 
3172 2653 2656 2788 3170 2649 2652 2785 
3174 2657 2660 2791 3172 2653 2656 2788 
3176 2661 2664 2794 3174 2657 2660 2791 
3178 2665 2668 2797 3176 2661 2664 2794 
3180 2669 2672 2800 3178 2665 2668 2797 
3182 2673 2676 2803 3180 2669 2672 2800 
3184 2677 2680 2806 3182 2673 2676 2803 
924 665 668 736 3184 2677 2680 2806 
1863 2556 2451 1864 1867 2558 2453 1868 
1871 2560 2455 1872 1863 2556 2451 1864 
1875 2562 2457 1876 1871 2560 2455 1872 
1879 2564 2459 1880 1875 2562 2457 1876 
1883 2566 2461 1884 1879 2564 2459 1880 
1887 2568 2463 1888 1883 2566 2461 1884 
1891 2570 2465 1892 1887 2568 2463 1888 
1895 2572 2467 1896 1891 2570 2465 1892 
1899 2574 2469 1900 1895 2572 2467 1896 
1903 2576 2471 1904 1899 2574 2469 1900 
1907 2578 2473 1908 1903 2576 2471 1904 
1911 2580 2475 1912 1907 2578 2473 1908 
1915 2582 2477 1916 1911 2580 2475 1912 
1919 2584 2479 1920 1915 2582 2477 1916 
1923 2586 2481 1924 1919 2584 2479 1920 
1927 2588 2483 1928 1923 2586 2481 1924 
1931 2590 2485 1932 1927 2588 2483 1928 
1935 2592 2487 1936 1931 2590 2485 1932 
1939 2594 2489 1940 1935 2592 2487 1936 
1943 2596 2491 1944 1939 2594 2489 1940 
316 644 594 317 1943 2596 2491 1944 
1464 3710 1212 1211 1467 3711 1216 1215 
1470 3712 1220 1219 1464 3710 1212 1211 
1473 3713 1224 1223 1470 3712 1220 1219 
1476 3714 1228 1227 1473 3713 1224 1223 
1479 3715 1232 1231 1476 3714 1228 1227 
1482 3716 1236 1235 1479 3715 1232 1231 
1485 3717 1240 1239 1482 3716 1236 1235 
1488 3718 1244 1243 1485 3717 1240 1239 
1491 3719 1248 1247 1488 3718 1244 1243 
1494 3720 1252 1251 1491 3719 1248 1247 
1497 3721 1256 1255 1494 3720 1252 1251 
1500 3722 1260 1259 1497 3721 1256 1255 
1503 3723 1264 1263 1500 3722 1260 1259 
1506 3724 1268 1267 1503 3723 1264 1263 
1509 3725 1272 1271 1506 3724 1268 1267 
1512 3726 1276 1275 1509 3725 1272 1271 
1515 3727 1280 1279 1512 3726 1276 1275 
1518 3728 1284 1283 1515 3727 1280 1279 
1521 3729 1288 1287 1518 3728 1284 1283 
1524 3730 1292 1291 1521 3729 1288 1287 
125 1192 6 5 1524 3730 1292 1291 
3353 3563 1611 1610 3354 3564 1615 1614 
3355 3565 1619 1618 3353 3563 1611 1610 
3356 3566 1623 1622 3355 3565 1619 1618 
3357 3567 1627 1626 3356 3566 1623 1622 
3358 3568 1631 1630 3357 3567 1627 1626 
3359 3569 1635 1634 3358 3568 1631 1630 
3360 3570 1639 1638 3359 3569 1635 1634 
3361 3571 1643 1642 3360 3570 1639 1638 
3362 3572 1647 1646 3361 3571 1643 1642 
3363 3573 1651 1650 3362 3572 1647 1646 
3364 3574 1655 1654 3363 3573 1651 1650 
3365 3575 1659 1658 3364 3574 1655 1654 
3366 3576 1663 1662 3365 3575 1659 1658 
3367 3577 1667 1666 3366 3576 1663 1662 
3368 3578 1671 1670 3367 3577 1667 1666 
3369 3579 1675 1674 3368 3578 1671 1670 
3370 3580 1679 1678 3369 3579 1675 1674 
3371 3581 1683 1682 3370 3580 1679 1678 
3372 3582 1687 1686 3371 3581 1683 1682 
3373 3583 1691 1690 3372 3582 1687 1686 
1022 1122 196 195 3373 3583 1691 1690 
1465 1211 1214 2158 1468 1215 1218 2161 
1471 1219 1222 2164 1465 1211 1214 2158 
1474 1223 1226 2167 1471 1219 1222 2164 
1477 1227 1230 2170 1474 1223 1226 2167 
1480 1231 1234 2173 1477 1227 1230 2170 
1483 1235 1238 2176 1480 1231 1234 2173 
1486 1239 1242 2179 1483 1235 1238 2176 
1489 1243 1246 2182 1486 1239 1242 2179 
1492 1247 1250 2185 1489 1243 1246 2182 
1495 1251 1254 2188 1492 1247 1250 2185 
1498 1255 1258 2191 1495 1251 1254 2188 
1501 1259 1262 2194 1498 1255 1258 2191 
1504 1263 1266 2197 1501 1259 1262 2194 
1507 1267 1270 2200 1504 1263 1266 2197 
1510 1271 1274 2203 1507 1267 1270 2200 
1513 1275 1278 2206 1510 1271 1274 2203 
1516 1279 1282 2209 1513 1275 1278 2206 
1519 1283 1286 2212 1516 1279 1282 2209 
1522 1287 1290 2215 1519 1283 1286 2212 
1525 1291 1294 2218 1522 1287 1290 2215 
126 5 8 456 1525 1291 1294 2218 
2074 3689 3731 3395 2078 3690 3732 3396 
2082 3691 3733 3397 2074 3689 3731 3395 
2086 3692 3734 3398 2082 3691 3733 3397 
2090 3693 3735 3399 2086 3692 3734 3398 
2094 3694 3736 3400 2090 3693 3735 3399 
2098 3695 3737 3401 2094 3694 3736 3400 
2102 3696 3738 3402 2098 3695 3737 3401 
2106 3697 3739 3403 2102 3696 3738 3402 
2110 3698 3740 3404 2106 3697 3739 3403 
2114 3699 3741 3405 2110 3698 3740 3404 
2118 3700 3742 3406 2114 3699 3741 3405 
2122 3701 3743 3407 2118 3700 3742 3406 
2126 3702 3744 3408 2122 3701 3743 3407 
2130 3703 3745 3409 2126 3702 3744 3408 
2134 3704 3746 3410 2130 3703 3745 3409 
2138 3705 3747 3411 2134 3704 3746 3410 
2142 3706 3748 3412 2138 3705 3747 3411 
2146 3707 3749 3413 2142 3706 3748 3412 
2150 3708 3750 3414 2146 3707 3749 3413 
2154 3709 3751 3415 2150 3708 3750 3414 
417 1182 1202 1042 2154 3709 3751 3415 
1527 1526 2494 3605 1531 1530 2497 3608 
1535 1534 2500 3611 1527 1526 2494 3605 
1539 1538 2503 3614 1535 1534 2500 3611 
1543 1542 2506 3617 1539 1538 2503 3614 
1547 1546 2509 3620 1543 1542 2506 3617 
1551 1550 2512 3623 1547 1546 2509 3620 
1555 1554 2515 3626 1551 1550 2512 3623 
1559 1558 2518 3629 1555 1554 2515 3626 
1563 1562 2521 3632 1559 1558 2518 3629 
1567 1566 2524 3635 1563 1562 2521 3632 
1571 1570 2527 3638 1567 1566 2524 3635 
1575 1574 2530 3641 1571 1570 2527 3638 
1579 1578 2533 3644 1575 1574 2530 3641 
1583 1582 2536 3647 1579 1578 2533 3644 
1587 1586 2539 3650 1583 1582 2536 3647 
1591 1590 2542 3653 1587 1586 2539 3650 
1595 1594 2545 3656 1591 1590 2542 3653 
1599 1598 2548 3659 1595 1594 2545 3656 
1603 1602 2551 3662 1599 1598 2548 3659 
1607 1606 2554 3665 1603 1602 2551 3662 
156 155 616 1144 1607 1606 2554 3665 
1989 3144 2746 1990 1993 3146 2749 1994 
1997 3148 2752 1998 1989 3144 2746 1990 
2001 3150 2755 2002 1997 3148 2752 1998 
2005 3152 2758 2006 2001 3150 2755 2002 
2009 3154 2761 2010 2005 3152 2758 2006 
2013 3156 2764 2014 2009 3154 2761 2010 
2017 3158 2767 2018 2013 3156 2764 2014 
2021 3160 2770 2022 2017 3158 2767 2018 
2025 3162 2773 2026 2021 3160 2770 2022 
2029 3164 2776 2030 2025 3162 2773 2026 
2033 3166 2779 2034 2029 3164 2776 2030 
2037 3168 2782 2038 2033 3166 2779 2034 
2041 3170 2785 2042 2037 3168 2782 2038 
2045 3172 2788 2046 2041 3170 2785 2042 
2049 3174 2791 2050 2045 3172 2788 2046 
2053 3176 2794 2054 2049 3174 2791 2050 
2057 3178 2797 2058 2053 3176 2794 2054 
2061 3180 2800 2062 2057 3178 2797 2058 
2065 3182 2803 2066 2061 3180 2800 2062 
2069 3184 2806 2070 2065 3182 2803 2066 
376 924 736 377 2069 3184 2806 2070 
1779 1778 2598 2597 1783 1782 2602 2601 
1787 1786 2606 2605 1779 1778 2598 2597 
1791 1790 2610 2609 1787 1786 2606 2605 
1795 1794 2614 2613 1791 1790 2610 2609 
1799 1798 2618 2617 1795 1794 2614 2613 
1803 1802 2622 2621 1799 1798 2618 2617 
1807 1806 2626 2625 1803 1802 2622 2621 
1811 1810 2630 2629 1807 1806 2626 2625 
1815 1814 2634 2633 1811 1810 2630 2629 
1819 1818 2638 2637 1815 1814 2634 2633 
1823 1822 2642 2641 1819 1818 2638 2637 
1827 1826 2646 2645 1823 1822 2642 2641 
1831 1830 2650 2649 1827 1826 2646 2645 
1835 1834 2654 2653 1831 1830 2650 2649 
1839 1838 2658 2657 1835 1834 2654 2653 
1843 1842 2662 2661 1839 1838 2658 2657 
1847 1846 2666 2665 1843 1842 2662 2661 
1851 1850 2670 2669 1847 1846 2666 2665 
1855 1854 2674 2673 1851 1850 2670 2669 
1859 1858 2678 2677 1855 1854 2674 2673 
276 275 666 665 1859 1858 2678 2677 
2976 3437 3102 2369 2978 3438 3104 2373 
2980 3439 3106 2377 2976 3437 3102 2369 
2982 3440 3108 2381 2980 3439 3106 2377 
2984 3441 3110 2385 2982 3440 3108 2381 
2986 3442 3112 2389 2984 3441 3110 2385 
2988 3443 3114 2393 2986 3442 3112 2389 
2990 3444 3116 2397 2988 3443 3114 2393 
2992 3445 3118 2401 2990 3444 3116 2397 
2994 3446 3120 2405 2992 3445 3118 2401 
2996 3447 3122 2409 2994 3446 3120 2405 
2998 3448 3124 2413 2996 3447 3122 2409 
3000 3449 3126 2417 2998 3448 3124 2413 
3002 3450 3128 2421 3000 3449 3126 2417 
3004 3451 3130 2425 3002 3450 3128 2421 
3006 3452 3132 2429 3004 3451 3130 2425 
3008 3453 3134 2433 3006 3452 3132 2429 
3010 3454 3136 2437 3008 3453 3134 2433 
3012 3455 3138 2441 3010 3454 3136 2437 
3014 3456 3140 2445 3012 3455 3138 2441 
3016 3457 3142 2449 3014 3456 3140 2445 
844 1062 904 558 3016 3457 3142 2449 
3353 1379 1382 2555 3354 1383 1386 2557 
3355 1387 1390 2559 3353 1379 1382 2555 
3356 1391 1394 2561 3355 1387 1390 2559 
3357 1395 1398 2563 3356 1391 1394 2561 
3358 1399 1402 2565 3357 1395 1398 2563 
3359 1403 1406 2567 3358 1399 1402 2565 
3360 1407 1410 2569 3359 1403 1406 2567 
3361 1411 1414 2571 3360 1407 1410 2569 
3362 1415 1418 2573 3361 1411 1414 2571 
3363 1419 1422 2575 3362 1415 1418 2573 
3364 1423 1426 2577 3363 1419 1422 2575 
3365 1427 1430 2579 3364 1423 1426 2577 
3366 1431 1434 2581 3365 1427 1430 2579 
3367 1435 1438 2583 3366 1431 1434 2581 
3368 1439 1442 2585 3367 1435 1438 2583 
3369 1443 1446 2587 3368 1439 1442 2585 
3370 1447 1450 2589 3369 1443 1446 2587 
3371 1451 1454 2591 3370 1447 1450 2589 
3372 1455 1458 2593 3371 1451 1454 2591 
3373 1459 1462 2595 3372 1455 1458 2593 
1022 85 88 643 3373 1459 1462 2595 
1946 1463 1465 2681 1948 1466 1468 2682 
1950 1469 1471 2683 1946 1463 1465 2681 
1952 1472 1474 2684 1950 1469 1471 2683 
1954 1475 1477 2685 1952 1472 1474 2684 
1956 1478 1480 2686 1954 1475 1477 2685 
1958 1481 1483 2687 1956 1478 1480 2686 
1960 1484 1486 2688 1958 1481 1483 2687 
1962 1487 1489 2689 1960 1484 1486 2688 
1964 1490 1492 2690 1962 1487 1489 2689 
1966 1493 1495 2691 1964 1490 1492 2690 
1968 1496 1498 2692 1966 1493 1495 2691 
1970 1499 1501 2693 1968 1496 1498 2692 
1972 1502 1504 2694 1970 1499 1501 2693 
1974 1505 1507 2695 1972 1502 1504 2694 
1976 1508 1510 2696 1974 1505 1507 2695 
1978 1511 1513 2697 1976 1508 1510 2696 
1980 1514 1516 2698 1978 1511 1513 2697 
1982 1517 1519 2699 1980 1514 1516 2698 
1984 1520 1522 2700 1982 1517 1519 2699 
1986 1523 1525 2701 1984 1520 1522 2700 
353 124 126 702 1986 1523 1525 2701 
2220 2219 2871 1296 2224 2223 2873 1300 
2228 2227 2875 1304 2220 2219 2871 1296 
2232 2231 2877 1308 2228 2227 2875 1304 
2236 2235 2879 1312 2232 2231 2877 1308 
2240 2239 2881 1316 2236 2235 2879 1312 
2244 2243 2883 1320 2240 2239 2881 1316 
2248 2247 2885 1324 2244 2243 2883 1320 
2252 2251 2887 1328 2248 2247 2885 1324 
2256 2255 2889 1332 2252 2251 2887 1328 
2260 2259 2891 1336 2256 2255 2889 1332 
2264 2263 2893 1340 2260 2259 2891 1336 
2268 2267 2895 1344 2264 2263 2893 1340 
2272 2271 2897 1348 2268 2267 2895 1344 
2276 2275 2899 1352 2272 2271 2897 1348 
2280 2279 2901 1356 2276 2275 2899 1352 
2284 2283 2903 1360 2280 2279 2901 1356 
2288 2287 2905 1364 2284 2283 2903 1360 
2292 2291 2907 1368 2288 2287 2905 1364 
2296 2295 2909 1372 2292 2291 2907 1368 
2300 2299 2911 1376 2296 2295 2909 1372 
486 485 794 46 2300 2299 2911 1376 
3143 3185 1737 1736 3145 3188 1739 1738 
3147 3191 1741 1740 3143 3185 1737 1736 
3149 3194 1743 1742 3147 3191 1741 1740 
3151 3197 1745 1744 3149 3194 1743 1742 
3153 3200 1747 1746 3151 3197 1745 1744 
3155 3203 1749 1748 3153 3200 1747 1746 
3157 3206 1751 1750 3155 3203 1749 1748 
3159 3209 1753 1752 3157 3206 1751 1750 
3161 3212 1755 1754 3159 3209 1753 1752 
3163 3215 1757 1756 3161 3212 1755 1754 
3165 3218 1759 1758 3163 3215 1757 1756 
3167 3221 1761 1760 3165 3218 1759 1758 
3169 3224 1763 1762 3167 3221 1761 1760 
3171 3227 1765 1764 3169 3224 1763 1762 
3173 3230 1767 1766 3171 3227 1765 1764 
3175 3233 1769 1768 3173 3230 1767 1766 
3177 3236 1771 1770 3175 3233 1769 1768 
3179 3239 1773 1772 3177 3236 1771 1770 
3181 3242 1775 1774 3179 3239 1773 1772 
3183 3245 1777 1776 3181 3242 1775 1774 
923 944 254 253 3183 3245 1777 1776 
2913 2912 1295 3080 2916 2915 1299 3081 
2919 2918 1303 3082 2913 2912 1295 3080 
2922 2921 1307 3083 2919 2918 1303 3082 
2925 2924 1311 3084 2922 2921 1307 3083 
2928 2927 1315 3085 2925 2924 1311 3084 
2931 2930 1319 3086 2928 2927 1315 3085 
2934 2933 1323 3087 2931 2930 1319 3086 
2937 2936 1327 3088 2934 2933 1323 3087 
2940 2939 1331 3089 2937 2936 1327 3088 
2943 2942 1335 3090 2940 2939 1331 3089 
2946 2945 1339 3091 2943 2942 1335 3090 
2949 2948 1343 3092 2946 2945 1339 3091 
2952 2951 1347 3093 2949 2948 1343 3092 
2955 2954 1351 3094 2952 2951 1347 3093 
2958 2957 1355 3095 2955 2954 1351 3094 
2961 2960 1359 3096 2958 2957 1355 3095 
2964 2963 1363 3097 2961 2960 1359 3096 
2967 2966 1367 3098 2964 2963 1363 3097 
2970 2969 1371 3099 2967 2966 1367 3098 
2973 2972 1375 3100 2970 2969 1371 3099 
815 814 45 892 2973 2972 1375 3100 
2494 2493 3479 3606 2497 2496 3480 3609 
2500 2499 3481 3612 2494 2493 3479 3606 
2503 2502 3482 3615 2500 2499 3481 3612 
2506 2505 3483 3618 2503 2502 3482 3615 
2509 2508 3484 3621 2506 2505 3483 3618 
2512 2511 3485 3624 2509 2508 3484 3621 
2515 2514 3486 3627 2512 2511 3485 3624 
2518 2517 3487 3630 2515 2514 3486 3627 
2521 2520 3488 3633 2518 2517 3487 3630 
2524 2523 3489 3636 2521 2520 3488 3633 
2527 2526 3490 3639 2524 2523 3489 3636 
2530 2529 3491 3642 2527 2526 3490 3639 
2533 2532 3492 3645 2530 2529 3491 3642 
2536 2535 3493 3648 2533 2532 3492 3645 
2539 2538 3494 3651 2536 2535 3493 3648 
2542 2541 3495 3654 2539 2538 3494 3651 
2545 2544 3496 3657 2542 2541 3495 3654 
2548 2547 3497 3660 2545 2544 3496 3657 
2551 2550 3498 3663 2548 2547 3497 3660 
2554 2553 3499 3666 2551 2550 3498 3663 
616 615 1082 1145 2554 2553 3499 3666 
2808 2303 2305 2703 2811 2306 2308 2705 
2814 2309 2311 2707 2808 2303 2305 2703 
2817 2312 2314 2709 2814 2309 2311 2707 
2820 2315 2317 2711 2817 2312 2314 2709 
2823 2318 2320 2713 2820 2315 2317 2711 
2826 2321 2323 2715 2823 2318 2320 2713 
2829 2324 2326 2717 2826 2321 2323 2715 
2832 2327 2329 2719 2829 2324 2326 2717 
2835 2330 2332 2721 2832 2327 2329 2719 
2838 2333 2335 2723 2835 2330 2332 2721 
2841 2336 2338 2725 2838 2333 2335 2723 
2844 2339 2341 2727 2841 2336 2338 2725 
2847 2342 2344 2729 2844 2339 2341 2727 
2850 2345 2347 2731 2847 2342 2344 2729 
2853 2348 2350 2733 2850 2345 2347 2731 
2856 2351 2353 2735 2853 2348 2350 2733 
2859 2354 2356 2737 2856 2351 2353 2735 
2862 2357 2359 2739 2859 2354 2356 2737 
2865 2360 2362 2741 2862 2357 2359 2739 
2868 2363 2365 2743 2865 2360 2362 2741 
765 524 526 714 2868 2363 2365 2743 
1737 3187 3710 1464 1739 3190 3711 1467 
1741 3193 3712 1470 1737 3187 3710 1464 
1743 3196 3713 1473 1741 3193 3712 1470 
1745 3199 3714 1476 1743 3196 3713 1473 
1747 3202 3715 1479 1745 3199 3714 1476 
1749 3205 3716 1482 1747 3202 3715 1479 
1751 3208 3717 1485 1749 3205 3716 1482 
1753 3211 3718 1488 1751 3208 3717 1485 
1755 3214 3719 1491 1753 3211 3718 1488 
1757 3217 3720 1494 1755 3214 3719 1491 
1759 3220 3721 1497 1757 3217 3720 1494 
1761 3223 3722 1500 1759 3220 3721 1497 
1763 3226 3723 1503 1761 3223 3722 1500 
1765 3229 3724 1506 1763 3226 3723 1503 
1767 3232 3725 1509 1765 3229 3724 1506 
1769 3235 3726 1512 1767 3232 3725 1509 
1771 3238 3727 1515 1769 3235 3726 1512 
1773 3241 3728 1518 1771 3238 3727 1515 
1775 3244 3729 1521 1773 3241 3728 1518 
1777 3247 3730 1524 1775 3244 3729 1521 
254 946 1192 125 1777 3247 3730 1524 
1432 3065 2846 1433 1428 3063 2843 1429 
